********************************************************************************
Field Output Report, written Tue Feb  6 13:11:36 2024

Source 1
---------

   ODB: C:/Users/Daniel Gutierrez/Desktop/Back up 28-06-23/Imperial College/Imperial 2023-2024/AVD/pt2/github sims/AVD/iter 1.3/Job-MESH-20.odb
   Step: Loading down with g
   Frame: Increment      1: Step Time =    1.000

Loc 1 : Nodal values from source 1

Output sorted by column "Node Label".

Field Output reported at nodes for part: BLANK-1
   Computation algorithm: EXTRAPOLATE_COMPUTE_AVERAGE
   Averaged at nodes
   Averaging regions: ODB_REGIONS

      Node Label         S.Mises
                          @Loc 1
---------------------------------
               1         18.6375
               2         20.7137
               3         18.6202
               4         19.0868
               5         8.10298
               6         8.68998
               7         5.36171
               8         1.32661
               9         7.70049
              10     668.842E-03
              11         3.66792
              12     63.7311E-03
              13     47.3199E-03
              14     48.0593E-03
              15     62.9959E-03
              16     12.0328E-03
              17     13.4799E-03
              18     25.2869E-03
              19     36.7341E-03
              20         10.6352
              21         16.4289
              22         20.6987
              23         16.3436
              24         10.9008
              25         17.6141
              26         24.1226
              27         10.8758
              28         15.3888
              29         20.2762
              30         17.6914
              31         10.5742
              32         15.6764
              33         25.7248
              34         7.40549
              35         2.31054
              36         1.52210
              37         6.98425
              38         17.1531
              39         28.5657
              40         29.1946
              41         7.08438
              42         2.30425
              43         1.72051
              44         4.52697
              45         16.2151
              46         29.5922
              47         32.3315
              48         4.53059
              49         4.51631
              50         5.16330
              51         8.01754
              52         12.6119
              53         17.2101
              54         13.7620
              55         4.65663
              56         4.76523
              57         5.17896
              58         7.56097
              59         13.6797
              60         17.8851
              61         15.2447
              62         8.19907
              63         8.30238
              64         5.44177
              65         7.27552
              66         8.88734
              67         6.89706
              68         3.54113
              69         2.53216
              70     732.603E-03
              71         4.42652
              72         7.77430
              73         7.54900
              74         6.91371
              75         4.50128
              76         1.05780
              77     985.492E-03
              78         1.50709
              79         2.85237
              80         3.41952
              81         3.83580
              82         3.22610
              83         1.40606
              84     653.038E-03
              85     109.403E-03
              86     175.798E-03
              87     536.579E-03
              88     489.161E-03
              89         1.39993
              90         2.20427
              91     775.306E-03
              92     203.875E-03
              93     37.5423E-03
              94     118.145E-03
              95     103.545E-03
              96     44.6652E-03
              97     190.846E-03
              98     789.232E-03
              99         2.09827
             100         1.23597
             101     922.266E-03
             102     501.287E-03
             103     512.637E-03
             104     128.150E-03
             105     121.260E-03
             106     146.661E-03
             107     210.329E-03
             108         1.11972
             109         2.61069
             110         4.35289
             111         6.18243
             112         7.85588
             113         8.98689
             114         9.36503
             115         8.97574
             116         8.15754
             117         7.21953
             118         6.35317
             119         5.57922
             120         4.90967
             121         4.30170
             122         3.72252
             123         3.15202
             124         2.58152
             125         1.98953
             126         1.38749
             127     811.346E-03
             128     328.358E-03
             129     29.1360E-03
             130     47.8250E-03
             131     60.4620E-03
             132     63.1241E-03
             133     315.138E-03
             134     810.633E-03
             135         1.40307
             136         2.00331
             137         2.57590
             138         3.15981
             139         3.72841
             140         4.30176
             141         4.91205
             142         5.59276
             143         6.34619
             144         7.22845
             145         8.18003
             146         9.04552
             147         9.34911
             148         8.97901
             149         7.82734
             150         6.17973
             151         4.32765
             152         2.57836
             153         1.15619
             154     214.364E-03
             155     149.542E-03
             156     57.8013E-03
             157     47.1171E-03
             158     313.648E-03
             159     810.536E-03
             160         1.40076
             161         2.02374
             162         2.64328
             163         3.26299
             164         3.87540
             165         4.48389
             166         5.13889
             167         5.83225
             168         6.59721
             169         7.42557
             170         8.23564
             171         8.92253
             172         9.18299
             173         8.82255
             174         7.66516
             175         6.11714
             176         4.34170
             177         2.66561
             178         1.15935
             179     302.650E-03
             180     151.456E-03
             181     48.6406E-03
             182     40.9880E-03
             183     194.691E-03
             184     750.672E-03
             185         1.57307
             186     626.984E-03
             187     886.192E-03
             188     144.500E-03
             189     61.3276E-03
             190     22.7958E-03
             191     62.8943E-03
             192     60.3653E-03
             193     60.0832E-03
             194     334.098E-03
             195     811.047E-03
             196         1.40382
             197         2.03053
             198         2.65523
             199         3.26489
             200         3.87392
             201         4.49252
             202         5.13565
             203         5.82884
             204         6.60847
             205         7.43157
             206         8.28233
             207         8.94124
             208         9.13622
             209         8.75368
             210         7.66971
             211         6.07634
             212         4.33513
             213         2.61345
             214         1.19843
             215     225.102E-03
             216     126.430E-03
             217     60.8233E-03
             218     17.3938E-03
             219     52.2277E-03
             220     304.585E-03
             221         1.20325
             222         1.62752
             223     612.653E-03
             224     83.6475E-03
             225     43.0726E-03
             226     40.9007E-03
             227         9.80499
             228         10.6160
             229         7.67851
             230         13.2110
             231         10.4621
             232         7.54281
             233         12.8461
             234         13.4143
             235         10.4330
             236         6.12313
             237         10.7016
             238         9.55756
             239         2.23865
             240         2.12270
             241         11.9579
             242         4.47050
             243         13.2756
             244         12.5621
             245         6.27051
             246         5.74669
             247         6.63900
             248         2.02938
             249         2.54977
             250         6.71307
             251         2.15842
             252         2.85518
             253         7.38934
             254         10.8187
             255         9.80392
             256         6.11452
             257         12.4688
             258         8.02356
             259         7.81406
             260         2.83044
             261         8.15520
             262         1.96649
             263         16.0945
             264         12.9022
             265         8.76544
             266         13.5620
             267         1.77332
             268         15.3229
             269         3.65698
             270         4.29317
             271         15.4432
             272         8.13118
             273         2.59168
             274         15.5770
             275         15.6407
             276         2.80618
             277         11.8361
             278         9.50691
             279         13.3110
             280         5.92726
             281         4.29981
             282         5.02850
             283         1.01868
             284         7.00979
             285         8.50984
             286         4.41108
             287         11.6915
             288         11.1093
             289         5.14229
             290         5.44643
             291         11.4105
             292         5.94112
             293         3.31153
             294         10.3494
             295         10.6451
             296         12.1385
             297     718.189E-03
             298         7.94127
             299         8.81107
             300         8.57018
             301         10.8948
             302         9.78886
             303         5.05793
             304         5.10360
             305         4.22489
             306         4.62511
             307         4.95554
             308         8.90615
             309         7.94125
             310         10.5216
             311         10.7188
             312         6.56386
             313         3.60942
             314         1.71866
             315         7.75976
             316         2.08244
             317         1.39165
             318         6.83962
             319         7.94326
             320         4.09741
             321         4.16144
             322         4.38262
             323         4.36673
             324         5.21672
             325         3.33281
             326         4.02343
             327         3.74181
             328         2.95284
             329         6.23254
             330         4.02855
             331         5.46884
             332         8.95626
             333         9.25137
             334         8.42970
             335         8.06209
             336         8.61736
             337         7.28119
             338         8.19044
             339         7.10943
             340         3.11321
             341         2.40368
             342         3.96207
             343         8.63023
             344         4.49353
             345         7.57754
             346         7.97231
             347         9.38002
             348         8.66342
             349         3.21632
             350         3.58298
             351         6.39225
             352         7.31912
             353         3.25819
             354         4.18753
             355         2.22521
             356         3.99621
             357         6.74506
             358         6.54406
             359         7.44646
             360         3.81183
             361         3.65437
             362         3.51115
             363         2.73414
             364         6.23798
             365         3.52137
             366         7.12533
             367         6.18162
             368         8.26780
             369         8.31677
             370         6.74393
             371         8.52964
             372         1.58382
             373         1.68283
             374         3.01483
             375         6.66665
             376         7.34222
             377         7.48479
             378         5.45855
             379         7.12610
             380         6.82206
             381         6.43868
             382         7.69576
             383         7.45793
             384         2.55075
             385         1.92173
             386         5.04006
             387         6.42108
             388         7.41346
             389         6.21184
             390         4.97564
             391         7.25648
             392         6.63423
             393         1.80057
             394         1.48768
             395         3.21338
             396         6.43611
             397         2.79233
             398         3.05577
             399         2.96760
             400         5.24681
             401         2.17484
             402         2.35875
             403         4.55645
             404         5.46560
             405         6.96519
             406         5.64724
             407         6.04219
             408         5.95333
             409         6.50358
             410         7.08107
             411         6.11590
             412         6.09036
             413         1.69801
             414         6.75507
             415     907.419E-03
             416         6.63795
             417         6.27284
             418         5.09554
             419         4.72186
             420         6.30474
             421         5.44777
             422     768.776E-03
             423         2.96145
             424         3.87786
             425     698.166E-03
             426         3.44305
             427         2.46312
             428         5.84718
             429         4.62903
             430         7.23838
             431         6.13378
             432         5.35849
             433         5.65658
             434         6.15559
             435         5.97115
             436         5.90544
             437         5.18226
             438         5.64788
             439         6.53887
             440         6.52896
             441         6.05007
             442         6.58815
             443         5.10402
             444         5.34162
             445         2.57047
             446         4.42005
             447         3.21734
             448         5.76707
             449         6.77048
             450         3.92385
             451         3.43942
             452         1.90844
             453         2.74091
             454         3.54515
             455         5.83710
             456         5.17243
             457         1.52960
             458         5.75664
             459         5.64786
             460         5.57700
             461         5.02528
             462         6.59971
             463         6.00067
             464         6.35509
             465         2.48319
             466         5.07677
             467         3.16929
             468         2.71192
             469         3.30239
             470         5.74764
             471         5.72814
             472         2.59864
             473         5.48143
             474         4.39014
             475         5.52717
             476         6.16096
             477         6.51024
             478         5.46723
             479         2.66909
             480         2.26148
             481         5.83410
             482         3.04870
             483         3.65281
             484         6.22593
             485         5.47385
             486         3.97611
             487         4.79125
             488     868.991E-03
             489         1.34278
             490         3.07867
             491         4.85422
             492         2.85688
             493         2.80246
             494         6.12132
             495         5.40555
             496         5.28328
             497         5.64011
             498         5.55546
             499         5.83543
             500         5.30752
             501         6.02978
             502         6.02337
             503         5.12600
             504         5.67846
             505         4.92723
             506         4.98532
             507         6.06279
             508         6.32966
             509         5.20321
             510         5.82134
             511         2.10697
             512         5.47584
             513         2.34227
             514         2.07163
             515         2.61111
             516         5.56607
             517         2.89520
             518         4.30152
             519         2.68888
             520         2.51971
             521         2.51628
             522         1.99699
             523         5.23122
             524         4.32187
             525         2.49124
             526         1.53297
             527         1.68696
             528     381.044E-03
             529         2.70735
             530         2.62462
             531     823.291E-03
             532         5.64609
             533         5.27045
             534         5.01264
             535         5.08287
             536         5.67690
             537         5.97205
             538         5.36668
             539         5.42537
             540         5.50768
             541         5.59375
             542         6.23722
             543         6.12669
             544         1.92506
             545         4.44549
             546         5.81803
             547         5.64855
             548         2.78915
             549         3.06232
             550         2.48332
             551         2.75327
             552         1.64486
             553         4.58596
             554         1.32952
             555         2.23590
             556         3.27609
             557         2.24643
             558         2.85864
             559         5.39053
             560         2.58831
             561         5.25478
             562         5.81034
             563         5.07060
             564         3.74578
             565         4.95223
             566         5.67713
             567         1.76573
             568         3.10253
             569         3.29108
             570         2.09898
             571         5.72757
             572         1.85309
             573     405.994E-03
             574         1.28193
             575         5.06272
             576         5.19699
             577         5.22999
             578         5.32860
             579         5.45346
             580         5.23564
             581         5.70708
             582         5.84718
             583         3.91531
             584         5.48266
             585         5.96979
             586         2.73801
             587         5.33683
             588         5.59259
             589         5.81715
             590         3.45116
             591         2.33812
             592         2.95719
             593         5.44482
             594         2.20765
             595         2.35236
             596         2.65370
             597         1.63777
             598         5.26533
             599         5.68425
             600         4.67480
             601         5.82940
             602         2.01747
             603         3.57125
             604         1.79747
             605         2.45858
             606         1.92329
             607         1.06945
             608         5.69476
             609         5.83507
             610         1.77212
             611         2.87836
             612         1.10388
             613         5.66099
             614     815.916E-03
             615     754.072E-03
             616         5.20974
             617         5.04506
             618         5.34993
             619         2.06765
             620         5.17203
             621         5.72633
             622         5.57506
             623         5.45564
             624         6.06922
             625         5.11851
             626         5.50185
             627         2.60137
             628         5.42732
             629         5.88118
             630         5.62031
             631         4.34898
             632         5.50763
             633         2.43382
             634         2.49488
             635         1.82046
             636         3.03809
             637         3.97760
             638         4.86326
             639         2.09389
             640         2.66436
             641         1.17875
             642         2.13663
             643         2.50511
             644         1.38925
             645         5.10688
             646         2.75254
             647         1.00464
             648         3.57522
             649         3.99985
             650         5.60175
             651         5.64862
             652         2.35066
             653         6.14213
             654         5.69514
             655     648.896E-03
             656         1.25851
             657         6.57066
             658         5.84131
             659         5.38033
             660         5.27465
             661         5.45016
             662         5.15302
             663         5.72549
             664         5.12005
             665         5.61929
             666         5.71540
             667         2.74623
             668         5.65695
             669         4.50824
             670         5.22518
             671         2.35095
             672         3.74795
             673         1.37336
             674         1.87603
             675         3.27853
             676         2.14236
             677         2.41788
             678     630.567E-03
             679         2.66413
             680         5.39777
             681         1.89423
             682         2.24306
             683     492.917E-03
             684         4.43544
             685         2.67274
             686         1.95597
             687         2.86791
             688         5.35623
             689         6.51324
             690         6.58999
             691         5.78714
             692     415.062E-03
             693     378.236E-03
             694         1.23578
             695         5.74437
             696         5.31440
             697         5.59109
             698         5.66969
             699         3.06705
             700         4.81701
             701         4.37816
             702         2.38557
             703         5.18423
             704         2.57461
             705         2.63726
             706         1.77949
             707         2.12588
             708         2.34936
             709         3.31867
             710         2.52786
             711         2.66058
             712         5.01126
             713         6.75421
             714         1.97876
             715     750.065E-03
             716         3.36875
             717         5.17405
             718     977.161E-03
             719         1.59398
             720     105.589E-03
             721     454.785E-03
             722         1.66096
             723     774.009E-03
             724         5.64824
             725         5.71798
             726         3.58950
             727         2.91310
             728         5.30155
             729         2.34809
             730         3.60703
             731         3.00471
             732         4.10593
             733         2.10655
             734         2.11401
             735         4.83211
             736         1.36222
             737         2.47805
             738         2.15501
             739         3.97902
             740         4.14006
             741     355.623E-03
             742         6.92383
             743         2.23114
             744         1.12339
             745         6.70027
             746         5.80692
             747         6.24556
             748         1.16547
             749     874.864E-03
             750         7.31367
             751     715.810E-03
             752         5.47282
             753         2.63982
             754     115.719E-03
             755         2.11337
             756         2.33409
             757         5.52981
             758         5.01077
             759         2.35770
             760         2.23184
             761         2.59052
             762         1.81800
             763         2.55746
             764         3.34787
             765         2.45181
             766         3.62578
             767         4.28471
             768         4.70718
             769         2.32028
             770         1.86337
             771         6.23564
             772         5.75594
             773     324.369E-03
             774         2.66029
             775         2.56267
             776     187.945E-03
             777     324.181E-03
             778         1.53165
             779     533.491E-03
             780         2.39823
             781         2.81117
             782         3.16745
             783         2.27393
             784         3.23303
             785         2.45803
             786         2.09760
             787         4.50834
             788         2.54086
             789         5.16625
             790         4.29152
             791         2.65608
             792         2.63486
             793         1.75522
             794         2.77167
             795         2.12564
             796         1.87989
             797     60.1240E-03
             798         3.00654
             799         2.34795
             800         2.58028
             801         2.38094
             802         2.59502
             803         3.66217
             804         2.56358
             805         2.66362
             806         2.45936
             807         2.63824
             808         2.67912
             809         5.69343
             810         3.89047
             811         5.99893
             812         2.53226
             813         2.35989
             814         2.93549
             815         5.36381
             816         2.46546
             817         6.82970
             818         2.74471
             819         2.68467
             820         2.42484
             821         2.59296
             822         2.60768
             823         2.51121
             824         2.63099
             825         2.64127
             826         3.39733
             827         2.62424
             828         2.56694
             829         3.38598
             830         5.91927
             831         2.21976
             832         2.54714
             833         4.90392
             834         2.29539
             835         2.59205
             836         2.87651
             837         2.45709
             838         3.14819
             839         2.69098
             840         2.66202
             841         3.97462
             842         2.74110
             843         2.58884
             844         2.68504
             845         3.02156
             846         2.53777
             847         3.99870
             848         2.27472
             849         2.55758
             850         2.60031
             851         2.53391
             852         2.70810
             853         2.96118
             854         2.67955
             855         2.62814
             856         2.71575
             857         2.67579
             858         2.55414
             859         2.79288
             860         4.41572
             861         3.56476
             862         3.43011
             863         2.64147
             864         2.62691
             865         4.65741
             866         2.77956
             867         2.65297
             868         2.73016
             869         2.61111
             870         2.53983
             871         2.72789
             872         2.64214
             873         2.60740
             874         2.78503
             875         2.61962
             876         2.88077
             877         3.22754
             878         2.64608
             879         3.02464
             880         2.77159
             881         4.17357
             882         4.81425
             883         2.93886
             884         3.99829
             885         2.95208
             886         2.60068
             887         2.67404
             888         2.58063
             889         2.83175
             890         2.65532
             891         2.70756
             892         2.66951
             893         2.97983
             894         3.37672
             895         3.63329
             896         3.22527
             897         5.47029
             898         2.61289
             899         2.90743
             900         2.81190
             901         3.22920
             902         3.87409
             903         4.17006
             904         5.05288
             905         2.76675
             906         2.73417
             907         3.65460
             908         3.16156
             909     773.266E-03
             910         7.09080
             911         1.49763
             912         3.67840
             913         4.77469
             914         2.66659
             915         2.61697
             916         3.84375
             917         2.59252
             918         4.93995
             919     375.307E-03
             920         6.35968
             921         3.32726
             922         2.61489
             923         4.60633
             924         1.94511
             925         5.23336
             926         4.01741
             927         2.57695
             928         4.23492
             929         6.82060
             930         5.12861
             931         5.82333
             932         6.49800
             933         2.78679
             934         1.91748
             935         1.60748
             936         2.84292
             937         6.00285
             938         3.71025
             939         2.92374
             940         2.85142
             941         2.45565
             942         1.35936
             943         5.18482
             944         3.99372
             945         6.14312
             946         5.74629
             947         6.45625
             948     505.262E-03
             949         1.13655
             950         1.88628
             951     151.539E-03
             952     504.826E-03
             953     908.303E-03
             954         1.33183
             955         1.76846
             956         3.16150
             957         3.65046
             958         4.15305
             959         4.67426
             960         5.21922
             961         5.78490
             962         6.35001
             963         6.82081
             964         7.01122
             965         6.90543
             966         6.52166
             967         5.75352
             968         4.76833
             969         3.69549
             970         2.60966
             971         1.56870
             972     358.104E-03
             973     97.2276E-03
             974     338.701E-03
             975     481.787E-03
             976     705.876E-03
             977         1.53106
             978         2.58504
             979         3.70671
             980         4.82118
             981         5.82942
             982         6.52842
             983         6.82779
             984         6.90781
             985         6.67223
             986         6.18138
             987         3.96678
             988         3.49065
             989         3.02532
             990         2.57228
             991         2.12807
             992         1.70087
             993         1.28770
             994     879.838E-03
             995     489.245E-03
             996     191.435E-03
             997         1.48577
             998     699.953E-03
             999         1.82886
            1000     507.763E-03
            1001         2.47919
            1002     617.144E-03
            1003     167.070E-03
            1004         1.80417
            1005         2.68985
            1006     738.491E-03
            1007         4.47786
            1008         5.28399
            1009     615.727E-03
            1010         1.86292
            1011         2.22077
            1012         4.17020
            1013         5.60204
            1014         5.82022
            1015         3.98871
            1016         1.73506
            1017         2.96410
            1018         4.73217
            1019         5.79355
            1020         5.40326
            1021         5.59620
            1022         5.02340
            1023         3.10913
            1024         3.28682
            1025         2.05066
            1026         3.97131
            1027         3.03666
            1028         1.12470
            1029         1.53095
            1030         3.45502
            1031         3.80835
            1032         4.53758
            1033         4.90300
            1034         5.31538
            1035         5.62630
            1036         5.65852
            1037         4.75601
            1038         1.07105
            1039         5.30671
            1040         5.70092
            1041         5.51801
            1042         5.09702
            1043         2.94726
            1044         2.62652
            1045         2.32679
            1046         1.78125
            1047         1.48014
            1048     554.703E-03
            1049         5.89968
            1050         5.44586
            1051         5.62664
            1052         3.91509
            1053         1.95771
            1054         6.29789
            1055         2.55802
            1056         4.66135
            1057         6.31352
            1058         6.02625
            1059         4.99646
            1060         5.77434
            1061         5.29271
            1062         5.11326
            1063         5.83465
            1064         5.29035
            1065         5.47511
            1066         3.80332
            1067         1.88268
            1068         2.15323
            1069         5.80727
            1070         4.69795
            1071         5.98652
            1072         6.10252
            1073         5.31562
            1074         5.73748
            1075         5.12406
            1076         5.55716
            1077         5.56631
            1078         3.94491
            1079         3.17949
            1080         2.95106
            1081         2.26786
            1082         5.46505
            1083         3.34924
            1084         2.77677
            1085         2.16515
            1086         4.36160
            1087         3.63618
            1088         3.99699
            1089         5.41613
            1090         5.74250
            1091         4.00465
            1092         1.81662
            1093         3.82416
            1094         5.22013
            1095         2.02394
            1096         2.09435
            1097         3.62048
            1098         4.33378
            1099         2.17452
            1100         5.03437
            1101         2.32023
            1102         5.53245
            1103         3.42541
            1104         1.43452
            1105         2.48410
            1106         3.22542
            1107         2.66571
            1108         4.45804
            1109         3.02718
            1110         2.86487
            1111         1.79521
            1112         1.30552
            1113         4.73355
            1114         2.46402
            1115         2.14252
            1116         2.99397
            1117         1.03340
            1118         2.29578
            1119         2.82913
            1120         3.06938
            1121         3.67131
            1122         2.66768
            1123         3.47424
            1124         2.40595
            1125         2.57394
            1126         2.23845
            1127         2.37431
            1128         2.48848
            1129         2.41591
            1130         5.71257
            1131         3.27700
            1132         2.99768
            1133         3.05490
            1134         2.96074
            1135         2.89106
            1136         3.89584
            1137         2.39673
            1138         2.64090
            1139         2.46597
            1140         5.48270
            1141         2.16328
            1142         2.56140
            1143         2.49419
            1144         2.75639
            1145         2.61322
            1146         2.80582
            1147         2.52628
            1148         2.95141
            1149         2.54691
            1150         2.57836
            1151         2.89245
            1152         2.67156
            1153         2.52281
            1154         2.71886
            1155         2.63774
            1156         2.83095
            1157         2.71957
            1158         3.19704
            1159         4.24040
            1160         2.56522
            1161         1.96797
            1162         2.56436
            1163     815.857E-03
            1164         2.61076
            1165         2.50420
            1166         2.72393
            1167         2.63106
            1168         2.60537
            1169         2.62044
            1170         2.26747
            1171         2.69089
            1172         2.61924
            1173         2.72831
            1174         2.58315
            1175         2.57068
            1176         2.71402
            1177         2.66533
            1178         2.62433
            1179         2.66375
            1180         2.52292
            1181         2.65731
            1182         2.85355
            1183         2.62665
            1184         2.69471
            1185         2.66144
            1186         2.61848
            1187         2.66612
            1188         2.51220
            1189         2.66860
            1190         2.59077
            1191         2.67409
            1192         2.36903
            1193         2.43945
            1194         5.73780
            1195         4.64717
            1196         4.79896
            1197         5.61825
            1198         13.1591
            1199     34.4969E-03
            1200     42.5563E-03
            1201     19.6014E-03
            1202         9.92664
            1203         17.4848
            1204         12.8897
            1205         11.4006
            1206         12.1273
            1207         11.5756
            1208         11.8192
            1209         11.1186
            1210         12.6566
            1211         14.0319
            1212         12.6178
            1213         11.3393
            1214         10.7443
            1215         11.8505
            1216         13.1814
            1217         12.0506
            1218         9.48185
            1219         15.5954
            1220         17.2493
            1221         16.2898
            1222         10.1068
            1223         9.54648
            1224         11.1204
            1225         11.6586
            1226         12.5453
            1227         11.3934
            1228         13.7246
            1229     50.1267E-03
            1230     123.417E-03
            1231     63.0960E-03
            1232     114.083E-03
            1233     149.424E-03
            1234     116.081E-03
            1235     116.053E-03
            1236     195.915E-03
            1237     397.203E-03
            1238     218.850E-03
            1239     64.2772E-03
            1240         14.6591
            1241         14.5164
            1242         21.6506
            1243     30.7804E-03
            1244     80.8493E-03
            1245     86.5843E-03
            1246     89.6162E-03
            1247     81.7939E-03
            1248     30.7614E-03
            1249     52.8528E-03
            1250     48.4251E-03
            1251     107.471E-03
            1252     203.955E-03
            1253     41.2153E-03
            1254     84.3121E-03
            1255     81.2720E-03
            1256         8.68598
            1257         11.6533
            1258         9.76492
            1259         11.1493
            1260         8.73228
            1261     153.013E-03
            1262     127.803E-03
            1263     66.6879E-03
            1264     179.937E-03
            1265     198.777E-03
            1266     438.725E-03
            1267     34.3251E-03
            1268     78.1144E-03
            1269     76.6497E-03
            1270     146.331E-03
            1271     67.0713E-03
            1272     76.9358E-03
            1273     34.8006E-03
            1274     83.2809E-03
            1275     38.4551E-03
            1276     54.8059E-03
            1277     46.9430E-03
            1278     72.6799E-03
            1279     145.880E-03
            1280     134.398E-03
            1281     27.6504E-03
            1282     26.0224E-03
            1283     31.7980E-03
            1284     29.6489E-03
            1285     24.5466E-03
            1286     42.7967E-03
            1287     26.4863E-03
            1288     12.8696E-03
            1289     29.1417E-03
            1290     29.4691E-03
            1291     20.7762E-03
            1292     27.3398E-03
            1293     10.5421E-03
            1294     28.6327E-03
            1295     28.3937E-03
            1296     27.1446E-03
            1297     99.6836E-03
            1298     31.8922E-03
            1299     27.6867E-03
            1300         9.15711
            1301         7.82388
            1302         8.64223
            1303         6.07827
            1304         7.22594
            1305         6.35395
            1306         14.3407
            1307         13.4851
            1308         14.0287
            1309         14.6577
            1310         20.7161
            1311         6.16857
            1312         8.48608
            1313         7.41162
            1314         8.95098
            1315         14.2517
            1316         13.9894
            1317         13.2910
            1318         7.92711
            1319         17.7381
            1320         22.6277
            1321         12.6852
            1322         24.4437
            1323         18.4982
            1324         30.5261
            1325         13.0521
            1326         15.1479
            1327         11.6221
            1328         12.1304
            1329         10.4896
            1330         14.4306
            1331         10.4398
            1332         16.9244
            1333         20.2870
            1334         28.9865
            1335         20.4663
            1336         16.2952
            1337         8.69708
            1338         6.27780
            1339         6.58794
            1340         6.16005
            1341         8.17301
            1342         4.37784
            1343         6.53343
            1344         8.48621
            1345         8.36667
            1346         5.82733
            1347         4.42335
            1348         4.93874
            1349         8.27411
            1350         5.61784
            1351         2.66293
            1352         2.66402
            1353         2.66682
            1354         2.68173
            1355         2.66838
            1356         2.66732
            1357         2.72879
            1358         2.75443
            1359         2.75604
            1360         2.74072
            1361         2.72155
            1362         2.71912
            1363         2.71094
            1364         2.71440
            1365         2.70766
            1366         2.72576
            1367         2.74389
            1368         2.72840
            1369         2.65065
            1370         2.65121
            1371         2.66450
            1372         2.67178
            1373         2.65433
            1374         2.64980
            1375         2.58826
            1376         2.61660
            1377         2.57659
            1378         2.63008
            1379         2.60588
            1380         2.71416
            1381         2.73654
            1382         2.67312
            1383         2.71197
            1384         2.82454
            1385         2.78205
            1386         2.87761
            1387         2.76769
            1388         2.80753
            1389         2.83121
            1390         2.81296
            1391         2.83287
            1392         2.73724
            1393         10.3489
            1394         12.5587
            1395         10.4111
            1396         10.2243
            1397         8.63132
            1398         10.0187
            1399         2.25587
            1400         2.22414
            1401         2.19608
            1402         2.13627
            1403         2.18694
            1404         2.19406
            1405         2.29227
            1406         2.24558
            1407         2.20591
            1408         2.32224
            1409         2.36184
            1410         2.43053
            1411         2.45556
            1412         2.34865
            1413         2.37141
            1414         2.32093
            1415         2.41392
            1416         2.39506
            1417         2.32684
            1418         2.41631
            1419         2.35314
            1420         2.38723
            1421         2.30688
            1422         2.35718
            1423         2.10879
            1424         2.10716
            1425         2.65953
            1426         2.68135
            1427         2.67261
            1428         2.64812
            1429         2.62958
            1430         2.63306
            1431     730.758E-03
            1432     647.185E-03
            1433     855.865E-03
            1434     652.066E-03
            1435     795.394E-03
            1436     625.461E-03
            1437         2.64857
            1438         2.64997
            1439         2.66084
            1440         2.61156
            1441         2.60691
            1442         2.59683
            1443         2.65117
            1444         2.64153
            1445         2.67137
            1446         2.66097
            1447         2.66833
            1448         2.63625
            1449         2.65591
            1450         2.78231
            1451         2.69063
            1452         2.72411
            1453         2.60070
            1454         2.68273
            1455         2.27221
            1456         2.30402
            1457         2.48989
            1458         2.49554
            1459         2.56388
            1460         2.51381
            1461         2.51773
            1462         2.46139
            1463         2.87985
            1464         2.91486
            1465         2.86530
            1466         2.74068
            1467         2.76249
            1468         2.71610
            1469         2.63322
            1470         2.69849
            1471         2.67433
            1472         2.79435
            1473         2.68987
            1474         2.66742
            1475         2.68300
            1476         2.77462
            1477         2.81164
            1478         2.70636
            1479         2.88187
            1480         2.93157
            1481         2.90791
            1482         2.70432
            1483         2.68041
            1484         2.67514
            1485         2.69166
            1486         2.72397
            1487         2.72694
            1488         2.71219
            1489         2.74983
            1490         2.77580
            1491         2.75978
            1492         2.68222
            1493         2.69278
            1494         2.81220
            1495         2.83985
            1496         2.72822
            1497         2.70795
            1498         2.69786
            1499         2.79777
            1500         2.64322
            1501         2.60944
            1502         2.65643
            1503         2.64127
            1504         2.69103
            1505         2.63645
            1506         2.65758
            1507         2.65253
            1508         2.62475
            1509         2.63095
            1510         2.62614
            1511         2.61185
            1512         2.61693
            1513         2.62234
            1514         2.64543
            1515         2.63166
            1516         2.62288
            1517         2.64079
            1518         2.66410
            1519         2.64213
            1520         2.64184
            1521         2.64006
            1522         2.66229
            1523         2.63245
            1524         2.61949
            1525         2.63364
            1526         2.62318
            1527         2.60635
            1528         2.62513
            1529         2.62720
            1530         2.54472
            1531         2.50078
            1532         2.59964
            1533         2.52733
            1534         2.56877
            1535         2.48884
            1536         2.33228
            1537         2.26907
            1538         2.39480
            1539         2.21840
            1540         2.69291
            1541         2.83221
            1542         2.63848
            1543         2.68550
            1544         2.57514
            1545         2.55490
            1546         2.60013
            1547         2.58876
            1548         2.58434
            1549         2.55806
            1550         2.56630
            1551         2.57276
            1552         2.62926
            1553         2.63911
            1554         2.63770
            1555         2.60187
            1556         2.60498
            1557         2.60606
            1558         2.62128
            1559         2.60724
            1560         2.62319
            1561         2.60495
            1562         2.61704
            1563         2.63671
            1564         2.61122
            1565         2.64416
            1566         2.63563
            1567         2.66152
            1568         2.62943
            1569         2.62167
            1570         2.59546
            1571         2.60728
            1572         2.59687
            1573         2.61433
            1574         2.68216
            1575         2.67754
            1576         2.65588
            1577         2.78501
            1578         2.73729
            1579         2.87020
            1580         2.88937
            1581         2.81924
            1582         2.90652
            1583         2.88923
            1584         3.00433
            1585         3.66789
            1586         3.81507
            1587         3.50468
            1588         3.43853
            1589         3.33165
            1590         3.60425
            1591         2.60766
            1592         2.62732
            1593         2.58845
            1594         3.13999
            1595         3.04523
            1596         3.17341
            1597         3.23415
            1598         3.34904
            1599         3.20407
            1600         3.37518
            1601         3.35165
            1602         3.25471
            1603         3.30765
            1604         3.42772
            1605         3.53070
            1606         3.32240
            1607         2.81313
            1608         3.00446
            1609         2.80333
            1610         2.98427
            1611         2.98294
            1612         2.74933
            1613         2.74877
            1614         2.72530
            1615         2.78909
            1616         2.78578
            1617         2.83238
            1618         2.86083
            1619         2.88734
            1620         2.98824
            1621         2.96947
            1622         2.94374
            1623         2.86007
            1624         2.84924
            1625         3.07848
            1626         2.92387
            1627         3.03010
            1628         2.92630
            1629         3.07629
            1630         2.96184
            1631         3.04569
            1632         3.04548
            1633         3.18552
            1634         2.80565
            1635         2.90110
            1636         2.92323
            1637         2.69929
            1638         2.69537
            1639         2.69355
            1640         2.69342
            1641         2.71186
            1642         2.70578
            1643         2.66746
            1644         2.70784
            1645         2.70804
            1646         2.76135
            1647         2.66412
            1648         2.67414
            1649         2.65347
            1650         2.76408
            1651         2.73926
            1652         2.77157
            1653         2.65478
            1654         2.60649
            1655         2.62066
            1656         2.60568
            1657         2.64974
            1658         2.60939
            1659         2.61936
            1660         2.58263
            1661         2.50741
            1662         2.51790
            1663         2.45264
            1664         2.54634
            1665         2.53540
            1666         2.60075
            1667         2.54961
            1668         2.57501
            1669         2.59202
            1670         2.55092
            1671         2.51848
            1672         2.51114
            1673         8.00637
            1674         9.57195
            1675         9.49627
            1676         11.0897
            1677         9.20052
            1678         9.44480
            1679         2.35159
            1680         2.30398
            1681         2.78271
            1682         2.88282
            1683         2.82368
            1684         2.54596
            1685         2.54140
            1686         2.56632
            1687         2.91629
            1688         3.02193
            1689         3.09138
            1690         2.97773
            1691         2.59802
            1692         2.60733
            1693         2.60916
            1694         2.60940
            1695         2.60313
            1696         2.37887
            1697         2.43464
            1698         2.41120
            1699         2.40281
            1700         2.55831
            1701         2.60839
            1702         2.56542
            1703         2.58571
            1704         2.56485
            1705         2.57981
            1706         2.91775
            1707         2.80553
            1708         2.72209
            1709         2.86662
            1710         2.61875
            1711         2.84726
            1712         2.71632
            1713         2.97542
            1714         2.55252
            1715         2.58865
            1716         2.57976
            1717         2.58441
            1718         2.59078
            1719         2.56699
            1720         2.39722
            1721         2.38862
            1722         2.46495
            1723         2.44120
            1724         2.46978
            1725         2.37708
            1726         2.62278
            1727         2.62399
            1728         2.61906
            1729         2.62870
            1730         2.59313
            1731         2.62109
            1732         2.62413
            1733         2.60871
            1734         2.60926
            1735         2.60634
            1736         2.60870
            1737         2.59986
            1738         2.59653
            1739         2.56848
            1740         2.50965
            1741         2.54708
            1742         2.52952
            1743         2.56201
            1744         2.52535
            1745         2.55002
            1746         2.57586
            1747         2.57868
            1748         2.56084
            1749         2.51520
            1750         2.46602
            1751         2.51989
            1752         2.52029
            1753         2.51345
            1754         2.48803
            1755         2.60497
            1756         2.63463
            1757         2.62864
            1758         2.62791
            1759         2.61602
            1760         2.62517
            1761         2.60740
            1762         8.39197
            1763         9.85764
            1764         9.40057
            1765         2.90452
            1766         2.89988
            1767         2.73027
            1768         3.19317
            1769         3.16039
            1770         3.19386
            1771         3.03058
            1772         3.19526
            1773         3.15782
            1774         3.11952
            1775         2.95584
            1776         2.98314
            1777         3.31817
            1778         3.27465
            1779         3.47740
            1780         2.66051
            1781         2.64878
            1782         2.65441
            1783         2.66855
            1784         2.66695
            1785         2.25274
            1786         2.37564
            1787         2.25592
            1788         2.20055
            1789         2.07675
            1790         2.19288
            1791         2.13394
            1792         2.30585
            1793         2.18992
            1794         2.62087
            1795         2.48352
            1796         2.54570
            1797         2.64989
            1798         2.78994
            1799         2.82751
            1800         2.54547
            1801         2.72972
            1802         2.10526
            1803         1.90787
            1804         2.12144
            1805         2.31997
            1806         2.02429
            1807         2.36250
            1808         2.24189
            1809         2.36670
            1810         2.25357
            1811         2.17076
            1812         2.35021
            1813         2.43304
            1814         2.29297
            1815         2.70267
            1816         2.39940
            1817         2.59719
            1818         2.23164
            1819         2.45440
            1820         2.41317
            1821         2.44358
            1822         2.52801
            1823         2.46788
            1824         2.39462
            1825         2.41157
            1826         2.38977
            1827         2.46517
            1828         2.44847
            1829         2.46949
            1830         2.18869
            1831         2.24957
            1832         2.16851
            1833         2.45874
            1834         2.23189
            1835         2.44874
            1836         2.31316
            1837         2.43713
            1838         2.34934
            1839         2.27436
            1840         2.44149
            1841         2.48986
            1842         2.50310
            1843         2.54153
            1844         2.40521
            1845         2.36498
            1846         2.35112
            1847         2.43227
            1848         2.97804
            1849         3.12318
            1850         3.15300
            1851         3.46599
            1852         3.29590
            1853         3.26077
            1854         5.67348
            1855         5.67982
            1856         5.59485
            1857         5.61873
            1858         5.56527
            1859         5.68048
            1860         3.65023
            1861         3.54958
            1862         3.57664
            1863         3.88655
            1864         3.99429
            1865         3.97261
            1866         3.11593
            1867         3.41665
            1868         3.08819
            1869         3.45881
            1870         3.37532
            1871         3.52633
            1872         4.17788
            1873         4.19335
            1874         4.23369
            1875         3.06591
            1876         3.07004
            1877         3.04862
            1878         3.71089
            1879         3.94261
            1880         3.67095
            1881         3.61640
            1882         2.54041
            1883         2.60169
            1884         2.49450
            1885         2.38980
            1886         2.38841
            1887         2.29867
            1888         2.41634
            1889         2.40772
            1890         2.52564
            1891         2.64214
            1892         2.66841
            1893         2.63489
            1894         2.65737
            1895         2.47284
            1896         2.59787
            1897         2.63621
            1898         2.62986
            1899         2.66435
            1900         2.61730
            1901         2.58442
            1902         2.60199
            1903         2.60542
            1904         2.56431
            1905         2.56055
            1906         2.55976
            1907         2.65111
            1908         2.64819
            1909         2.64974
            1910         2.65720
            1911         2.65963
            1912         2.65657
            1913         2.65902
            1914         2.65642
            1915         2.65944
            1916         2.65970
            1917         2.57396
            1918         2.54094
            1919         2.57824
            1920         2.61779
            1921         2.62471
            1922         2.65790
            1923         2.64774
            1924         2.70668
            1925         2.83175
            1926         2.78433
            1927         2.82162
            1928         2.71499
            1929         2.72923
            1930         2.53972
            1931         2.52693
            1932         2.53782
            1933         2.56583
            1934         13.4023
            1935         14.1519
            1936         12.4745
            1937         12.0232
            1938         11.0703
            1939         12.0700
            1940         2.65452
            1941         2.68061
            1942         2.57452
            1943         2.54173
            1944         2.50096
            1945         2.61710
            1946         2.50762
            1947         2.42113
            1948         2.32387
            1949         2.21915
            1950         2.33253
            1951         2.41095
            1952         2.53864
            1953         2.45310
            1954         2.65970
            1955         3.16801
            1956         3.43418
            1957         3.59329
            1958         3.40202
            1959         3.15080
            1960         3.01695
            1961         2.30503
            1962         2.37678
            1963         2.30085
            1964         2.23383
            1965         2.53572
            1966         2.64698
            1967         2.52657
            1968         2.44400
            1969         3.02225
            1970         2.87176
            1971         2.72974
            1972         3.07300
            1973         2.79724
            1974         3.09937
            1975         2.75135
            1976         10.4014
            1977         9.10207
            1978         10.1194
            1979         8.59885
            1980         8.70557
            1981         2.61417
            1982         2.61049
            1983         2.52304
            1984         2.57654
            1985         2.60424
            1986         2.66351
            1987         2.68113
            1988         2.62577
            1989         2.55156
            1990         2.85917
            1991         2.69478
            1992         2.73869
            1993         2.65724
            1994         11.4539
            1995         12.0304
            1996         13.0205
            1997         12.3797
            1998         12.1924
            1999         9.83772
            2000         2.66908
            2001         2.64340
            2002         3.00022
            2003         2.91694
            2004         2.52594
            2005         2.65085
            2006         2.55313
            2007         2.60966
            2008         2.59419
            2009         2.61717
            2010         3.36864
            2011         3.25468
            2012         3.05729
            2013         3.43571
            2014         3.56490
            2015         3.78452
            2016         3.49038
            2017         3.90361
            2018         3.56028
            2019         3.99462
            2020         3.92039
            2021         3.39419
            2022         3.78643
            2023         3.71226
            2024         5.87254
            2025         5.77477
            2026         5.95188
            2027         5.92973
            2028         5.99640
            2029         5.82034
            2030         6.15713
            2031         6.24815
            2032         6.17505
            2033         6.29735
            2034         6.20351
            2035         6.25835
            2036         6.53347
            2037         6.38854
            2038         6.38461
            2039         6.09668
            2040         6.22542
            2041         1.91104
            2042         2.02050
            2043         1.78628
            2044         2.51516
            2045         2.51063
            2046         2.53813
            2047         2.09512
            2048         2.26221
            2049         2.20213
            2050         7.83712
            2051         7.43968
            2052         9.23633
            2053         2.59568
            2054         2.59945
            2055         2.59348
            2056         2.59198
            2057         2.63119
            2058         2.70368
            2059         2.70302
            2060         2.63935
            2061         2.60731
            2062         2.57078
            2063         2.57377
            2064         2.51174
            2065         2.54411
            2066         2.78622
            2067         2.77714
            2068         2.86227
            2069         2.78485
            2070         2.79278
            2071         2.89515
            2072         2.88884
            2073         2.93981
            2074         2.63516
            2075         2.62735
            2076          2.8125
            2077         2.73097
            2078         3.65837
            2079         3.31861
            2080         3.50790
            2081         3.23423
            2082         3.88121
            2083         4.40973
            2084         4.16816
            2085         4.28791
            2086         3.78669
            2087         3.99781
            2088         4.61970
            2089         4.06246
            2090         4.29620
            2091         5.68325
            2092         5.61588
            2093         5.73396
            2094         5.65776
            2095         5.69679
            2096         5.70558
            2097         5.82405
            2098         5.82147
            2099         5.78828
            2100         5.43253
            2101         5.33136
            2102         5.57756
            2103         5.68001
            2104         5.46258
            2105         5.90957
            2106         5.76865
            2107         5.86915
            2108         5.93504
            2109         5.98521
            2110         5.51827
            2111         5.37586
            2112         5.53352
            2113         5.83133
            2114         5.61061
            2115         5.78368
            2116         4.96544
            2117         4.81420
            2118         4.49251
            2119         4.83293
            2120         4.98609
            2121         5.34063
            2122         3.73899
            2123         3.94622
            2124         4.11385
            2125         4.17262
            2126         3.94864
            2127         3.73161
            2128         3.92547
            2129         3.94773
            2130         2.48403
            2131         2.46006
            2132         13.7156
            2133         11.2985
            2134         10.2172
            2135         9.57885
            2136         14.0731
            2137         4.45431
            2138         4.65867
            2139         4.47055
            2140         4.72901
            2141         4.54143
            2142         4.71865
            2143         3.07767
            2144         3.37795
            2145         3.52666
            2146         3.29035
            2147         2.82847
            2148         2.60125
            2149         2.79294
            2150         2.79938
            2151         3.06105
            2152         2.83409
            2153         2.74303
            2154         3.25369
            2155         2.57365
            2156         2.53554
            2157         3.13651
            2158         3.13161
            2159         2.85551
            2160         2.50790
            2161         2.68662
            2162         2.73203
            2163         2.95396
            2164         2.74610
            2165         2.69467
            2166         2.25779
            2167         2.34467
            2168         2.30038
            2169         2.40182
            2170         3.57438
            2171         3.40565
            2172         3.72577
            2173         3.32194
            2174         3.31070
            2175         10.8526
            2176         9.68900
            2177         2.63412
            2178         2.51762
            2179         2.45512
            2180         2.49391
            2181         2.48331
            2182         2.44791
            2183         3.12562
            2184         3.12020
            2185         3.33009
            2186         3.20888
            2187         3.33808
            2188         3.11029
            2189         3.22642
            2190         3.22568
            2191         3.07826
            2192         3.16682
            2193         3.05056
            2194         2.99818
            2195         2.96504
            2196         3.05003
            2197         8.42568
            2198         7.61569
            2199         2.88490
            2200         2.80381
            2201         2.81834
            2202         2.66327
            2203         2.66682
            2204         2.68562
            2205         2.68137
            2206         2.93794
            2207         2.86141
            2208         2.09090
            2209         2.20170
            2210         2.19387
            2211         2.07396
            2212         1.95962
            2213         1.97921
            2214         1.92756
            2215         1.65429
            2216         1.80689
            2217         1.66636
            2218         1.95687
            2219         1.78287
            2220         1.81236
            2221         1.95462
            2222         2.01382
            2223         2.14004
            2224         2.01353
            2225         2.47463
            2226         2.33890
            2227         2.47696
            2228         2.41793
            2229         2.52704
            2230         2.39308
            2231         2.79243
            2232         2.87047
            2233         2.83875
            2234         2.75697
            2235         2.98955
            2236         2.61096
            2237         2.80701
            2238         2.72765
            2239         2.58965
            2240         2.58039
            2241         10.0621
            2242         3.69811
            2243         3.48726
            2244         4.94847
            2245         5.02797
            2246         4.43422
            2247         4.75329
            2248         4.67267
            2249         5.30752
            2250         4.62190
            2251         4.42329
            2252         4.18169
            2253         4.48087
            2254         4.96394
            2255         5.33394
            2256         5.52874
            2257         4.92212
            2258         4.90180
            2259         4.72153
            2260         5.32618
            2261         5.13870
            2262         5.37330
            2263         4.94312
            2264         4.82024
            2265         3.85136
            2266         5.71018
            2267         6.20051
            2268         5.99541
            2269         6.52841
            2270         6.00384
            2271         6.22780
            2272         5.69544
            2273         5.69669
            2274         5.74885
            2275         5.79232
            2276         5.77148
            2277         5.70224
            2278         6.13195
            2279         6.14419
            2280         5.20463
            2281         5.38377
            2282         5.16679
            2283         5.17244
            2284         5.00271
            2285         5.23801
            2286         5.41554
            2287         5.27243
            2288         5.47147
            2289         5.24355
            2290         5.39190
            2291         5.58855
            2292         5.61238
            2293         5.49818
            2294         5.51542
            2295         5.48507
            2296         5.60326
            2297         5.59079
            2298         5.95944
            2299         5.77052
            2300         5.90817
            2301         5.75157
            2302         5.46021
            2303         5.43101
            2304         5.47271
            2305         4.41946
            2306         4.83684
            2307         4.77746
            2308         5.17127
            2309         4.77146
            2310         4.77669
            2311         5.31220
            2312         4.98948
            2313         5.38870
            2314         4.77252
            2315         4.46059
            2316         4.75430
            2317         4.73624
            2318         4.75529
            2319         4.50106
            2320         4.14795
            2321         4.22089
            2322         5.55085
            2323         5.46047
            2324         4.93778
            2325         4.79218
            2326         4.98259
            2327         4.87186
            2328         5.01286
            2329         4.87038
            2330         5.28873
            2331         5.35726
            2332         5.18799
            2333         5.30873
            2334         5.25846
            2335         5.48101
            2336         5.37444
            2337         4.83706
            2338         5.26586
            2339         5.24772
            2340         5.81904
            2341         5.41948
            2342         5.17335
            2343         5.10945
            2344         5.11824
            2345         4.34233
            2346         4.13238
            2347         4.28135
            2348         4.44127
            2349         4.65621
            2350         4.73130
            2351         4.55916
            2352         5.48384
            2353         5.33377
            2354         5.42109
            2355         4.86868
            2356         5.25693
            2357         5.60821
            2358         5.27429
            2359         5.18509
            2360         3.68968
            2361         4.02634
            2362         3.91033
            2363         4.31898
            2364         3.87674
            2365         4.08026
            2366         5.75245
            2367         6.30655
            2368         5.80277
            2369         5.64641
            2370         5.16744
            2371         5.59927
            2372         6.03944
            2373         6.60623
            2374         6.54190
            2375         3.83469
            2376         3.73225
            2377         3.58948
            2378         2.68062
            2379         2.48608
            2380         2.49416
            2381         2.70474
            2382         2.69941
            2383         2.70203
            2384         2.71663
            2385         5.38837
            2386         5.46445
            2387         5.27294
            2388         6.28214
            2389         6.02541
            2390         6.02818
            2391         5.55830
            2392         5.62950
            2393         3.81282
            2394         3.67048
            2395         3.99777
            2396         3.14228
            2397         3.41149
            2398         2.98496
            2399         2.85539
            2400         5.59356
            2401         5.65898
            2402         6.00267
            2403         5.35010
            2404         5.28336
            2405         5.22763
            2406         5.28780
            2407         5.95999
            2408         4.70141
            2409         4.30476
            2410         4.56381
            2411         4.22460
            2412         4.21833
            2413         4.30198
            2414         4.74363
            2415         4.83824
            2416         5.66152
            2417         5.95509
            2418         5.64445
            2419         6.00873
            2420         5.11165
            2421         4.78390
            2422         5.00906
            2423         5.28466
            2424         5.10443
            2425         2.38234
            2426         2.29626
            2427         2.24215
            2428         2.43578
            2429         2.33452
            2430         2.45612
            2431         2.40945
            2432         2.37986
            2433         2.42750
            2434         2.32673
            2435         2.43820
            2436         2.46343
            2437         2.25972
            2438         2.23098
            2439         2.44586
            2440         2.41126
            2441         1.81616
            2442         1.94399
            2443         2.24574
            2444         2.17803
            2445         1.97744
            2446         2.08412
            2447         2.24336
            2448         2.30707
            2449         2.41649
            2450         2.27347
            2451         2.34985
            2452         1.99442
            2453         2.12156
            2454         1.91133
            2455         2.13217
            2456         1.94902
            2457         2.16311
            2458         1.90613
            2459         1.76188
            2460         1.99039
            2461         2.15700
            2462         2.31043
            2463         2.60674
            2464         2.64629
            2465         2.44919
            2466         2.44335
            2467         2.47995
            2468         2.60562
            2469         2.56382
            2470         2.59790
            2471         2.39891
            2472         1.16193
            2473         1.03185
            2474         1.42169
            2475         1.28121
            2476         1.39694
            2477         1.04642
            2478         1.07073
            2479         1.18318
            2480     837.918E-03
            2481     591.698E-03
            2482     353.342E-03
            2483     568.187E-03
            2484     365.046E-03
            2485     601.034E-03
            2486     380.949E-03
            2487     435.413E-03
            2488     668.676E-03
            2489     476.253E-03
            2490         6.07951
            2491         6.15072
            2492         6.08511
            2493         6.32710
            2494         6.27612
            2495         6.35994
            2496     694.610E-03
            2497     905.605E-03
            2498         1.68730
            2499         1.41970
            2500         1.52008
            2501         1.40809
            2502         1.63444
            2503         1.53437
            2504         1.91216
            2505         1.95529
            2506         1.82115
            2507         1.75397
            2508         1.70364
            2509         1.85901
            2510         1.61083
            2511         1.48736
            2512         2.00658
            2513         1.97167
            2514         2.07547
            2515         1.86744
            2516         1.90222
            2517         1.36794
            2518         1.24215
            2519         1.35841
            2520         1.50774
            2521         1.62558
            2522         1.54018
            2523         1.17426
            2524         1.27233
            2525         1.14650
            2526         1.29244
            2527         1.22658
            2528         1.35279
            2529         1.53319
            2530         1.36313
            2531         1.01805
            2532         1.16693
            2533         1.07916
            2534         3.04802
            2535         3.13774
            2536         3.15896
            2537         3.35719
            2538         3.20717
            2539         2.96848
            2540         2.94245
            2541         2.85993
            2542         2.79410
            2543         3.45726
            2544         4.03110
            2545         4.36378
            2546         4.11833
            2547         2.88972
            2548         3.10017
            2549         3.04561
            2550         2.98528
            2551         5.89031
            2552         5.95012
            2553         5.83412
            2554         6.21475
            2555         6.13384
            2556         6.24057
            2557         2.50340
            2558         2.52640
            2559         3.11409
            2560         2.76857
            2561         2.89097
            2562         2.63012
            2563         2.62135
            2564         4.55202
            2565         3.50209
            2566         3.65038
            2567         3.78014
            2568         3.97880
            2569         3.80311
            2570         3.66325
            2571         2.43149
            2572         2.49061
            2573         3.33245
            2574         3.60065
            2575         5.56153
            2576         5.42124
            2577         6.08804
            2578         5.66272
            2579         5.60812
            2580         6.44616
            2581         5.84689
            2582         6.34082
            2583         5.23274
            2584         4.76311
            2585         4.63585
            2586         4.26571
            2587         4.66956
            2588         4.80186
            2589         4.62128
            2590         4.87679
            2591         4.87406
            2592         5.16298
            2593         4.84349
            2594         4.89060
            2595         4.33036
            2596         4.09952
            2597         4.45783
            2598         4.55683
            2599         4.81318
            2600         4.41798
            2601         4.09089
            2602         4.45869
            2603         4.06825
            2604         3.67046
            2605         3.82478
            2606         4.77819
            2607         5.16132
            2608         5.11027
            2609         5.37932
            2610         5.25486
            2611         5.18279
            2612         5.41306
            2613         5.61697
            2614         5.64180
            2615         5.35298
            2616         5.60655
            2617         5.72636
            2618         5.52968
            2619         5.65999
            2620         5.57421
            2621         5.75005
            2622         6.11689
            2623         6.33007
            2624         6.35284
            2625         6.09775
            2626         6.90090
            2627         6.06385
            2628         6.07599
            2629         5.75459
            2630         5.86782
            2631         5.90592
            2632         6.22589
            2633         5.65998
            2634         5.75494
            2635         5.75901
            2636         5.79326
            2637         5.67318
            2638         5.46005
            2639         5.48635
            2640         5.38370
            2641         5.53142
            2642         5.50422
            2643         5.66707
            2644         5.62757
            2645         5.49679
            2646         6.02955
            2647         5.92270
            2648         6.12844
            2649         6.02097
            2650         5.79858
            2651         5.64785
            2652         5.52600
            2653         5.67059
            2654         5.69576
            2655         5.43461
            2656         5.28367
            2657         5.21636
            2658         5.31083
            2659         5.36389
            2660         5.32832
            2661         5.41638
            2662         5.51161
            2663         5.50360
            2664         5.40832
            2665         5.01940
            2666         4.93781
            2667         5.24182
            2668         4.95316
            2669         5.00778
            2670         4.65836
            2671         4.96186
            2672         5.14514
            2673         5.68847
            2674         5.43849
            2675         5.40399
            2676         5.42117
            2677         5.05350
            2678         5.45971
            2679         5.50627
            2680         5.53093
            2681         5.47240
            2682         5.41318
            2683         5.40170
            2684         5.53026
            2685         5.41832
            2686         5.46141
            2687         4.74610
            2688         5.11749
            2689         5.02057
            2690         16.4421
            2691         13.7369
            2692         12.8508
            2693         14.9780
            2694         15.8993
            2695         5.58810
            2696         5.56579
            2697         5.41129
            2698         5.48610
            2699         5.65933
            2700         4.91193
            2701         5.22050
            2702         4.82209
            2703         5.44587
            2704         5.38922
            2705         5.45813
            2706         5.77241
            2707         5.93693
            2708         5.60533
            2709         5.75220
            2710         5.75076
            2711         4.94780
            2712         3.35965
            2713         4.39412
            2714         5.29329
            2715         6.97737
            2716         5.70284
            2717         5.55703
            2718         5.56541
            2719         5.47389
            2720         5.61855
            2721         4.80395
            2722         4.77801
            2723         5.19470
            2724         5.22375
            2725         5.25784
            2726         4.80868
            2727         5.50845
            2728         5.30506
            2729         5.44133
            2730         5.37742
            2731         5.57442
            2732         5.45920
            2733         5.49851
            2734         5.41824
            2735         5.62620
            2736         5.72351
            2737         5.52362
            2738         5.56956
            2739         5.44774
            2740         5.03264
            2741         4.59416
            2742         4.11139
            2743         4.59689
            2744         4.41298
            2745         5.13688
            2746         5.01363
            2747         5.17103
            2748         5.26659
            2749         5.75041
            2750         5.61290
            2751         5.49761
            2752         5.36784
            2753         5.52251
            2754         5.63370
            2755         5.35388
            2756         5.55055
            2757         5.62616
            2758         5.32207
            2759         5.26198
            2760         5.17782
            2761         5.46273
            2762         4.79051
            2763         4.05187
            2764         4.55115
            2765         4.04833
            2766         4.29443
            2767         5.57588
            2768         5.67274
            2769         5.66992
            2770         5.65927
            2771         5.63910
            2772         5.63680
            2773         5.73114
            2774         5.67258
            2775         5.74064
            2776         5.71052
            2777         6.09726
            2778         5.95648
            2779         6.12806
            2780         5.80576
            2781         5.64940
            2782         5.62405
            2783         5.59884
            2784         5.70212
            2785         5.55442
            2786         5.64231
            2787         5.44915
            2788         5.64008
            2789         5.73927
            2790         5.64012
            2791         5.58513
            2792         7.42756
            2793         6.70155
            2794         6.63515
            2795         6.26951
            2796         6.84272
            2797         7.05998
            2798         5.73111
            2799         6.19119
            2800         6.24007
            2801         5.76659
            2802         6.15790
            2803         6.60793
            2804         5.75442
            2805         5.76060
            2806         5.58936
            2807         5.51607
            2808         5.52941
            2809         5.72135
            2810         5.66349
            2811         5.30790
            2812         5.65011
            2813         4.13654
            2814         4.53480
            2815         4.25985
            2816         4.33292
            2817         3.38373
            2818         3.11400
            2819         3.57577
            2820         3.40960
            2821         4.10771
            2822         4.26332
            2823         2.76648
            2824         3.75950
            2825         2.81779
            2826         2.63676
            2827         2.72732
            2828         2.84349
            2829         3.03476
            2830         2.92987
            2831         2.49824
            2832         2.40201
            2833         2.57657
            2834         3.29437
            2835         3.43921
            2836         3.40569
            2837         3.23522
            2838         3.68780
            2839         4.30342
            2840         4.16997
            2841         4.04470
            2842         4.47663
            2843         3.98794
            2844         4.11375
            2845         4.62012
            2846         4.66472
            2847         4.47819
            2848         4.42535
            2849         4.32860
            2850         4.41294
            2851         2.51136
            2852         2.53374
            2853         2.48345
            2854         5.48379
            2855         5.46838
            2856         2.04247
            2857         1.92731
            2858         2.01017
            2859         1.97182
            2860         2.12052
            2861         2.00307
            2862         2.39833
            2863         2.44548
            2864         2.14697
            2865         4.35594
            2866         3.87519
            2867         4.29235
            2868         2.67293
            2869         2.68123
            2870         2.60947
            2871         3.54466
            2872         3.88392
            2873         3.77407
            2874         3.90502
            2875         3.53673
            2876         3.64008
            2877         3.65197
            2878         3.53148
            2879         3.41028
            2880         3.41246
            2881         2.40292
            2882         2.32150
            2883         2.35393
            2884         2.38155
            2885         2.43200
            2886         3.03105
            2887         3.05271
            2888         3.24335
            2889         3.36602
            2890         3.33981
            2891         3.13642
            2892         2.42977
            2893         2.49681
            2894         5.84993
            2895         5.96900
            2896         6.13200
            2897         2.44426
            2898         2.49873
            2899         2.44795
            2900         2.25803
            2901         2.35299
            2902         2.29746
            2903         2.29170
            2904         2.49050
            2905         2.50644
            2906         2.47648
            2907         2.45005
            2908         1.74581
            2909         1.79397
            2910         1.67019
            2911         2.61194
            2912         2.60619
            2913         2.58889
            2914         2.51067
            2915         2.45577
            2916         2.71788
            2917         2.74778
            2918         2.53335
            2919         2.56775
            2920         2.54829
            2921         2.59065
            2922         2.58032
            2923         2.60596
            2924         2.60338
            2925         2.57451
            2926         2.59878
            2927         2.59907
            2928         2.73143
            2929         2.66130
            2930         2.76417
            2931         2.73909
            2932         2.78740
            2933         2.70107
            2934         2.84012
            2935         2.80785
            2936         2.76578
            2937         2.76452
            2938         2.70116
            2939         2.60110
            2940         2.58905
            2941         2.63159
            2942         2.93987
            2943         3.01210
            2944         2.81710
            2945         2.93630
            2946         3.11593
            2947         2.99630
            2948         2.87864
            2949         3.32241
            2950         3.48704
            2951         3.62937
            2952         3.68385
            2953         3.50957
            2954         3.38254
            2955         2.52725
            2956         2.56138
            2957         2.47604
            2958         2.65675
            2959         2.20802
            2960         2.01179
            2961         2.55999
            2962         2.60649
            2963         2.09687
            2964         1.79173
            2965         1.94152
            2966         1.52887
            2967         1.83448
            2968         1.66481
            2969         2.06263
            2970         1.86566
            2971         1.99664
            2972         1.72178
            2973         1.92851
            2974         1.78013
            2975         2.23619
            2976         2.53442
            2977         2.49289
            2978         2.67571
            2979         2.39710
            2980         2.40852
            2981         2.71741
            2982         2.55173
            2983         2.58724
            2984         2.28721
            2985         2.43992
            2986         8.37696
            2987         7.92212
            2988         8.07585
            2989         2.21805
            2990         2.32215
            2991         2.37227
            2992         2.13309
            2993         2.17394
            2994         1.62078
            2995         1.53453
            2996         1.32294
            2997         1.25407
            2998         1.44752
            2999         1.36724
            3000         1.45188
            3001         1.24368
            3002         1.20766
            3003         1.12881
            3004         1.32520
            3005         1.40224
            3006         1.11357
            3007         2.12222
            3008         1.41656
            3009         1.79849
            3010         1.11497
            3011         1.77535
            3012         1.41911
            3013         3.28149
            3014         3.87211
            3015         2.97260
            3016         3.74137
            3017         3.19502
            3018         4.04201
            3019         3.10477
            3020         3.43702
            3021         2.76671
            3022         2.44022
            3023         2.09433
            3024         2.76775
            3025         3.88022
            3026         3.91552
            3027         2.26278
            3028         2.19348
            3029         2.93750
            3030         2.59489
            3031         2.68404
            3032         1.93405
            3033         3.93881
            3034         3.29790
            3035         3.66556
            3036         3.51017
            3037         4.13178
            3038         3.76756
            3039         3.50747
            3040         3.42183
            3041         2.71600
            3042         2.76645
            3043         3.26056
            3044         4.45952
            3045         4.91643
            3046         4.42896
            3047         3.64960
            3048         3.34483
            3049         3.02661
            3050         3.31595
            3051         4.60543
            3052         4.44269
            3053         2.40823
            3054         2.07368
            3055         2.69403
            3056     996.790E-03
            3057         1.02534
            3058         1.05008
            3059     769.146E-03
            3060     753.769E-03
            3061     723.778E-03
            3062         4.67908
            3063         3.99023
            3064         3.42964
            3065         1.43547
            3066         2.09480
            3067         1.42134
            3068         3.91388
            3069         3.76703
            3070         3.99580
            3071         4.04244
            3072         4.35302
            3073         4.39472
            3074         3.47445
            3075         3.70321
            3076         3.27634
            3077         4.36918
            3078         3.98617
            3079         4.40491
            3080         5.77495
            3081         5.86292
            3082         5.92723
            3083         6.12375
            3084         5.85717
            3085         6.13142
            3086         6.44962
            3087         6.45379
            3088         6.47599
            3089         6.12090
            3090         5.84635
            3091         6.29241
            3092         6.04131
            3093         6.28214
            3094         6.64250
            3095         5.04804
            3096         5.97566
            3097         4.65316
            3098         5.02993
            3099         5.04823
            3100         4.26703
            3101         4.13624
            3102         4.53428
            3103         4.48123
            3104         4.23882
            3105         3.60458
            3106         3.24027
            3107         3.52491
            3108         3.55899
            3109         3.91060
            3110         3.61787
            3111         3.63842
            3112         3.09796
            3113         3.27340
            3114         3.02330
            3115         3.33198
            3116         4.05561
            3117         3.83214
            3118         3.75869
            3119         4.01304
            3120         4.08334
            3121         3.49032
            3122         5.76103
            3123         6.32947
            3124         5.89614
            3125         6.47825
            3126         6.07101
            3127         6.34002
            3128         6.02819
            3129         5.72401
            3130         5.93539
            3131         5.67797
            3132         6.03631
            3133         5.82415
            3134         6.09299
            3135         5.85440
            3136         4.97184
            3137         5.16689
            3138         5.04469
            3139         7.19265
            3140         7.52602
            3141         6.26191
            3142         7.04393
            3143         6.66116
            3144         5.85938
            3145         6.24006
            3146         6.68622
            3147         6.26259
            3148         5.88930
            3149         5.58707
            3150         5.86551
            3151         6.92094
            3152         6.81668
            3153         6.12334
            3154         6.39168
            3155         2.61805
            3156         2.63554
            3157         2.61923
            3158         2.54425
            3159         2.56161
            3160         2.56532
            3161         2.69516
            3162         2.57056
            3163         2.60288
            3164         2.61084
            3165         2.57260
            3166         2.78371
            3167         2.92889
            3168         2.91268
            3169         2.78364
            3170         2.86142
            3171         2.60850
            3172         2.61869
            3173         2.65830
            3174         2.57829
            3175         2.69955
            3176         2.52545
            3177         2.57045
            3178         2.60284
            3179         2.75300
            3180         2.11383
            3181         2.30383
            3182         2.06956
            3183         2.77335
            3184         2.83405
            3185         2.90167
            3186         3.24228
            3187         3.30806
            3188         3.36766
            3189         2.89780
            3190         2.69931
            3191         2.69923
            3192         2.65689
            3193         2.96140
            3194         3.38081
            3195         3.00974
            3196         2.75310
            3197         2.66653
            3198         1.73603
            3199         1.62124
            3200         1.82309
            3201         1.34901
            3202         1.48988
            3203         1.26027
            3204         3.23074
            3205         3.22181
            3206         1.62931
            3207         2.02584
            3208         2.23371
            3209         2.10791
            3210     874.061E-03
            3211     914.493E-03
            3212         1.60787
            3213         1.36910
            3214         1.33492
            3215     670.271E-03
            3216         2.89815
            3217         2.61432
            3218         2.37789
            3219         2.67277
            3220         2.73595
            3221         3.04286
            3222         5.41158
            3223         5.89033
            3224         4.86516
            3225         4.39315
            3226         4.92835
            3227         5.18954
            3228         5.43712
            3229         4.60435
            3230         4.84152
            3231         2.63559
            3232         2.67196
            3233         2.58263
            3234         2.33842
            3235         2.32047
            3236         2.44512
            3237         4.74176
            3238         5.67838
            3239         5.38018
            3240         4.98790
            3241         3.06583
            3242         3.24909
            3243         3.93155
            3244         4.01243
            3245         3.78981
            3246         3.50129
            3247         3.42856
            3248         3.65501
            3249         5.32102
            3250         6.01317
            3251         5.53324
            3252         6.29303
            3253         5.59213
            3254         6.07360
            3255         4.72641
            3256         4.41147
            3257         4.58227
            3258         4.65935
            3259         4.98432
            3260         4.78784
            3261         4.04672
            3262         4.12444
            3263         1.89320
            3264         2.03510
            3265         2.00011
            3266         1.99251
            3267         1.86796
            3268         1.91960
            3269         2.02465
            3270         2.16821
            3271         2.07470
            3272         2.52114
            3273         2.34373
            3274         2.05251
            3275         2.03694
            3276         2.19073
            3277         2.17331
            3278         2.12502
            3279         2.35592
            3280         2.41026
            3281         2.18579
            3282         2.14083
            3283         2.37274
            3284         2.20091
            3285         2.00605
            3286         2.18356
            3287         1.97423
            3288         2.12692
            3289         2.15445
            3290         2.33351
            3291         2.25635
            3292         1.88932
            3293         1.94908
            3294         1.89696
            3295         1.89777
            3296         1.87778
            3297         2.02221
            3298         2.01109
            3299         2.05036
            3300         2.95943
            3301         3.67708
            3302         3.41401
            3303         2.86302
            3304         5.41276
            3305         5.35452
            3306         5.81104
            3307         5.41740
            3308         5.43028
            3309         4.56373
            3310         4.17825
            3311         4.18878
            3312         3.91336
            3313         4.23492
            3314         4.80582
            3315         5.31678
            3316         5.57949
            3317         5.84825
            3318         5.20547
            3319         4.85980
            3320         4.45311
            3321         4.96148
            3322         4.73239
            3323         4.70074
            3324         5.28524
            3325         5.23288
            3326         5.27823
            3327         5.31123
            3328         5.00650
            3329         5.58376
            3330         5.70692
            3331         5.65683
            3332         6.31083
            3333         6.38970
            3334         6.54232
            3335         6.25508
            3336         5.97230
            3337         6.06359
            3338         5.76990
            3339         5.81027
            3340         6.22420
            3341         6.29017
            3342         5.83678
            3343         5.78711
            3344         6.24050
            3345         5.77986
            3346         6.03897
            3347         6.00190
            3348         5.77597
            3349         5.73595
            3350         5.76983
            3351         5.82772
            3352         5.59555
            3353         5.74512
            3354         5.69194
            3355         5.91762
            3356         5.50330
            3357         5.45252
            3358         5.49235
            3359         5.37778
            3360         5.41896
            3361         5.53760
            3362         5.83222
            3363         5.71754
            3364         5.77816
            3365         5.90516
            3366         5.77737
            3367         5.68853
            3368         5.72243
            3369         5.67636
            3370         5.61602
            3371         5.54782
            3372         5.55612
            3373         5.64576
            3374         5.74181
            3375         5.75205
            3376         5.76352
            3377         5.72482
            3378         5.76768
            3379         5.72103
            3380         5.66087
            3381     356.082E-03
            3382     312.124E-03
            3383     140.769E-03
            3384     246.667E-03
            3385     287.715E-03
            3386         5.33218
            3387         5.20232
            3388         5.25197
            3389         5.31672
            3390         5.43689
            3391         5.39058
            3392         5.89341
            3393         7.96632
            3394         7.90514
            3395         7.47073
            3396         7.03716
            3397         7.16637
            3398         7.57907
            3399         6.25616
            3400         6.61786
            3401         6.36618
            3402         6.06998
            3403         6.26019
            3404         6.02515
            3405         7.00329
            3406         6.80326
            3407         7.14381
            3408         7.17106
            3409         7.39643
            3410         5.60347
            3411         5.71021
            3412         5.66033
            3413         6.32089
            3414         6.50008
            3415         6.44290
            3416         6.03898
            3417         6.71119
            3418         7.22380
            3419         6.70518
            3420         6.50295
            3421     325.969E-03
            3422     248.257E-03
            3423     116.987E-03
            3424     39.4768E-03
            3425     107.617E-03
            3426     248.882E-03
            3427     152.143E-03
            3428     67.1815E-03
            3429     52.4027E-03
            3430     63.1678E-03
            3431     30.7280E-03
            3432     638.313E-03
            3433     808.162E-03
            3434     645.183E-03
            3435     938.104E-03
            3436     764.385E-03
            3437     940.296E-03
            3438     467.970E-03
            3439     429.970E-03
            3440     449.163E-03
            3441     217.524E-03
            3442     228.956E-03
            3443     296.686E-03
            3444     837.847E-03
            3445     676.089E-03
            3446     952.522E-03
            3447         1.17473
            3448         1.04667
            3449     620.261E-03
            3450     658.481E-03
            3451     788.022E-03
            3452         1.01013
            3453     945.563E-03
            3454     369.195E-03
            3455     376.612E-03
            3456     572.090E-03
            3457         2.84240
            3458         2.43792
            3459         2.43572
            3460         2.43251
            3461         2.29785
            3462         2.45340
            3463         2.86427
            3464         2.00230
            3465         2.16482
            3466         2.30712
            3467         2.37281
            3468         2.21036
            3469         2.09317
            3470         1.78905
            3471         1.91263
            3472         1.79070
            3473         2.02543
            3474         1.89725
            3475         2.20811
            3476         2.38098
            3477         2.82616
            3478         2.54795
            3479         2.86890
            3480         2.59880
            3481         2.88124
            3482         2.61152
            3483         3.34324
            3484         3.30240
            3485         3.02726
            3486         3.06699
            3487         3.44114
            3488         2.96502
            3489         3.25451
            3490         3.18944
            3491         3.35296
            3492         3.07192
            3493         3.12464
            3494         2.57845
            3495         2.79770
            3496         2.41404
            3497         3.06445
            3498         3.15618
            3499         2.88357
            3500         1.93535
            3501         1.82813
            3502         2.22097
            3503         2.08770
            3504         2.17624
            3505         2.08906
            3506         2.16429
            3507         2.08357
            3508         2.23611
            3509         2.17615
            3510         2.24362
            3511         2.24892
            3512         2.28822
            3513         1.62807
            3514         2.05543
            3515         1.99848
            3516         2.10936
            3517         3.38371
            3518         3.98142
            3519         4.16196
            3520         3.95732
            3521         3.87481
            3522         3.71827
            3523         3.88525
            3524         3.89129
            3525         3.67709
            3526         3.59705
            3527         3.76592
            3528         3.98980
            3529         4.07089
            3530         4.40278
            3531         4.21288
            3532         4.30058
            3533         2.47868
            3534         2.85721
            3535         2.64237
            3536         2.14612
            3537         2.30241
            3538         2.10928
            3539         2.48023
            3540         2.30435
            3541         2.52356
            3542         2.68342
            3543         2.68940
            3544         2.04452
            3545         3.47321
            3546         2.94263
            3547         2.76126
            3548         2.96796
            3549         3.03227
            3550     109.391E-03
            3551     116.299E-03
            3552     175.140E-03
            3553     262.538E-03
            3554     254.297E-03
            3555     199.009E-03
            3556         3.69673
            3557         5.89365
            3558         4.48221
            3559         4.28248
            3560         3.82059
            3561         3.52261
            3562         3.37140
            3563         3.85016
            3564         2.37309
            3565         2.30963
            3566         8.16839
            3567         7.22272
            3568         7.21812
            3569         6.18868
            3570         7.03662
            3571         7.02804
            3572         7.12023
            3573         6.27303
            3574         5.98022
            3575         5.76024
            3576         3.54420
            3577         3.75323
            3578         5.07651
            3579         7.38918
            3580         6.41075
            3581         7.48039
            3582         7.48351
            3583         6.29319
            3584         5.65183
            3585         5.99347
            3586         5.99507
            3587         5.63445
            3588         6.41410
            3589         6.82810
            3590         6.10798
            3591         7.76360
            3592         7.89498
            3593         6.90785
            3594         6.75234
            3595         7.86483
            3596         4.57808
            3597         6.32506
            3598         5.87027
            3599         5.81320
            3600         4.19324
            3601         4.61534
            3602         2.63393
            3603         2.50527
            3604         2.66784
            3605         3.92050
            3606         4.39256
            3607         4.20449
            3608         5.74119
            3609         5.84110
            3610         5.99764
            3611         6.05119
            3612         6.57534
            3613         6.46091
            3614         7.02462
            3615         6.78298
            3616         6.97272
            3617         6.42449
            3618         6.33751
            3619         6.12815
            3620         5.61892
            3621         5.07053
            3622         5.28309
            3623         5.33534
            3624         5.13694
            3625         5.17621
            3626         5.33064
            3627         4.17128
            3628         3.79584
            3629         4.30036
            3630         4.66451
            3631         4.12073
            3632         4.62958
            3633         4.25500
            3634         5.50428
            3635         5.43717
            3636         5.31123
            3637         5.20323
            3638         5.02480
            3639         2.59622
            3640         2.44539
            3641         3.09564
            3642         3.09965
            3643         3.31177
            3644         2.61112
            3645         1.83969
            3646         2.33922
            3647         2.51193
            3648         1.74123
            3649         2.54086
            3650         2.91628
            3651         2.09438
            3652         2.16187
            3653         3.48062
            3654         3.52922
            3655         3.90247
            3656         1.70075
            3657         2.19755
            3658         1.59933
            3659         3.28884
            3660         2.75888
            3661         2.71667
            3662         2.62340
            3663         3.24065
            3664         2.07571
            3665         2.76705
            3666         2.57842
            3667         2.01682
            3668         3.86578
            3669         3.88116
            3670         3.92154
            3671         3.90433
            3672         5.39825
            3673         5.32751
            3674         5.40294
            3675         4.89878
            3676         5.88977
            3677         5.10447
            3678         5.02217
            3679         4.69248
            3680         4.81419
            3681         5.24410
            3682         5.26658
            3683         4.45220
            3684         5.92081
            3685         6.81858
            3686         5.70319
            3687         7.41952
            3688         4.34364
            3689         4.98870
            3690         4.62253
            3691         4.34300
            3692         3.57801
            3693         3.98408
            3694         4.54008
            3695         5.10026
            3696         5.39637
            3697         4.97524
            3698         5.28288
            3699         2.20031
            3700         6.17289
            3701         6.93888
            3702         5.74048
            3703         5.20210
            3704         5.80306
            3705         1.98587
            3706         1.93392
            3707         2.40883
            3708         1.79649
            3709         1.85385
            3710     46.3203E-03
            3711     40.9726E-03
            3712     36.9881E-03
            3713     214.655E-03
            3714     123.377E-03
            3715     121.378E-03
            3716     40.3110E-03
            3717     43.9955E-03
            3718     41.4161E-03
            3719     43.8179E-03
            3720     40.8012E-03
            3721     42.9781E-03
            3722     845.789E-03
            3723     391.315E-03
            3724     789.080E-03
            3725     594.283E-03
            3726         1.09772
            3727     659.632E-03
            3728         6.26578
            3729         5.93869
            3730     206.333E-03
            3731     244.333E-03
            3732     105.399E-03
            3733     330.109E-03
            3734     109.972E-03
            3735     621.762E-03
            3736     133.023E-03
            3737     622.445E-03
            3738     20.7089E-03
            3739     117.124E-03
            3740     196.203E-03
            3741     180.132E-03
            3742     239.041E-03
            3743     283.759E-03
            3744     315.992E-03
            3745     26.8395E-03
            3746         6.52616
            3747         7.13519
            3748         6.85420
            3749         11.1695
            3750         9.04624
            3751         10.1428
            3752     247.685E-03
            3753     513.766E-03
            3754     482.660E-03
            3755     89.9138E-03
            3756     39.6238E-03
            3757     254.102E-03
            3758     264.748E-03
            3759     92.8904E-03
            3760     82.4028E-03
            3761     160.201E-03
            3762     123.958E-03
            3763     25.0656E-03
            3764     188.027E-03
            3765     55.4690E-03
            3766     29.1251E-03
            3767     184.044E-03
            3768     19.8518E-03
            3769     87.8560E-03
            3770     81.8476E-03
            3771     476.927E-03
            3772     620.986E-03
            3773     487.731E-03
            3774     816.847E-03
            3775     681.043E-03
            3776     796.842E-03
            3777     427.291E-03
            3778     428.537E-03
            3779     354.156E-03
            3780     497.111E-03
            3781     454.693E-03
            3782     539.313E-03
            3783     289.662E-03
            3784     191.848E-03
            3785     959.462E-03
            3786     742.752E-03
            3787         1.00380
            3788     816.697E-03
            3789     915.473E-03
            3790     603.251E-03
            3791         3.74503
            3792         3.62505
            3793         3.50392
            3794         3.86863
            3795         3.99619
            3796         4.20787
            3797         4.17920
            3798         4.38070
            3799         4.59033
            3800         3.13427
            3801         2.98225
            3802         4.41883
            3803         4.20977
            3804         4.61596
            3805         4.75239
            3806         5.73775
            3807         5.46286
            3808         5.45182
            3809         5.14983
            3810         5.94158
            3811         6.33632
            3812         5.96072
            3813         6.93218
            3814         7.11433
            3815         6.75500
            3816         6.50726
            3817         6.70350
            3818         7.53914
            3819         7.77065
            3820         7.99833
            3821         5.82961
            3822         5.75815
            3823         5.99276
            3824         5.98923
            3825         6.08644
            3826         5.65315
            3827         5.60122
            3828         5.56003
            3829         5.64197
            3830         5.08550
            3831         3.80378
            3832         3.56533
            3833         4.61128
            3834         4.80097
            3835         2.78017
            3836         2.71281
            3837         2.72231
            3838         2.58361
            3839         2.55659
            3840         2.69514
            3841         2.72281
            3842         4.47403
            3843         5.01135
            3844         4.66600
            3845         4.94413
            3846         4.74397
            3847         2.97940
            3848         3.03567
            3849         3.08155
            3850         2.78213
            3851         2.75232
            3852         2.76028
            3853         2.78187
            3854         5.40566
            3855         5.13130
            3856         5.62506
            3857         4.97921
            3858         5.24929
            3859         4.09198
            3860         3.71775
            3861         3.79932
            3862         5.51116
            3863         5.22317
            3864         5.22646
            3865         5.82989
            3866         5.50485
            3867         4.41496
            3868         4.41107
            3869         4.79777
            3870         4.85663
            3871         6.18024
            3872         5.50144
            3873         5.87716
            3874         5.88034
            3875         6.60289
            3876         6.17826
            3877         3.27518
            3878         3.41124
            3879         3.18357
            3880         5.34427
            3881         4.31162
            3882         4.03942
            3883         3.90526
            3884         4.03945
            3885         3.07250
            3886         2.93800
            3887         5.30106
            3888         3.64228
            3889         3.54117
            3890         3.39907
            3891         4.16374
            3892         3.77224
            3893         3.90076
            3894         3.27842
            3895         3.26473
            3896         4.61831
            3897         4.89172
            3898         4.61585
            3899         3.01006
            3900         3.07889
            3901         3.28619
            3902         3.28560
            3903         3.26341
            3904         3.00835
            3905         4.48812
            3906         4.04307
            3907         4.17990
            3908         3.74045
            3909         4.17849
            3910         2.71400
            3911         2.58303
            3912         2.38882
            3913         2.64912
            3914         2.38517
            3915         2.60690
            3916         2.61049
            3917         1.99073
            3918         2.41170
            3919         2.43923
            3920         2.07209
            3921         1.83835
            3922         2.08765
            3923         3.52214
            3924         4.63407
            3925         4.40997
            3926         2.33787
            3927         2.08756
            3928         2.02773
            3929         2.33656
            3930         1.69435
            3931         9.90366
            3932         8.39692
            3933         8.62848
            3934         1.78252
            3935         2.50606
            3936         1.54345
            3937         1.58348
            3938         1.56562
            3939         1.83825
            3940         1.76863
            3941         1.84010
            3942         1.76501
            3943         1.53583
            3944         1.34713
            3945         1.34324
            3946         1.41887
            3947         1.55067
            3948         1.53024
            3949         1.65295
            3950         1.95924
            3951     23.3909E-03
            3952     54.2353E-03
            3953     58.5137E-03
            3954     53.4172E-03
            3955     19.4142E-03
            3956         7.41448
            3957         7.59112
            3958         7.14504
            3959         7.80042
            3960         7.63199
            3961         8.04968
            3962     45.9204E-03
            3963     47.2257E-03
            3964     47.9417E-03
            3965     479.231E-03
            3966     374.109E-03
            3967     369.046E-03
            3968     159.045E-03
            3969     252.438E-03
            3970     561.865E-03
            3971         1.09415
            3972     889.422E-03
            3973     896.550E-03
            3974     858.090E-03
            3975         1.13256
            3976         1.30362
            3977         1.01236
            3978         1.25347
            3979     104.880E-03
            3980     42.9792E-03
            3981         2.63020
            3982         2.67142
            3983     336.820E-03
            3984     461.850E-03
            3985     236.454E-03
            3986     33.7169E-03
            3987     210.277E-03
            3988     91.4406E-03
            3989     150.682E-03
            3990     138.413E-03
            3991         1.78140
            3992         2.42052
            3993         4.69899
            3994         4.53562
            3995         3.18287
            3996         4.18228
            3997         1.04286
            3998     794.535E-03
            3999         1.58567
            4000         1.54501
            4001         1.81711
            4002         1.06493
            4003         1.79678
            4004         2.14716
            4005         1.43394
            4006         1.14399
            4007         1.07431
            4008         1.49690
            4009     867.845E-03
            4010         1.44119
            4011     621.860E-03
            4012     342.621E-03
            4013     812.726E-03
            4014     583.842E-03
            4015     884.267E-03
            4016     400.744E-03
            4017         1.05878
            4018     767.713E-03
            4019     766.633E-03
            4020     614.459E-03
            4021     339.903E-03
            4022         4.93028
            4023         5.29848
            4024         4.87241
            4025         5.55221
            4026         5.47097
            4027         5.38071
            4028         5.24734
            4029         5.29272
            4030         7.00516
            4031         7.13206
            4032         6.57942
            4033         5.13500
            4034         4.97018
            4035         4.58581
            4036         4.37776
            4037         4.83051
            4038         4.63799
            4039         4.43369
            4040         3.46618
            4041         3.29534
            4042         4.04798
            4043         3.91502
            4044         3.81362
            4045         3.05623
            4046         5.47317
            4047         5.46652
            4048         5.48260
            4049         2.27804
            4050         2.81630
            4051         2.79206
            4052         2.43453
            4053         2.42006
            4054         5.72627
            4055         5.49141
            4056         8.43790
            4057         9.26467
            4058         9.26163
            4059         9.66046
            4060         8.57926
            4061         6.26129
            4062         6.20757
            4063         6.22617
            4064         5.71610
            4065         5.97960
            4066         6.05702
            4067         5.72364
            4068         5.92112
            4069         6.21731
            4070         5.85708
            4071         6.28403
            4072         6.48416
            4073         6.81683
            4074         6.81539
            4075         6.18667
            4076         5.96177
            4077         6.17408
            4078         5.90769
            4079         5.91456
            4080         5.81411
            4081         5.83611
            4082         5.79025
            4083         5.49968
            4084         5.39128
            4085         5.82051
            4086         5.54485
            4087         5.65426
            4088         5.25629
            4089         5.41920
            4090         5.66566
            4091         5.28452
            4092         5.65362
            4093         5.80491
            4094         5.74497
            4095         5.67505
            4096         5.71831
            4097         5.52706
            4098         5.57770
            4099         5.05259
            4100         5.36618
            4101         5.69616
            4102         4.49086
            4103         5.61718
            4104         5.88340
            4105         5.64175
            4106         4.51454
            4107         2.03869
            4108         3.32216
            4109         3.27054
            4110         10.2957
            4111         9.12400
            4112         8.30185
            4113         6.97193
            4114         8.29464
            4115         8.67499
            4116         3.78061
            4117         3.10255
            4118         3.13202
            4119         4.03720
            4120         3.48250
            4121         4.16617
            4122         2.81734
            4123         3.15593
            4124         5.05424
            4125         4.81723
            4126         2.41902
            4127         3.02526
            4128         3.69003
            4129         3.12829
            4130         3.02413
            4131         4.67799
            4132         4.89966
            4133         6.15254
            4134         6.17186
            4135         6.25586
            4136         5.94136
            4137         5.07747
            4138         5.23627
            4139         4.49177
            4140         6.53059
            4141         6.96286
            4142         6.48934
            4143         5.65990
            4144         5.77283
            4145         5.85911
            4146         5.76090
            4147         5.66416
            4148         5.60021
            4149         6.25445
            4150         6.65009
            4151         6.09360
            4152         6.20807
            4153         6.40898
            4154         6.46709
            4155         6.16599
            4156         5.79709
            4157         5.53273
            4158         5.70882
            4159         5.61186
            4160         5.46415
            4161         5.59669
            4162         5.91063
            4163         5.94388
            4164         5.36265
            4165         5.45300
            4166         5.36239
            4167         5.26698
            4168         5.18469
            4169         5.70388
            4170         5.53181
            4171         5.36510
            4172         5.40273
            4173     267.703E-03
            4174     600.413E-03
            4175     187.630E-03
            4176     185.944E-03
            4177     274.541E-03
            4178         1.27773
            4179         1.17174
            4180         1.50694
            4181         1.61456
            4182     970.423E-03
            4183         1.09002
            4184         1.07729
            4185     821.231E-03
            4186     439.828E-03
            4187     488.474E-03
            4188     740.125E-03
            4189         1.11594
            4190         13.2924
            4191         10.5617
            4192         12.5135
            4193         1.33280
            4194         1.69723
            4195     616.012E-03
            4196     930.955E-03
            4197     999.171E-03
            4198         1.55650
            4199         1.22935
            4200         1.12565
            4201         1.90220
            4202         1.07169
            4203     426.745E-03
            4204     764.332E-03
            4205     769.305E-03
            4206         1.47774
            4207         1.06030
            4208     448.653E-03
            4209     756.883E-03
            4210     185.715E-03
            4211         2.89152
            4212         3.06899
            4213         3.43644
            4214         2.20912
            4215         2.48070
            4216         1.73902
            4217         1.71133
            4218         2.17244
            4219     630.634E-03
            4220     651.307E-03
            4221         1.79180
            4222         2.70579
            4223         2.77504
            4224         1.35285
            4225     724.026E-03
            4226         1.27595
            4227         1.02308
            4228         3.68832
            4229         2.91552
            4230         2.69032
            4231         2.23191
            4232         2.92496
            4233         12.3424
            4234         2.62088
            4235         3.49622
            4236         7.62285
            4237         8.98775
            4238         7.64321
            4239         7.83550
            4240         6.72713
            4241         7.85580
            4242         6.21329
            4243         6.70288
            4244         6.59865
            4245         6.10908
            4246         6.47633
            4247         7.00756
            4248         7.00104
            4249         6.10880
            4250         5.63256
            4251         6.07014
            4252         6.13632
            4253         6.19721
            4254         6.55109
            4255         5.72283
            4256         1.35294
            4257         1.13626
            4258         1.66734
            4259         1.17921
            4260         1.25588
            4261         1.01202
            4262     843.563E-03
            4263     926.354E-03
            4264         1.01390
            4265     565.103E-03
            4266     749.138E-03
            4267         1.14001
            4268     290.314E-03
            4269         1.39492
            4270     35.8894E-03
            4271     25.3965E-03
            4272     16.7889E-03
            4273     28.9109E-03
            4274     608.835E-03
            4275     825.877E-03
            4276     782.089E-03
            4277     110.624E-03
            4278         10.1843
            4279         6.95925
            4280         7.08246
            4281         8.04424
            4282         10.7051
            4283     404.241E-03
            4284     608.672E-03
            4285     686.525E-03
            4286     602.939E-03
            4287         1.15609
            4288         1.04741
            4289         1.04632
            4290         1.27243
            4291         2.08913
            4292         2.18577
            4293         2.29755
            4294         2.21191
            4295         1.68383
            4296         2.00050
            4297         1.89773
            4298         1.99585
            4299         2.03053
            4300         2.29119
            4301         2.05076
            4302         2.43609
            4303         2.45430
            4304         1.69440
            4305         1.69484
            4306         1.61881
            4307         1.78260
            4308         1.72982
            4309         2.32204
            4310         2.31956
            4311         2.23841
            4312         2.60179
            4313         2.59480
            4314         1.86250
            4315         2.15651
            4316         1.60802
            4317         1.82767
            4318         1.54273
            4319         2.04764
            4320         2.82003
            4321         2.78794
            4322         2.44430
            4323         2.59445
            4324         2.93869
            4325         1.70654
            4326         2.10637
            4327         1.94036
            4328         2.19265
            4329         2.00008
            4330         2.25928
            4331         2.60536
            4332         2.56913
            4333         2.79043
            4334         3.00844
            4335     611.757E-03
            4336         1.77949
            4337         1.49165
            4338         1.73833
            4339         1.97666
            4340         2.32516
            4341         2.24659
            4342         2.43830
            4343         2.34800
            4344         3.58955
            4345         3.43306
            4346         1.99744
            4347         2.06774
            4348         2.19002
            4349         2.45614
            4350         2.30482
            4351         1.28433
            4352     813.325E-03
            4353         1.11155
            4354     660.350E-03
            4355         1.13062
            4356     846.484E-03
            4357     968.856E-03
            4358         1.50904
            4359         1.05386
            4360         1.32094
            4361         1.72380
            4362         1.70486
            4363         2.11061
            4364     220.973E-03
            4365     328.781E-03
            4366     524.372E-03
            4367     793.068E-03
            4368         5.31211
            4369         4.96470
            4370         4.91576
            4371     50.9373E-03
            4372     55.1772E-03
            4373     59.9656E-03
            4374     190.600E-03
            4375     179.449E-03
            4376     172.749E-03
            4377     379.381E-03
            4378     19.6519E-03
            4379     48.3203E-03
            4380     19.1259E-03
            4381     39.0183E-03
            4382     38.7212E-03
            4383     11.2254E-03
            4384         6.19927
            4385         6.20292
            4386         2.59769
            4387         2.62668
            4388         6.42731
            4389         7.01183
            4390         6.80984
            4391         6.57118
            4392         4.60422
            4393         3.52407
            4394         2.47861
            4395         2.96542
            4396         3.00150
            4397         3.23742
            4398         3.17041
            4399         2.90221
            4400         3.20165
            4401         4.95864
            4402         5.59254
            4403         3.43543
            4404         2.69128
            4405         2.65543
            4406         6.27318
            4407         6.97423
            4408         6.25095
            4409         6.29107
            4410         6.31467
            4411         5.04177
            4412         4.91878
            4413     550.564E-03
            4414     619.649E-03
            4415     680.404E-03
            4416     932.013E-03
            4417     799.941E-03
            4418     106.510E-03
            4419     37.9155E-03
            4420         1.10690
            4421         1.09750
            4422     890.470E-03
            4423     410.816E-03
            4424     315.688E-03
            4425         1.71002
            4426         1.40300
            4427         1.71035
            4428         1.54232
            4429         1.54311
            4430         1.02743
            4431     810.318E-03
            4432         1.02676
            4433     792.460E-03
            4434     788.890E-03
            4435         1.39917
            4436         1.27203
            4437     949.730E-03
            4438     571.770E-03
            4439     589.698E-03
            4440     404.694E-03
            4441     710.359E-03
            4442     693.150E-03
            4443         1.46396
            4444         1.59986
            4445         2.95534
            4446         3.29394
            4447         3.25331
            4448         3.36990
            4449         3.42351
            4450         3.30504
            4451         2.97332
            4452         2.51558
            4453         2.78547
            4454         2.71996
            4455         2.10830
            4456         2.13811
            4457         2.02540
            4458         2.18118
            4459         2.25743
            4460         2.40791
            4461         2.07139
            4462         1.99376
            4463         2.29462
            4464         4.34195
            4465         3.74544
            4466         4.12014
            4467         2.92603
            4468         3.25616
            4469         3.68996
            4470         3.33371
            4471         3.49846
            4472         8.05053
            4473         8.01561
            4474         8.17759
            4475         5.61182
            4476         2.59780
            4477         2.53443
            4478         3.58511
            4479         4.01053
            4480         2.13563
            4481         2.10792
            4482         2.22225
            4483         2.21800
            4484         2.73587
            4485         2.49885
            4486         2.62830
            4487         2.90480
            4488         2.88540
            4489         2.49089
            4490         5.82033
            4491         5.30852
            4492         5.38345
            4493         4.79638
            4494         4.59490
            4495         4.93036
            4496         5.36809
            4497         5.32608
            4498         5.47597
            4499         5.29636
            4500         5.16578
            4501         5.32696
            4502         5.30251
            4503         5.89562
            4504         5.32086
            4505         5.32063
            4506         7.07606
            4507         7.85380
            4508         7.05792
            4509         6.67632
            4510         5.89771
            4511         6.68813
            4512         6.20606
            4513         5.67462
            4514         5.97354
            4515         7.66242
            4516         8.49011
            4517         8.54837
            4518         7.07858
            4519         5.66194
            4520     76.1173E-03
            4521     108.282E-03
            4522         5.79466
            4523         5.94835
            4524         5.86095
            4525         5.75757
            4526         5.71316
            4527         5.78962
            4528         5.88097
            4529         6.05847
            4530         6.38319
            4531         6.11515
            4532         7.16020
            4533         6.76957
            4534         7.04429
            4535         5.52743
            4536         5.30035
            4537         5.51426
            4538         5.18408
            4539         5.36466
            4540         5.17180
            4541         5.57991
            4542         5.25593
            4543         5.35695
            4544         5.02977
            4545         5.27943
            4546         5.17597
            4547         5.56590
            4548         5.21199
            4549         5.67650
            4550         5.25264
            4551         5.13309
            4552         5.25035
            4553         5.05441
            4554         5.02674
            4555         4.99637
            4556         5.02693
            4557         5.09087
            4558         5.11484
            4559         4.99891
            4560         5.16164
            4561         5.06268
            4562         5.11088
            4563         4.98622
            4564         5.21920
            4565         5.31676
            4566         6.52535
            4567         5.96070
            4568         5.85562
            4569         5.69761
            4570         5.84145
            4571         5.05899
            4572         5.10572
            4573         5.11098
            4574         5.22227
            4575         5.16226
            4576         5.28056
            4577         5.35336
            4578         5.13301
            4579         5.29307
            4580         5.09856
            4581         5.06080
            4582         5.08501
            4583         5.10166
            4584         5.16264
            4585         5.69723
            4586         5.66762
            4587         5.51336
            4588         3.17039
            4589         3.28417
            4590         3.53277
            4591         3.35291
            4592         3.48955
            4593         5.24818
            4594         5.16666
            4595         5.18991
            4596         5.67537
            4597         5.77639
            4598         5.83405
            4599         5.73555
            4600         5.64432
            4601         5.52125
            4602         5.53957
            4603         5.17856
            4604         5.22136
            4605         5.18528
            4606         5.31756
            4607         5.29812
            4608         5.52494
            4609         5.33929
            4610         5.37575
            4611         5.44140
            4612         5.41642
            4613         5.46238
            4614         5.51642
            4615         5.41740
            4616         5.26004
            4617         5.32291
            4618         5.25082
            4619         5.31772
            4620         5.39907
            4621         5.39205
            4622         5.28915
            4623         5.33651
            4624         5.15568
            4625         5.11387
            4626         5.16619
            4627         5.39369
            4628         5.25076
            4629         5.19972
            4630         5.12866
            4631         5.16370
            4632         5.23852
            4633         5.14235
            4634         5.06215
            4635         5.19385
            4636         6.02189
            4637         6.55524
            4638         6.20228
            4639         5.47484
            4640         5.55623
            4641         5.49272
            4642         5.53179
            4643         5.65090
            4644         5.60696
            4645         2.06988
            4646         5.07542
            4647         5.05647
            4648         5.11283
            4649         3.03730
            4650         2.27851
            4651         2.80513
            4652         2.62671
            4653         4.76554
            4654         4.62747
            4655         4.23166
            4656         4.42876
            4657         3.03525
            4658         5.45137
            4659         3.86784
            4660         4.73774
            4661         5.78291
            4662         3.71869
            4663         3.62619
            4664         3.62404
            4665         4.09607
            4666         3.71520
            4667         2.10986
            4668         1.79897
            4669         1.32698
            4670         1.27430
            4671         1.12963
            4672         1.44619
            4673     794.839E-03
            4674     922.777E-03
            4675     604.147E-03
            4676         1.23010
            4677     256.208E-03
            4678     384.793E-03
            4679     322.626E-03
            4680     37.3063E-03
            4681     153.171E-03
            4682         1.66387
            4683         5.31668
            4684     856.900E-03
            4685     460.767E-03
            4686     728.510E-03
            4687         4.27122
            4688         4.07588
            4689     36.9749E-03
            4690     188.226E-03
            4691         3.69166
            4692     656.355E-03
            4693     649.523E-03
            4694     257.454E-03
            4695     864.145E-03
            4696     53.5348E-03
            4697     92.4767E-03
            4698     285.105E-03
            4699     488.417E-03
            4700     462.739E-03
            4701         1.72166
            4702         1.42376
            4703         2.04209
            4704     537.122E-03
            4705     308.228E-03
            4706         6.42196
            4707         1.17765
            4708         1.84356
            4709         1.86060
            4710         1.63487
            4711         1.61278
            4712         1.92667
            4713         1.32167
            4714         7.02801
            4715         7.67649
            4716         5.38165
            4717         10.4568
            4718         9.19432
            4719         9.38278
            4720         10.4483
            4721         11.7011
            4722         2.53012
            4723         3.06803
            4724         4.06369
            4725         4.34377
            4726         4.57370
            4727         4.58520
            4728         4.46421
            4729         5.67787
            4730         6.10326
            4731         5.83050
            4732         5.42890
            4733         6.93532
            4734         6.93476
            4735         5.83774
            4736         7.13669
            4737         6.56384
            4738         7.67029
            4739         5.21149
            4740         5.22532
            4741         3.71515
            4742         5.66553
            4743         9.05301
            4744         8.23335
            4745         8.04199
            4746         8.78590
            4747         9.08545
            4748         6.77295
            4749         8.00702
            4750         7.79257
            4751         9.15306
            4752         7.77827
            4753         7.98563
            4754         6.18549
            4755         6.05986
            4756         6.12328
            4757         6.81224
            4758         7.98065
            4759         7.94184
            4760         8.02163
            4761         9.11037
            4762         7.88975
            4763         7.51726
            4764         7.25693
            4765         7.27094
            4766         8.26209
            4767         7.51969
            4768         6.90933
            4769         7.83199
            4770         7.88574
            4771         8.94224
            4772         7.83177
            4773         5.89004
            4774         5.15354
            4775         5.60794
            4776         4.52449
            4777         5.46968
            4778         5.01638
            4779         6.06029
            4780         6.15157
            4781         6.03211
            4782         5.48345
            4783         5.60281
            4784         6.15263
            4785         3.72424
            4786         3.93581
            4787         4.05410
            4788         7.85715
            4789         7.43275
            4790         7.84715
            4791         7.18055
            4792         6.81547
            4793         8.64583
            4794         8.62858
            4795         5.04366
            4796         4.63008
            4797         4.35586
            4798         5.61900
            4799         6.42632
            4800         3.54818
            4801         3.99826
            4802         3.62741
            4803         4.30128
            4804         4.80754
            4805         4.80702
            4806         5.13656
            4807         4.61867
            4808         3.80603
            4809         3.66402
            4810         4.01401
            4811         3.75495
            4812         3.50050
            4813         4.71602
            4814         4.31500
            4815         4.62640
            4816         5.47133
            4817         4.88558
            4818         5.47386
            4819         3.75602
            4820         3.48961
            4821         3.47620
            4822         1.09463
            4823         1.64919
            4824     893.564E-03
            4825     827.840E-03
            4826     555.474E-03
            4827     292.078E-03
            4828         4.37039
            4829         4.18755
            4830         5.64932
            4831         6.01606
            4832         5.13034
            4833         3.41394
            4834         3.59755
            4835         3.33806
            4836         5.22811
            4837         5.84331
            4838         5.14924
            4839         5.52274
            4840         4.63275
            4841         5.66770
            4842         4.97263
            4843         4.47848
            4844         2.79918
            4845         2.77512
            4846         2.84913
            4847         2.94406
            4848         2.63890
            4849         2.60580
            4850         2.60295
            4851         2.54684
            4852         2.57307
            4853         3.08742
            4854         3.42057
            4855         3.09382
            4856         4.80756
            4857         2.78230
            4858         2.75915
            4859         2.90697
            4860         2.93594
            4861         2.68541
            4862         2.70843
            4863         2.63444
            4864         2.62014
            4865         2.66729
            4866         3.19700
            4867         3.13449
            4868         3.01554
            4869         2.96145
            4870         2.63795
            4871         3.38699
            4872         3.38855
            4873         4.17940
            4874         3.74193
            4875         3.74143
            4876         1.71249
            4877         2.34105
            4878         2.62341
            4879         2.76856
            4880         2.67918
            4881         1.60514
            4882         1.30063
            4883         1.30304
            4884         1.09500
            4885         1.09413
            4886         2.36000
            4887         2.23956
            4888         2.52977
            4889         2.55099
            4890         2.51839
            4891         1.09999
            4892         2.90734
            4893         2.96194
            4894         2.95912
            4895         2.38082
            4896         2.55635
            4897     545.607E-03
            4898     552.737E-03
            4899         1.95587
            4900         2.11703
            4901         2.11264
            4902     933.948E-03
            4903         1.04564
            4904     996.567E-03
            4905         1.17511
            4906         2.36544
            4907         8.57320
            4908         8.98666
            4909         10.1569
            4910         11.4100
            4911     324.981E-03
            4912     144.704E-03
            4913     153.697E-03
            4914     268.183E-03
            4915     398.032E-03
            4916     528.619E-03
            4917         1.98443
            4918         1.95684
            4919         1.78830
            4920         2.16346
            4921         1.53346
            4922         1.82844
            4923     16.7422E-03
            4924         1.59202
            4925         1.65298
            4926         1.86010
            4927         1.58040
            4928         1.36707
            4929     419.697E-03
            4930     272.215E-03
            4931     342.126E-03
            4932     698.341E-03
            4933     732.451E-03
            4934     915.476E-03
            4935     571.762E-03
            4936     544.809E-03
            4937     245.293E-03
            4938     186.794E-03
            4939         4.30164
            4940         4.21967
            4941         4.23362
            4942         4.31199
            4943         3.68044
            4944         3.52987
            4945         3.80197
            4946         2.59894
            4947         2.59354
            4948         2.57942
            4949         3.18652
            4950         3.18954
            4951         2.63247
            4952         2.64929
            4953         2.69244
            4954         9.45990
            4955         8.15576
            4956         7.77411
            4957         5.33925
            4958         2.82160
            4959         2.79591
            4960         3.58338
            4961         3.48811
            4962         3.48898
            4963         3.15251
            4964         3.22247
            4965         3.24108
            4966         3.02565
            4967         3.56601
            4968         3.56430
            4969         2.59151
            4970         2.60405
            4971         2.60478
            4972         2.39814
            4973         2.39873
            4974         3.72806
            4975         3.92068
            4976         3.59919
            4977         2.69133
            4978         2.55100
            4979         2.63287
            4980         2.61959
            4981         2.65841
            4982         2.60282
            4983         2.60646
            4984         2.70167
            4985         2.71981
            4986         2.74907
            4987         2.62539
            4988         2.69776
            4989         2.68163
            4990         2.70932
            4991         8.14634
            4992         2.56701
            4993         2.56705
            4994         2.55293
            4995         2.50227
            4996         2.53166
            4997         1.73292
            4998         2.05747
            4999     861.942E-03
            5000         1.79937
            5001         2.00773
            5002         4.02519
            5003         3.68926
            5004         3.40409
            5005     871.136E-03
            5006         1.40315
            5007         1.00444
            5008         1.44455
            5009         1.24814
            5010     786.665E-03
            5011         3.13729
            5012         3.05596
            5013         2.81935
            5014         2.98028
            5015         3.11690
            5016         4.36931
            5017         4.41601
            5018         4.42450
            5019         3.94218
            5020         2.60698
            5021         2.60572
            5022         2.57132
            5023         2.50954
            5024         2.54393
            5025         2.54462
            5026         4.18023
            5027         2.59573
            5028         2.63322
            5029         2.61805
            5030         2.82365
            5031         2.86690
            5032         2.60569
            5033         2.68578
            5034         2.65223
            5035         2.37228
            5036         3.17785
            5037         4.00158
            5038         3.69415
            5039         2.88024
            5040         2.57562
            5041         2.50851
            5042         2.61254
            5043         2.58171
            5044         2.55723
            5045         2.70189
            5046         2.66778
            5047         2.68697
            5048         3.32785
            5049         3.58250
            5050         3.87444
            5051         3.34796
            5052         3.40464
            5053         2.68431
            5054         2.65174
            5055         2.65216
            5056         2.02203
            5057         1.99297
            5058         2.66898
            5059         2.80537
            5060         2.76233
            5061         2.58501
            5062         2.50813
            5063         2.92398
            5064         3.19029
            5065         3.27803
            5066         2.26982
            5067         2.68586
            5068         2.67859
            5069         2.68486
            5070         2.68392
            5071         2.66643
            5072         2.66276
            5073         2.66824
            5074         2.66449
            5075         2.66097
            5076         1.22062
            5077         1.32964
            5078         2.30967
            5079         5.58438
            5080         1.87130
            5081         1.09616
            5082         1.41593
            5083         1.48936
            5084         1.46213
            5085         2.59727
            5086         2.60128
            5087         2.52609
            5088         1.62649
            5089         1.89162
            5090         1.43845
            5091         2.85157
            5092         3.60959
            5093         4.06965
            5094         2.43086
            5095         2.54524
            5096         2.19532
            5097         2.63726
            5098         2.65280
            5099         2.49063
            5100         2.66360
            5101         2.66472
            5102         3.56694
            5103         3.02924
            5104         4.18021
            5105         2.44311
            5106         2.64798
            5107         2.53767
            5108         2.67323
            5109         2.71057
            5110         2.48959
            5111         2.49521
            5112         4.07394
            5113         4.60157
            5114         4.36473
            5115         4.91047
            5116         4.60801
            5117         2.53520
            5118         1.36298
            5119         1.85064
            5120         1.33561
            5121         1.34507
            5122         2.65915
            5123         2.77397
            5124         2.23794
            5125         2.28977
            5126         2.17566
            5127         2.21432
            5128     825.078E-03
            5129     579.907E-03
            5130     835.548E-03
            5131     579.982E-03
            5132     522.393E-03
            5133         3.89825
            5134         6.86807
            5135         3.87114
            5136         4.11863
            5137         4.07725
            5138         3.95231
            5139         4.41929
            5140         2.71365
            5141         2.56344
            5142         5.19268
            5143         6.20108
            5144         2.64672
            5145         2.65947
            5146         2.61108
            5147         2.70587
            5148         2.85648
            5149         2.92643
            5150         2.45775
            5151         1.50176
            5152         2.24808
            5153         2.61913
            5154         2.66336
            5155         2.64717
            5156         2.65704
            5157         2.66231
            5158         2.66392
            5159         4.11156
            5160         4.50865
            5161         5.43925
            5162         5.26189
            5163         5.25109
            5164         2.44149
            5165         3.51705
            5166         3.10239
            5167         4.72162
            5168         4.44997
            5169         4.87058
            5170         3.09006
            5171         4.30009
            5172         4.60021
            5173         2.84012
            5174         2.87860
            5175         2.66401
            5176         2.76937
            5177         2.74396
            5178         3.19305
            5179         2.18099
            5180         2.23439
            5181         2.86409
            5182         3.48799
            5183         3.84966
            5184     42.7742E-03
            5185         2.32246
            5186         2.34967
            5187         1.89635
            5188         1.98980
            5189         1.91278
            5190         2.64824
            5191         1.94538
            5192         2.10694
            5193         1.94564
            5194         1.65044
            5195         1.96968
            5196         2.23369
            5197     640.723E-03
            5198     60.6115E-03
            5199     37.1733E-03
            5200     17.9261E-03
            5201     37.8866E-03
            5202     38.4970E-03
            5203         6.25346
            5204         7.20045
            5205         5.84530
            5206         1.99845
            5207         2.65715
            5208         2.65589
            5209         2.61707
            5210         2.48612
            5211         2.30158
            5212         2.37702
            5213         2.57559
            5214         3.34343
            5215         3.58572
            5216         3.72484
            5217         2.56180
            5218         2.19014
            5219         1.54837
            5220         1.30451
            5221         2.28583
            5222         2.26482
            5223     940.739E-03
            5224         1.09587
            5225         1.20803
            5226         1.39281
            5227         1.20839
            5228         1.09820
            5229         3.41772
            5230         3.10789
            5231         9.13855
            5232         9.14129
            5233         2.47759
            5234     746.002E-03
            5235     518.952E-03
            5236     631.673E-03
            5237     857.937E-03
            5238     37.0285E-03
            5239     686.810E-03
            5240     57.6413E-03
            5241         2.11922
            5242         1.69108
            5243         1.50710
            5244         1.51290
            5245         2.59933
            5246         2.57979
            5247         1.69344
            5248         1.40427
            5249         2.64535
            5250         2.62038
            5251     320.724E-03
            5252         5.77339
            5253         6.81268
            5254         7.43440
            5255         7.66406
            5256         6.96695
            5257         2.02976
            5258         4.15783
            5259         2.73565
            5260         2.10556
            5261         5.32734
            5262         5.89181
            5263         6.18039
            5264         4.45527
            5265         4.21978
            5266         3.84397
            5267         4.24605
            5268         4.45956
            5269         5.26789
            5270         5.13057
            5271         5.03157
            5272         5.01918
            5273         2.16505
            5274         1.96284
            5275         2.09784
            5276         2.61272
            5277         2.03784
            5278         4.77402
            5279         4.68166
            5280         5.24139
            5281         5.42237
            5282         8.31093
            5283         8.30992
            5284         7.67243
            5285         2.80957
            5286         2.40161
            5287         2.42430
            5288         2.76845
            5289         3.16596
            5290         9.07786
            5291         8.21543
            5292         6.25110
            5293         6.40921
            5294         6.90695
            5295         6.56156
            5296         5.21427
            5297     393.943E-03
            5298         3.00649
            5299         3.14731
            5300         2.29592
            5301         4.66286
            5302     147.275E-03
            5303         2.65698
            5304         2.67825
            5305         1.11647
            5306         1.03804
            5307         4.20153
            5308         4.63654
            5309         4.43958
            5310         4.78872
            5311         8.02113
            5312         7.84383
            5313         6.85732
            5314         8.16013
            5315         3.23805
            5316         3.03458
            5317         3.27726
            5318         3.15099
            5319         3.27568
            5320         4.77308
            5321         4.41589
            5322     296.769E-03
            5323     465.004E-03
            5324     578.067E-03
            5325         1.44832
            5326         1.10126
            5327         2.56890
            5328         2.71390
            5329         2.45665
            5330         3.84016
            5331         4.45172
            5332         4.34124
            5333         4.09659
            5334         2.09701
            5335         1.59794
            5336         2.22732
            5337     32.8130E-03
            5338         5.70584
            5339         5.73639
            5340         5.72903
            5341         5.69177
            5342         3.09404
            5343         5.85320
            5344         5.98291
            5345         5.95432
            5346         6.03310
            5347         5.44881
            5348         5.56966
            5349         5.59735
            5350         5.48156
            5351         5.47290
            5352         5.59254
            5353         6.59159
            5354         6.83558
            5355         6.48627
            5356         5.65520
            5357         7.79337
            5358         6.87595
            5359         6.79164
            5360         5.39907
            5361         2.46470
            5362         3.30480
            5363         1.19893
            5364         1.19276
            5365         4.46803
            5366         2.98692
            5367         8.65920
            5368         4.91147
            5369         5.12253
            5370         4.94136
            5371         5.34511
            5372         5.67120
            5373     805.886E-03
            5374         2.49933
            5375         1.06268
            5376         1.17158
            5377         3.02462
            5378         2.95752
            5379         2.69708
            5380         2.33339
            5381         2.38914
            5382         5.90775
            5383         5.93515
            5384         2.37741
            5385         2.69626
            5386         6.49884
            5387         6.37062
            5388         6.99344
            5389         5.47427
            5390         7.85209
            5391         10.2923
            5392         11.9948
            5393         11.4577
            5394         3.87888
            5395         2.06755
            5396         3.08384
            5397         5.42248
            5398         2.88288
            5399         5.03738
            5400         4.32052
            5401         5.12353
            5402         1.99122
            5403     356.293E-03
            5404     389.437E-03
            5405     558.867E-03
            5406     534.400E-03
            5407     216.002E-03
            5408         3.93260
            5409         3.67673
            5410     195.116E-03
            5411     806.038E-03
            5412         1.21991
            5413     600.654E-03
            5414     585.464E-03
            5415         1.93729
            5416         1.95178
            5417         1.88639
            5418         1.97897
            5419         2.02396
            5420     634.861E-03
            5421     311.066E-03
            5422     545.451E-03
            5423         6.03050
            5424         6.34893
            5425         6.42883
            5426         6.77843
            5427         6.77132
            5428         6.43422
            5429         7.22395
            5430         3.32756
            5431         3.47096
            5432         3.74526
            5433         3.42450
            5434         3.28442
            5435         6.77863
            5436         6.37544
            5437         6.68026
            5438         7.70660
            5439         5.67869
            5440         5.72990
            5441         5.43190
            5442         5.38393
            5443         5.20389
            5444         5.33284
            5445         7.57533
            5446         5.88544
            5447         5.62902
            5448         4.67989
            5449         6.12311
            5450         6.38903
            5451         9.21078
            5452         9.28030
            5453         5.32786
            5454         5.35845
            5455         5.41369
            5456         4.79593
            5457         4.98353
            5458         5.67894
            5459     610.705E-03
            5460     626.649E-03
            5461     564.904E-03
            5462     595.161E-03
            5463         1.20923
            5464         1.68436
            5465         2.91648
            5466         3.51147
            5467         3.18221
            5468         3.67226
            5469         2.00044
            5470         2.17549
            5471         5.83771
            5472         6.00362
            5473         5.33161
            5474         5.26629
            5475         7.09886
            5476         6.68402
            5477         7.06762
            5478         3.44134
            5479         3.45313
            5480         2.58724
            5481         2.40987
            5482         3.02517
            5483         1.51262
            5484         2.01423
            5485         2.07209
            5486         3.08310
            5487         3.08889
            5488         1.12915
            5489         1.40090
            5490     295.099E-03
            5491     45.7456E-03
            5492         6.95404
            5493         7.48915
            5494         6.51328
            5495         6.23873
            5496         5.86957
            5497     588.773E-03
            5498     598.984E-03
            5499     409.862E-03
            5500         4.87493
            5501         3.10666
            5502         2.79701
            5503         2.83307
            5504         2.67627
            5505         5.57460
            5506         3.12504
            5507         4.54267
            5508         6.29548
            5509         12.5193
            5510         13.1753
            5511         12.9035
            5512         15.8727
            5513         11.4651
            5514         4.50232
            5515         4.13185
            5516     969.124E-03
            5517     741.060E-03
            5518         1.88013
            5519         4.06239
            5520         2.60705
            5521         2.21164
            5522         2.68979
            5523         2.18091
            5524         9.28460
            5525         9.02344
            5526         9.10680
            5527         9.27529
            5528         7.89036
            5529         4.16358
            5530         4.40219
            5531         5.63448
            5532         5.27292
            5533         5.45047
            5534         7.18138
            5535         7.28125
            5536         7.94406
            5537         7.80836
            5538         7.79329
            5539         5.65262
            5540         6.25005
            5541         7.00867
            5542         6.99922
            5543         2.74511
            5544         6.03277
            5545         6.27479
            5546         6.17084
            5547         6.16749
            5548         1.88280
            5549         1.88315
            5550         2.47063
            5551         3.63287
            5552     26.1384E-03
            5553     9.68558E-03
            5554     33.0057E-03
            5555         3.45989
            5556         2.95475
            5557         3.20065
            5558         2.90737
            5559         3.17273
            5560     68.3672E-03
            5561         11.2438
            5562         13.9953
            5563         12.6868
            5564         13.2807
            5565         10.4880
            5566         11.8355
            5567         1.62244
            5568         1.64141
            5569         1.58727
            5570         4.71723
            5571         5.47627
            5572         2.57674
            5573         9.89073
            5574         13.5969
            5575         12.6876
            5576         11.7150
            5577         8.37994
            5578         8.84353
            5579         2.62343
            5580         2.59291
            5581         2.55443
            5582         5.67127
            5583         2.37876
            5584         1.58304
            5585         6.49176
            5586         6.02293
            5587         6.48436
            5588         6.53850
            5589         6.70956
            5590         6.55720
            5591         8.28746
            5592         5.66384
            5593         5.72678
            5594         5.55781
            5595         5.61856
            5596         5.72331
            5597         6.00877
            5598         6.66327
            5599         6.31227
            5600         7.43776
            5601         5.78677
            5602         8.65322
            5603         1.23478
            5604         1.79951
            5605         1.76384
            5606         2.66658
            5607         5.32350
            5608         5.76649
            5609         5.60016
            5610         5.73749
            5611         6.56671
            5612         8.10308
            5613         7.67575
            5614         7.00228
            5615         5.64362
            5616         6.01309
            5617         5.47158
            5618         5.69415
            5619         5.78867
            5620         5.50522
            5621         3.44611
            5622         6.88987
            5623         6.89892
            5624         17.2172
            5625         22.0315
            5626         14.7924
            5627         21.9723
            5628         24.8113
            5629         5.36526
            5630         5.36248
            5631         5.46306
            5632         5.58982
            5633         14.3490
            5634         15.4492
            5635         12.1758
            5636         11.5050
            5637         5.17530
            5638         5.25252
            5639         5.22392
            5640     547.663E-03
            5641         2.21244
            5642         5.57332
            5643         5.62423
            5644         5.49885
            5645     391.158E-03
            5646         6.19267
            5647         6.12609
            5648         6.14361
            5649         5.55508
            5650         6.01747
            5651         5.34409
            5652         4.39919
            5653         5.69357
            5654         2.73619
            5655     685.741E-03
            5656     484.713E-03
            5657         4.15845
            5658     521.987E-03
            5659     553.110E-03
            5660         12.5874
            5661         9.27376
            5662     988.440E-03
            5663         1.02544
            5664         1.41872
            5665         1.88677
            5666         2.46740
            5667         1.35227
            5668         2.93104
            5669         3.00143
            5670         1.60713
            5671         1.53527
            5672         1.97328
            5673         4.27274
            5674         4.49865
            5675         5.11549
            5676         5.11270
            5677         5.98800
            5678         5.94718
            5679     272.227E-03
            5680     356.614E-03
            5681     207.037E-03
            5682         5.72364
            5683         5.75913
            5684         6.14005
            5685         1.14078
            5686         1.74858
            5687         1.23054
            5688         3.78191
            5689         4.24158
            5690         2.25634
            5691         4.13838
            5692         3.51481
            5693         5.36328
            5694         6.13460
            5695         4.66330
            5696         5.72707
            5697         4.92073
            5698         6.57296
            5699         2.54953
            5700         3.04601
            5701         2.96057
            5702         3.13136
            5703         2.69995
            5704         2.57723
            5705         6.37296
            5706         5.24747
            5707         3.05409
            5708         3.03024
            5709         2.91007
            5710         2.99181
            5711         3.16387
            5712         9.10112
            5713         2.66866
            5714         2.68100
            5715         2.63361
            5716         6.76627
            5717         6.93260
            5718         6.83810
            5719         7.26187
            5720         8.11805
            5721         7.76939
            5722         5.34606
            5723         9.17080
            5724         9.32986
            5725         6.26971
            5726         6.54537
            5727         7.58272
            5728         9.33767
            5729         2.77939
            5730         2.79902
            5731         6.63746
            5732         4.36550
            5733         5.26461
            5734         6.32468
            5735         4.15001
            5736         3.09639
            5737         3.02684
            5738     531.347E-03
            5739         1.39712
            5740         2.41844
            5741         2.55002
            5742         7.27935
            5743         6.53344
            5744         9.65931
            5745         10.2923
            5746         10.5586
            5747         2.27067
            5748         2.40374
            5749         2.19364
            5750         12.2424
            5751         11.9250
            5752         5.06876
            5753         4.28287
            5754         2.71395
            5755         2.70921
            5756         10.1530
            5757         2.18573
            5758         7.33186
            5759         8.26328
            5760         5.06613
            5761         5.12427
            5762         5.35377
            5763         5.30432
            5764         5.23640
            5765         5.18024
            5766         5.20317
            5767         5.10243
            5768         15.9594
            5769         12.4016
            5770         19.0086
            5771         4.61741
            5772         4.04169
            5773         11.1105
            5774         4.93218
            5775         15.5989
            5776         13.7279
            5777         10.8878
            5778         5.54603
            5779         5.60001
            5780         5.57942
            5781         11.2977
            5782         10.4638
            5783         5.21535
            5784         5.45868
            5785         5.45900
            5786         3.40881
            5787         4.95698
            5788         2.43786
            5789         1.82827
            5790         5.82746
            5791         6.01427
            5792         5.54386
            5793         5.98126
            5794         6.23181
            5795         5.96073
            5796         14.5454
            5797         16.3198
            5798         14.9608
            5799         13.7722
            5800         12.4926
            5801         13.1877
            5802         2.41175
            5803         2.70249
            5804         2.36646
            5805         2.41650
            5806         5.76309
            5807         17.6896
            5808         17.8899
            5809         5.26733
            5810         5.24174
            5811         5.50420
            5812         5.36697
            5813         5.42203
            5814         5.02092
            5815         5.07200
            5816         5.07482
            5817         5.04893
            5818         5.08584
            5819         2.04316
            5820         5.02711
            5821         5.00585
            5822         5.03839
            5823         5.49784
            5824         5.06581
            5825         10.8480
            5826         13.4690
            5827         16.5396
            5828         13.4365
            5829         12.0374
            5830         11.5519
            5831         3.76146
            5832         12.0452
            5833         7.44505
            5834         10.4334
            5835         10.4491
            5836         12.3572
            5837         5.22392
            5838         5.03563
            5839         5.14365
            5840         5.54885
            5841         5.84136
            5842         5.39702
            5843         5.82653
            5844         5.15032
            5845         20.8551
            5846         19.4185
            5847         21.0273
            5848         5.63723
            5849         9.20155
            5850         14.6131
            5851         14.8637
            5852         10.8900
            5853         5.02449
            5854         5.02492
            5855         5.06822
            5856         10.0738
            5857         9.58466
            5858         9.47902
            5859         8.37076
            5860         8.09600
            5861         7.67596
            5862         7.83848
            5863         7.37651
            5864         8.17602
            5865         15.8166
            5866         9.37220
            5867         8.45968
            5868         7.49460
            5869         8.34374
            5870         10.0008
            5871         8.26150
            5872         8.12790
            5873         5.43756
            5874         6.08698
            5875         6.07442
            5876         5.67722
            5877         7.45000
            5878         6.58185
            5879         6.67292
            5880         11.4080
            5881         14.0406
            5882         20.5134
            5883         18.0138
            5884         16.5743
            5885         5.87589
            5886         1.73056
            5887         1.89544
            5888         1.92586
            5889         13.0454
            5890         5.88361
            5891     930.708E-03
            5892     825.070E-03
            5893         1.55165
            5894         3.75073
            5895         5.79880
            5896         4.41188
            5897         4.42377
            5898         3.96441
            5899     34.6546E-03
            5900         6.74901
            5901         6.47429
            5902         10.4782
            5903         10.8057
            5904         11.3721
            5905         11.7368
            5906         11.3856
            5907     846.879E-03
            5908         2.90891
            5909         1.53486
            5910         1.39040
            5911         10.3476
            5912         9.26291
            5913         8.26278
            5914         9.81585
            5915         10.9304
            5916         12.4065
            5917         2.82557
            5918         2.87805
            5919         21.5195
            5920         19.8277
            5921         10.1330
            5922         8.76962
            5923         2.80896
            5924         2.88591
            5925         8.43290
            5926         6.94783
            5927         8.72889
            5928         6.85952
            5929         7.06866
            5930         6.48543
            5931         6.52805
            5932         6.37610
            5933         5.47080
            5934         4.36255
            5935         2.20522
            5936         5.12031
            5937         5.25245
            5938         6.29735
            5939         6.41201
            5940         1.93894
            5941         1.39297
            5942         6.12087
            5943         5.58405
            5944         5.60925
            5945         5.58272
            5946         16.0858
            5947         8.13576
            5948         10.2808
            5949         2.42405
            5950     431.952E-03
            5951         1.08994
            5952     262.434E-03
            5953     633.585E-03
            5954     332.879E-03
            5955         1.13780
            5956         2.03798
            5957         2.15879
            5958         6.72275
            5959         13.1329
            5960         15.2278
            5961         10.7884
            5962         13.5703
            5963         10.4075
            5964         14.9041
            5965         5.39351
            5966         5.46177
            5967         5.51529
            5968         4.56101
            5969         8.62594
            5970         8.62148
            5971         1.49963
            5972         12.2188
            5973         11.3868
            5974         1.93427
            5975         2.22411
            5976         5.36973
            5977         5.51476
            5978         5.20372
            5979         22.2563
            5980         19.0545
            5981         14.3492
            5982         19.4464
            5983         22.4503
            5984         29.4794
            5985         5.35933
            5986         5.41583
            5987         5.24222
            5988         5.22160
            5989         5.42654
            5990         30.1769
            5991         5.13441
            5992         5.50312
            5993         5.16915
            5994         5.25417
            5995         5.19446
            5996         5.29871
            5997         5.31576
            5998         17.1190
            5999         7.66119
            6000         6.33234
            6001         9.82181
            6002         10.7357
            6003         5.63365
            6004         5.76184
            6005         5.78427
            6006         5.90963
            6007         13.3094
            6008         14.5037
            6009         23.3309
            6010         21.8923
            6011         7.26058
            6012         9.81662
            6013         15.1943
            6014         12.2719
            6015         11.6473
            6016         22.0656
            6017         21.5221
            6018         7.05774
            6019         6.02343
            6020         8.05554
            6021         6.96099
            6022         5.74892
            6023         4.31477
            6024         2.96891
            6025         2.56021
            6026         3.46027
            6027         3.52438
            6028         3.20214
            6029         4.75654
            6030         3.45605
            6031         3.41286
            6032         2.32250
            6033         5.96969
            6034         6.03365
            6035         2.56848
            6036         5.82139
            6037         1.56693
            6038         3.37350
            6039         2.89574
            6040         2.78312
            6041         2.24817
            6042         1.54042
            6043         3.85568
            6044         4.10417
            6045         4.41326
            6046         2.90275
            6047         3.48312
            6048         4.49274
            6049         6.26245
            6050         3.49757
            6051         4.49142
            6052         4.90394
            6053         4.58957
            6054         4.65426
            6055         5.49267
            6056         4.56847
            6057         3.94622
            6058         3.74914
            6059         3.58591
            6060         4.61657
            6061         2.84783
            6062         5.94086
            6063         5.59955
            6064         5.90171
            6065         1.14235
            6066     535.483E-03
            6067         1.28466
            6068     994.977E-03
            6069         5.77180
            6070         3.78864
            6071         3.94776
            6072     386.198E-03
            6073     450.998E-03
            6074         1.18930
            6075         4.30843
            6076         5.16276
            6077         1.31494
            6078         1.36363
            6079         5.13501
            6080         3.13146
            6081         3.02484
            6082         2.22720
            6083         1.47286
            6084         1.52104
            6085         1.24796
            6086         1.62640
            6087         5.90319
            6088         6.35025
            6089         1.19123
            6090     37.4458E-03
            6091     31.3289E-03
            6092         6.41501
            6093         6.22333
            6094         5.45332
            6095         5.49926
            6096         5.73344
            6097         7.62070
            6098         1.01388
            6099         3.22769
            6100         5.26576
            6101         5.29203
            6102         5.19521
            6103         2.65557
            6104         10.0483
            6105         10.2748
            6106         17.4137
            6107         9.23345
            6108         4.13732
            6109         6.77009
            6110         5.23425
            6111         3.46199
            6112         6.42987
            6113         4.40627
            6114         5.95556
            6115         5.95148
            6116         11.7070
            6117         6.56944
            6118         6.44473
            6119         6.28226
            6120         15.5729
            6121         11.5303
            6122         15.5200
            6123         4.91734
            6124         5.57445
            6125         5.27104
            6126         5.27228
            6127         5.10683
            6128         3.85811
            6129         5.18192
            6130         4.84545
            6131         3.84735
            6132         2.84838
            6133         3.20298
            6134         4.02204
            6135         3.26450
            6136         3.99216
            6137         5.72682
            6138         4.65552
            6139         3.70288
            6140         12.8143
            6141         12.5411
            6142         8.56570
            6143         7.26008
            6144         12.4938
            6145     259.408E-03
            6146         2.35732
            6147         2.98653
            6148         2.66999
            6149         8.73221
            6150         5.95777
            6151         5.59552
            6152         5.58770
            6153         4.87630
            6154         9.24178
            6155         4.01070
            6156         7.47608
            6157         6.17970
            6158         10.8184
            6159         10.4360
            6160         9.85677
            6161         4.74319
            6162         5.69005
            6163         5.70748
            6164         5.75442
            6165         5.15393
            6166         6.93663
            6167         5.30304
            6168         9.48107
            6169         6.61488
            6170         5.91664
            6171         8.14326
            6172         13.0022
            6173         14.2172
            6174         10.4239
            6175         7.42688
            6176         8.61018
            6177         7.96835
            6178         8.78505
            6179         9.44361
            6180         9.41968
            6181         5.07781
            6182         6.95371
            6183         14.3496
            6184         6.90049
            6185         12.3925
            6186         4.73584
            6187         6.52693
            6188         6.63320
            6189         5.79008
            6190         9.49033
            6191         8.86699
            6192         9.53013
            6193         12.0091
            6194         6.51481
            6195         6.63813
            6196         7.90652
            6197         7.47972
            6198         7.60533
            6199         9.35187
            6200         17.6774
            6201         5.71067
            6202         5.51589
            6203         4.37036
            6204         4.96877
            6205         4.75482
            6206         3.86506
            6207         4.21592
            6208         5.35556
            6209         4.61536
            6210         5.55227
            6211         5.09517
            6212         6.28858
            6213         3.37733
            6214         3.25307
            6215         2.72900
            6216         2.89521
            6217         3.49461
            6218         4.63322
            6219         4.83277
            6220         3.50510
            6221         3.76813
            6222         4.22077
            6223         4.52697
            6224         4.72838
            6225         5.47382
            6226         5.53873
            6227         5.04851
            6228         4.93766
            6229         4.99354
            6230         5.11810
            6231         4.30887
            6232         6.63386
            6233         5.83106
            6234         6.05535
            6235         5.58026
            6236         6.22846
            6237         3.97102
            6238         14.1450
            6239         18.2853
            6240         4.74832
            6241         4.07512
            6242         5.56288
            6243         5.56361
            6244         11.7852
            6245         10.9708
            6246         10.3114
            6247         11.1810
            6248         1.03614
            6249         10.5767
            6250     516.641E-03
            6251     364.318E-03
            6252     320.368E-03
            6253     152.812E-03
            6254     150.607E-03
            6255         5.23032
            6256         3.26843
            6257     625.911E-03
            6258     979.763E-03
            6259         1.10165
            6260         1.08620
            6261     934.991E-03
            6262         1.09681
            6263         1.27289
            6264         7.56025
            6265         1.96687
            6266         1.85636
            6267         1.01631
            6268     683.227E-03
            6269     542.273E-03
            6270     277.304E-03
            6271     255.950E-03
            6272     420.164E-03
            6273     132.895E-03
            6274         2.89977
            6275     456.817E-03
            6276     942.903E-03
            6277     969.744E-03
            6278         3.10390
            6279         6.93598
            6280         12.7004
            6281         13.7946
            6282         9.26186
            6283         13.2291
            6284     451.462E-03
            6285     320.099E-03
            6286     894.716E-03
            6287         5.19045
            6288         5.47462
            6289         8.13260
            6290         5.46597
            6291         5.12711
            6292         5.72814
            6293         5.45721
            6294         2.91128
            6295         6.39724
            6296         6.00071
            6297         5.88482
            6298         9.88953
            6299         11.0346
            6300     30.3498E-03
            6301         4.02873
            6302         3.64787
            6303         6.47143
            6304         15.5736
            6305         23.7932
            6306         16.7329
            6307         9.82610
            6308         21.6923
            6309         22.9899
            6310         16.1234
            6311         23.0291
            6312         4.69834
            6313         4.96967
            6314         3.16345
            6315         7.00850
            6316         9.37287
            6317         7.88471
            6318         9.24351
            6319     871.967E-03
            6320         5.25741
            6321         11.8772
            6322         15.3113
            6323         7.67958
            6324         22.0217
            6325         7.56637
            6326         7.62600
            6327         7.87231
            6328         7.43795
            6329         6.04899
            6330         6.74562
            6331         6.70595
            6332         6.47385
            6333         18.1250
            6334         5.67783
            6335         6.43916
            6336         4.32906
            6337         9.21131
            6338         8.90127
            6339         6.95533
            6340         7.33600
            6341         6.35658
            6342         5.75364
            6343         7.70383
            6344         9.43261
            6345         9.35661
            6346         8.71656
            6347         7.42476
            6348         7.12139
            6349         5.94741
            6350         6.00285
            6351         5.70760
            6352         4.74848
            6353         4.38027
            6354         8.68889
            6355         9.81362
            6356         5.46884
            6357         5.31069
            6358         2.93214
            6359         2.60914
            6360         3.06951
            6361         3.15265
            6362         6.77392
            6363         7.10750
            6364         2.76861
            6365         2.67146
            6366         3.02395
            6367         1.72377
            6368         2.84878
            6369         3.60639
            6370         2.69154
            6371         2.28484
            6372         3.13686
            6373         1.78750
            6374         2.79257
            6375         2.49543
            6376         2.11758
            6377         3.89598
            6378         4.32077
            6379         4.68208
            6380         10.0150
            6381         12.7140
            6382         6.98791
            6383         6.23789
            6384         4.68408
            6385         5.64549
            6386         5.30566
            6387         10.2171
            6388         9.98212
            6389         14.2620
            6390         5.70689
            6391         5.56820
            6392         5.65622
            6393         3.34848
            6394         2.46301
            6395         5.82311
            6396         8.73233
            6397         6.92677
            6398         6.94382
            6399         7.47714
            6400         3.59323
            6401         5.95230
            6402         6.09050
            6403         4.55526
            6404         5.87736
            6405         6.11744
            6406         5.86791
            6407         1.19078
            6408         1.12952
            6409         2.60150
            6410         1.09885
            6411         7.19663
            6412         1.02614
            6413         1.99931
            6414         1.35950
            6415         6.47331
            6416         1.10538
            6417     854.551E-03
            6418         1.09763
            6419         2.68943
            6420         2.54310
            6421         3.19462
            6422         3.05515
            6423         3.32015
            6424         2.81227
            6425         3.72341
            6426         7.16259
            6427         7.01951
            6428         7.36543
            6429         6.92827
            6430         6.60248
            6431         7.31702
            6432         6.15543
            6433         6.71619
            6434         6.07974
            6435     960.460E-03
            6436         1.26128
            6437         1.65634
            6438     939.204E-03
            6439     931.684E-03
            6440         8.00671
            6441         1.84047
            6442         2.45341
            6443     872.039E-03
            6444         1.59917
            6445         1.67089
            6446         3.41398
            6447         5.17623
            6448         2.56236
            6449         2.56046
            6450         6.19629
            6451         1.20803
            6452         1.18191
            6453         1.22275
            6454     918.305E-03
            6455     981.134E-03
            6456     944.575E-03
            6457         9.29320
            6458         8.01823
            6459         9.00968
            6460         9.25573
            6461         3.35233
            6462         1.70372
            6463         1.64336
            6464         1.41051
            6465         1.77783
            6466         2.04497
            6467         2.15152
            6468         1.84983
            6469         1.85235
            6470         3.86038
            6471         3.89233
            6472         4.15123
            6473         5.17502
            6474         2.71833
            6475         2.68318
            6476         2.41666
            6477         1.92606
            6478         5.36459
            6479         1.84807
            6480         3.39506
            6481         1.47862
            6482         2.48897
            6483     774.876E-03
            6484         7.31119
            6485         7.18144
            6486         7.00845
            6487         6.66486
            6488         6.75392
            6489         3.05107
            6490         2.92788
            6491         3.07750
            6492         1.79634
            6493         2.97741
            6494         1.14701
            6495     669.899E-03
            6496         3.32240
            6497         3.15202
            6498         3.29587
            6499     599.598E-03
            6500     837.455E-03
            6501     32.8851E-03
            6502         1.34448
            6503         1.11427
            6504         6.07162
            6505         5.82505
            6506     363.402E-03
            6507         2.98219
            6508         2.63645
            6509         2.14204
            6510         6.88934
            6511         6.91328
            6512     373.997E-03
            6513     516.240E-03
            6514         6.83391
            6515         6.55776
            6516     315.425E-03
            6517     31.5423E-03
            6518         6.30372
            6519         6.39724
            6520         6.84147
            6521         5.92273
            6522         6.44985
            6523         5.86594
            6524         5.89191
            6525         6.08313
            6526         5.81764
            6527         5.46929
            6528         5.45933
            6529         6.11329
            6530         5.68657
            6531         2.24608
            6532         7.22313
            6533         6.43128
            6534     541.796E-03
            6535         6.80830
            6536         2.37457
            6537         2.04067
            6538         4.38869
            6539         6.27614
            6540         5.28000
            6541         6.81684
            6542         7.88818
            6543         7.27876
            6544         8.14861
            6545         1.54742
            6546         6.39527
            6547         7.06403
            6548         5.93002
            6549     722.737E-03
            6550         6.32024
            6551         6.39791
            6552         1.74482
            6553         1.23291
            6554         6.68006
            6555         1.79267
            6556         2.22567
            6557         1.55706
            6558         1.40330
            6559         1.20338
            6560     840.724E-03
            6561         6.93682
            6562         8.15739
            6563         3.21214
            6564         2.40848
            6565         2.25352
            6566         4.17554
            6567         2.77280
            6568         1.91081
            6569         1.92986
            6570     258.438E-03
            6571         3.91817
            6572         3.51933
            6573         3.93602
            6574         3.82503
            6575         3.44230
            6576         6.48422
            6577         6.93732
            6578         6.17786
            6579         5.88985
            6580         7.08018
            6581         7.26904
            6582         7.58653
            6583         6.99582
            6584         7.68866
            6585         7.80134
            6586     44.3037E-03
            6587         5.57353
            6588         5.82682
            6589     126.136E-03
            6590     58.8354E-03
            6591         2.79431
            6592         2.62005
            6593         2.26220
            6594         3.15140
            6595     86.1012E-03
            6596     803.237E-03
            6597         1.42793
            6598     254.608E-03
            6599         2.46337
            6600     742.066E-03
            6601     550.416E-03
            6602     548.508E-03
            6603     809.836E-03
            6604         5.88061
            6605         7.49171
            6606         6.92682
            6607         6.76627
            6608         7.25503
            6609         7.29719
            6610         6.51153
            6611         6.93329
            6612         7.04859
            6613         6.83537
            6614         6.72588
            6615         7.43267
            6616         7.81465
            6617         8.31758
            6618         9.94184
            6619     437.008E-03
            6620         5.54311
            6621         4.82173
            6622         1.64688
            6623         1.02948
            6624         2.14802
            6625         1.98416
            6626         2.39500
            6627         2.20631
            6628         2.32511
            6629         5.64903
            6630         1.90731
            6631         1.80664
            6632         3.83375
            6633     814.530E-03
            6634     597.058E-03
            6635         4.11120
            6636         4.57875
            6637         6.34288
            6638         6.97373
            6639         3.42721
            6640         5.87280
            6641         8.30945
            6642         7.43989
            6643         9.43741
            6644         8.37841
            6645         8.69363
            6646         7.38477
            6647         3.82682
            6648         6.34507
            6649         6.10346
            6650     147.287E-03
            6651         3.50326
            6652         4.07950
            6653         4.16768
            6654         3.36651
            6655         2.93547
            6656         2.09055
            6657         8.55934
            6658     224.732E-03
            6659         9.38095
            6660         9.31378
            6661         22.0482
            6662         19.5599
            6663         3.50667
            6664         3.50508
            6665         9.30674
            6666         2.92941
            6667         2.86268
            6668         9.84036
            6669         8.91525
            6670         9.43798
            6671         8.48538
            6672         8.68139
            6673         7.70013
            6674         9.58057
            6675         7.87483
            6676         5.92182
            6677         8.23851
            6678         8.62587
            6679         5.88594
            6680         4.06754
            6681         7.10325
            6682         3.60343
            6683         5.02764
            6684         5.82264
            6685         3.26802
            6686         3.61987
            6687         3.43129
            6688         2.91324
            6689         3.11666
            6690         7.70725
            6691         7.71054
            6692         2.88810
            6693         3.44379
            6694         6.76999
            6695         4.92727
            6696         2.69522
            6697         1.93125
            6698         2.46737
            6699         1.58985
            6700         3.44045
            6701         6.54271
            6702         8.01526
            6703         7.26662
            6704         6.77787
            6705         6.81576
            6706         7.67672
            6707         7.08335
            6708         7.02691
            6709         5.23407
            6710         9.84137
            6711         9.70376
            6712         6.32682
            6713         9.07789
            6714         8.17517
            6715         6.75550
            6716         6.80847
            6717         7.23706
            6718         7.63745
            6719         7.88590
            6720         2.44267
            6721         2.14947
            6722         2.33363
            6723         2.04060
            6724         1.95051
            6725         1.47895
            6726         1.88824
            6727         1.58112
            6728     869.738E-03
            6729         4.01086
            6730         4.01382
            6731         1.41194
            6732         1.32309
            6733         1.62340
            6734         1.35150
            6735     915.279E-03
            6736     831.660E-03
            6737     609.251E-03
            6738         1.29036
            6739         1.07284
            6740         3.22803
            6741         5.00018
            6742         4.31386
            6743         1.79875
            6744         2.06608
            6745         2.28244
            6746         3.38549
            6747         2.77864
            6748         2.74906
            6749         4.71649
            6750         4.93411
            6751         5.43054
            6752         4.01234
            6753         7.13707
            6754         2.49914
            6755         2.47187
            6756         2.29055
            6757         2.28626
            6758         7.67301
            6759         7.66602
            6760         7.34021
            6761         8.05465
            6762         2.86797
            6763         2.86694
            6764         6.01838
            6765         5.79101
            6766         2.59959
            6767         6.96280
            6768         1.39924
            6769         2.39043
            6770         8.15539
            6771         8.44987
            6772     792.320E-03
            6773         2.32229
            6774     675.915E-03
            6775     444.716E-03
            6776     624.542E-03
            6777     492.180E-03
            6778         11.1904
            6779         1.09409
            6780         5.30835
            6781         6.02957
            6782         4.43794
            6783         1.02141
            6784     644.306E-03
            6785         18.3577
            6786         6.94243
            6787         7.82152
            6788         9.01378
            6789         8.41582
            6790         8.39419
            6791         7.24710
            6792         9.20954
            6793         4.14501
            6794         2.82660
            6795     966.290E-03
            6796     672.873E-03
            6797         1.87307
            6798         1.01273
            6799         1.50675
            6800         1.03299
            6801     971.879E-03
            6802         2.06447
            6803         1.10542
            6804     66.5874E-03
            6805         4.48694
            6806         4.68052
            6807         5.20840
            6808         3.86942
            6809         3.59647
            6810         3.47791
            6811         5.33374
            6812         1.87238
            6813         1.95133
            6814         6.64794
            6815         2.67314
            6816         3.97332
            6817         10.0118
            6818         4.78459
            6819         3.32591
            6820         15.4280
            6821         6.35326
            6822         5.71325
            6823         11.5511
            6824         2.41440
            6825         14.5020
            6826         3.43812
            6827         12.6185
            6828         3.06627
            6829         2.58968
            6830         12.2932
            6831         18.0479
            6832         5.74969
            6833         9.78997
            6834         1.09221
            6835     61.0903E-03
            6836     84.8113E-03
            6837         1.80898
            6838         8.17439
            6839         8.91504
            6840         7.53548
            6841         7.88006
            6842         9.82701
            6843         6.72260
            6844         9.75512
            6845         13.0796
            6846         10.8091
            6847         29.5998
            6848         13.0276
            6849         3.42816
            6850         1.61498
            6851         12.5473
            6852     57.3007E-03
            6853         5.76899
            6854     56.6553E-03
            6855         2.68242
            6856         4.34665
            6857     132.168E-03
            6858         5.73657
            6859     581.284E-03
            6860         3.11834
            6861         3.05114
            6862         1.58162
            6863         2.96493
            6864         1.99966
            6865         1.65202
            6866         8.73146


  Minimum            9.68558E-03
         At Node            5553

  Maximum                32.3315
         At Node              47

           Total     29.4426E+03


