********************************************************************************
Field Output Report, written Tue Feb  6 13:13:45 2024

Source 1
---------

   ODB: C:/Users/Daniel Gutierrez/Desktop/Back up 28-06-23/Imperial College/Imperial 2023-2024/AVD/pt2/github sims/AVD/iter 1.3/Job-MESH-5.odb
   Step: Loading down with g
   Frame: Increment      1: Step Time =    1.000

Loc 1 : Nodal values from source 1

Output sorted by column "Node Label".

Field Output reported at nodes for part: BLANK-1
   Computation algorithm: EXTRAPOLATE_COMPUTE_AVERAGE
   Averaged at nodes
   Averaging regions: ODB_REGIONS

      Node Label         S.Mises
                          @Loc 1
---------------------------------
               1         19.1123
               2         20.8520
               3         18.4677
               4         20.3867
               5         8.33258
               6         8.54018
               7         5.30529
               8     603.724E-03
               9         7.47366
              10     390.355E-03
              11         3.56231
              12     6.22481E-03
              13     6.04992E-03
              14     2.93435E-03
              15     10.1116E-03
              16     3.03484E-03
              17     3.29331E-03
              18     3.67553E-03
              19     3.84401E-03
              20         10.6974
              21         13.0466
              22         19.0517
              23         21.5750
              24         21.2908
              25         15.4406
              26         9.63167
              27         15.4314
              28         23.7551
              29         25.5443
              30         12.5606
              31         12.7502
              32         18.9519
              33         21.7180
              34         21.3409
              35         16.7678
              36         10.5224
              37         14.1274
              38         23.5318
              39         25.4552
              40         8.57803
              41         3.44072
              42         1.60081
              43         1.27520
              44         3.07070
              45         8.53609
              46         18.9517
              47         30.2241
              48         36.2250
              49         29.3958
              50         9.72511
              51         3.93852
              52         1.79194
              53         1.31776
              54         2.96343
              55         8.30494
              56         17.6871
              57         28.6067
              58         35.3506
              59         32.3936
              60         4.95922
              61         4.59036
              62         5.05651
              63         5.13378
              64         6.54647
              65         11.0373
              66         16.2729
              67         18.7519
              68         18.0228
              69         13.4747
              70         5.02994
              71         4.49292
              72         4.71519
              73         4.88199
              74         6.26754
              75         10.3749
              76         15.4435
              77         18.5536
              78         18.5940
              79         13.9709
              80         6.01864
              81         6.69236
              82         7.30712
              83         7.80217
              84         8.18905
              85         8.41337
              86         8.41981
              87         8.24627
              88         7.83306
              89         7.26420
              90         6.60651
              91         5.98569
              92         5.60018
              93         5.57444
              94         5.96515
              95         6.59160
              96         7.31279
              97         7.93522
              98         8.39539
              99         8.63634
             100         8.64166
             101         8.44766
             102         8.06736
             103         7.52827
             104         6.91357
             105         6.21236
             106         5.47383
             107         4.73632
             108         4.03039
             109         3.39374
             110         2.88137
             111         2.57565
             112         2.54256
             113         2.79787
             114         3.27930
             115         3.89634
             116         4.58062
             117     339.300E-03
             118     730.672E-03
             119     485.983E-03
             120     413.867E-03
             121         1.16516
             122         2.05152
             123         2.95634
             124         3.87773
             125         4.82243
             126         5.74391
             127         6.59239
             128         7.32347
             129         7.79629
             130         8.06794
             131         8.04807
             132         7.80101
             133         7.45065
             134         7.08171
             135         6.86534
             136         6.87446
             137         7.09593
             138         7.38434
             139         7.61618
             140         7.65823
             141         7.02602
             142         6.34843
             143         5.52100
             144         4.61317
             145         3.69112
             146         2.78486
             147         1.93266
             148         1.18041
             149     886.347E-03
             150         1.30950
             151         1.66408
             152         1.46477
             153     997.651E-03
             154         1.20459
             155         1.06535
             156     811.893E-03
             157     715.214E-03
             158     891.609E-03
             159         1.20704
             160         1.57506
             161         1.96866
             162         2.36267
             163         2.74134
             164         3.08291
             165         3.32954
             166         3.49298
             167         3.55554
             168         3.51753
             169         3.49973
             170         3.52645
             171         3.62083
             172         3.73098
             173         3.82021
             174         3.82053
             175         3.73806
             176         3.52993
             177         3.22978
             178         2.85034
             179         2.42979
             180         1.97976
             181         1.54274
             182         1.12917
             183     720.611E-03
             184     416.578E-03
             185     421.908E-03
             186     611.340E-03
             187     638.820E-03
             188     286.794E-03
             189     20.1920E-03
             190     62.5682E-03
             191     95.5743E-03
             192     104.275E-03
             193     84.7586E-03
             194     33.4109E-03
             195     41.4154E-03
             196     137.542E-03
             197     249.003E-03
             198     364.635E-03
             199     473.663E-03
             200     563.048E-03
             201     615.119E-03
             202     611.745E-03
             203     529.731E-03
             204     352.394E-03
             205     71.6414E-03
             206     319.091E-03
             207     745.281E-03
             208         1.10139
             209         1.26621
             210         1.03460
             211     362.728E-03
             212         1.54169
             213         2.11785
             214         2.21058
             215         1.92968
             216         1.45918
             217     953.504E-03
             218     517.598E-03
             219     185.653E-03
             220     36.8220E-03
             221     141.668E-03
             222     178.338E-03
             223     160.318E-03
             224     112.727E-03
             225     51.0029E-03
             226     11.4426E-03
             227     64.2668E-03
             228     98.4871E-03
             229     108.752E-03
             230     93.9093E-03
             231     59.1963E-03
             232     18.8609E-03
             233     16.9482E-03
             234     56.6303E-03
             235     92.3446E-03
             236     107.922E-03
             237     98.8397E-03
             238     65.9558E-03
             239     13.8917E-03
             240     48.5601E-03
             241     109.836E-03
             242     160.855E-03
             243     179.358E-03
             244     149.598E-03
             245     41.8838E-03
             246     163.053E-03
             247     471.285E-03
             248     899.749E-03
             249         1.40423
             250         1.88459
             251         2.17815
             252         2.13461
             253         1.64885
             254     750.535E-03
             255     222.143E-03
             256     951.351E-03
             257         1.24230
             258         1.14782
             259     798.285E-03
             260     368.247E-03
             261     41.9522E-03
             262     330.052E-03
             263     514.011E-03
             264     603.634E-03
             265     617.149E-03
             266     566.244E-03
             267     479.055E-03
             268     370.983E-03
             269     254.397E-03
             270     142.372E-03
             271     44.9188E-03
             272     34.1968E-03
             273     83.4280E-03
             274     104.767E-03
             275     97.3965E-03
             276     64.6036E-03
             277     21.3194E-03
             278     19.1910E-03
             279     60.3128E-03
             280     97.6232E-03
             281     113.499E-03
             282     96.8491E-03
             283     48.8552E-03
             284     45.1205E-03
             285     176.010E-03
             286     349.116E-03
             287     566.137E-03
             288     820.693E-03
             289         1.11304
             290         1.43890
             291         1.79418
             292         2.17382
             293         2.57778
             294         3.00052
             295         3.43869
             296         3.88767
             297         4.34644
             298         4.81041
             299         5.27805
             300         5.73893
             301         6.20146
             302         6.65583
             303         7.08792
             304         7.50131
             305         7.89154
             306         8.25171
             307         8.56620
             308         8.83903
             309         9.06361
             310         9.23666
             311         9.35718
             312         9.42253
             313         9.43538
             314         9.40234
             315         9.32084
             316         9.19659
             317         9.03999
             318         8.85254
             319         8.64635
             320         8.42453
             321         8.18878
             322         7.94890
             323         7.70690
             324         7.46691
             325         7.23089
             326         6.99945
             327         6.77536
             328         6.55854
             329         6.34858
             330         6.14705
             331         5.95360
             332         5.76628
             333         5.58574
             334         5.41111
             335         5.24189
             336         5.07630
             337         4.91649
             338         4.76002
             339         4.60638
             340         4.45568
             341         4.30693
             342         4.16103
             343         4.01570
             344         3.87214
             345         3.72926
             346         3.58669
             347         3.44461
             348         3.30264
             349         3.16043
             350         3.01796
             351         2.87475
             352         2.73160
             353         2.58636
             354         2.44031
             355         2.29426
             356         2.14669
             357         1.99776
             358         1.84819
             359         1.69792
             360         1.54664
             361         1.39649
             362         1.24699
             363         1.09905
             364     954.353E-03
             365     812.946E-03
             366     676.564E-03
             367     548.781E-03
             368     429.296E-03
             369     320.211E-03
             370     223.963E-03
             371     140.786E-03
             372     73.8393E-03
             373     20.7158E-03
             374     16.9147E-03
             375     40.1599E-03
             376     49.3564E-03
             377     46.9706E-03
             378     36.1237E-03
             379     19.5874E-03
             380     5.60886E-03
             381     5.90247E-03
             382     20.0514E-03
             383     36.4359E-03
             384     47.3544E-03
             385     49.5171E-03
             386     40.4214E-03
             387     17.1502E-03
             388     20.8075E-03
             389     73.9704E-03
             390     140.983E-03
             391     223.962E-03
             392     320.226E-03
             393     429.406E-03
             394     548.895E-03
             395     676.637E-03
             396     812.835E-03
             397     954.356E-03
             398         1.09898
             399         1.24697
             400         1.39647
             401         1.54738
             402         1.69794
             403         1.84824
             404         1.99780
             405         2.14661
             406         2.29452
             407         2.44087
             408         2.58625
             409         2.73168
             410         2.87489
             411         3.01798
             412         3.16050
             413         3.30265
             414         3.44464
             415         3.58677
             416         3.72927
             417         3.87235
             418         4.01580
             419         4.16152
             420         4.30759
             421         4.45581
             422         4.60657
             423         4.76021
             424         4.91665
             425         5.07747
             426         5.24193
             427         5.41126
             428         5.58603
             429         5.76651
             430         5.95408
             431         6.14784
             432         6.34909
             433         6.55902
             434         6.77594
             435         7.00016
             436         7.23175
             437         7.46793
             438         7.70760
             439         7.95022
             440         8.18955
             441         8.42550
             442         8.64831
             443         8.85346
             444         9.03874
             445         9.19595
             446         9.32196
             447         9.40329
             448         9.43709
             449         9.42428
             450         9.35709
             451         9.23651
             452         9.06357
             453         8.83783
             454         8.56249
             455         8.24471
             456         7.88837
             457         7.50030
             458         7.08654
             459         6.65139
             460         6.20070
             461         5.73742
             462         5.27640
             463         4.80965
             464         4.34563
             465         3.88722
             466         3.43805
             467         3.00044
             468         2.57760
             469         2.17356
             470         1.79386
             471         1.43690
             472         1.11236
             473     820.747E-03
             474     566.664E-03
             475     349.699E-03
             476     176.406E-03
             477     45.3646E-03
             478     44.0221E-03
             479     97.8364E-03
             480     112.411E-03
             481     96.8811E-03
             482     58.8203E-03
             483     20.8254E-03
             484     6.64021E-03
             485     22.8174E-03
             486     41.1416E-03
             487     53.1029E-03
             488     55.2157E-03
             489     45.2253E-03
             490     21.5674E-03
             491     17.5889E-03
             492     70.7197E-03
             493     138.339E-03
             494     222.004E-03
             495     316.759E-03
             496     424.201E-03
             497     544.394E-03
             498     670.932E-03
             499     807.754E-03
             500     950.076E-03
             501         1.09730
             502         1.24883
             503         1.40270
             504         1.55857
             505         1.71534
             506         1.87219
             507         2.03074
             508         2.18766
             509         2.34371
             510         2.50008
             511         2.65528
             512         2.80957
             513         2.96328
             514         3.11612
             515         3.26893
             516         3.42099
             517         3.57292
             518         3.72493
             519         3.87767
             520         4.02972
             521         4.18303
             522         4.33780
             523         4.49352
             524         4.65079
             525         4.81034
             526         4.97191
             527         5.13690
             528         5.30424
             529         5.47573
             530         5.65072
             531         5.82984
             532         6.01392
             533         6.20238
             534         6.39585
             535         6.59554
             536         6.79786
             537         7.00575
             538         7.21779
             539         7.43211
             540         7.64799
             541         7.86339
             542         8.07493
             543         8.28280
             544         8.47942
             545         8.66488
             546         8.83002
             547         8.97287
             548         9.08953
             549         9.17471
             550         9.22325
             551         9.22805
             552         9.19331
             553         9.11175
             554         8.98428
             555         8.80994
             556         8.59418
             557         8.33230
             558         8.03866
             559         7.70136
             560         7.34012
             561         6.95120
             562         6.53947
             563         6.11280
             564         5.67527
             565         5.22957
             566         4.78074
             567         4.32986
             568         3.88515
             569         3.44824
             570         3.02024
             571         2.60699
             572         2.20991
             573         1.83548
             574         1.48573
             575         1.16550
             576     873.967E-03
             577     617.874E-03
             578     399.343E-03
             579     220.358E-03
             580     78.1270E-03
             581     23.7473E-03
             582     84.2566E-03
             583     110.334E-03
             584     98.4793E-03
             585     62.9631E-03
             586     22.7652E-03
             587     5.26730E-03
             588     19.2814E-03
             589     34.3560E-03
             590     44.7901E-03
             591     47.9848E-03
             592     46.9029E-03
             593     40.9602E-03
             594     34.7731E-03
             595     33.1665E-03
             596     41.3637E-03
             597     69.9173E-03
             598     127.383E-03
             599     220.352E-03
             600     369.513E-03
             601     574.144E-03
             602     839.045E-03
             603         1.12948
             604         1.38915
             605         1.54873
             606         1.47651
             607         1.11870
             608     479.798E-03
             609     215.960E-03
             610     736.442E-03
             611     996.222E-03
             612         1.00557
             613     848.900E-03
             614     626.054E-03
             615     405.186E-03
             616     223.557E-03
             617     92.9454E-03
             618     12.2904E-03
             619     37.7429E-03
             620     53.3358E-03
             621     48.9336E-03
             622     32.6254E-03
             623     9.64978E-03
             624     13.8149E-03
             625     34.1967E-03
             626     48.5818E-03
             627     53.7306E-03
             628     52.0253E-03
             629     40.5536E-03
             630     23.7045E-03
             631     7.11347E-03
             632     6.97535E-03
             633     23.2822E-03
             634     41.7297E-03
             635     53.5575E-03
             636     55.3726E-03
             637     45.3796E-03
             638     21.5473E-03
             639     17.4720E-03
             640     70.7240E-03
             641     138.230E-03
             642     221.409E-03
             643     316.951E-03
             644     424.715E-03
             645     543.863E-03
             646     670.994E-03
             647     807.705E-03
             648     950.144E-03
             649         1.09744
             650         1.24864
             651         1.40274
             652         1.55870
             653         1.71557
             654         1.87234
             655         2.03067
             656         2.18778
             657         2.34457
             658         2.50004
             659         2.65534
             660         2.80960
             661         2.96326
             662         3.11672
             663         3.26891
             664         3.42099
             665         3.57295
             666         3.72497
             667         3.87743
             668         4.03047
             669         4.18319
             670         4.33771
             671         4.49357
             672         4.65100
             673         4.81072
             674         4.97211
             675         5.13701
             676         5.30437
             677         5.47603
             678         5.65080
             679         5.83004
             680         6.01410
             681         6.20252
             682         6.39620
             683         6.59541
             684         6.79840
             685         7.00599
             686         7.21809
             687         7.43267
             688         7.64833
             689         7.86363
             690         8.07783
             691         8.28305
             692         8.47974
             693         8.66523
             694         8.83046
             695         8.97261
             696         9.08845
             697         9.17653
             698         9.22313
             699         9.22759
             700         9.19327
             701         9.11158
             702         8.98507
             703         8.80944
             704         8.59233
             705         8.33398
             706         8.03709
             707         7.70112
             708         7.33816
             709         6.94738
             710         6.53803
             711         6.11130
             712         5.67412
             713         5.22854
             714         4.77653
             715         4.32911
             716         3.88456
             717         3.44737
             718         3.01971
             719         2.60648
             720         2.20928
             721         1.83522
             722         1.48519
             723         1.16656
             724     873.294E-03
             725     616.623E-03
             726     398.994E-03
             727     220.769E-03
             728     78.0201E-03
             729     23.5140E-03
             730     83.7943E-03
             731     104.444E-03
             732     98.9421E-03
             733     61.6094E-03
             734     21.0654E-03
             735     5.76350E-03
             736     22.8096E-03
             737     39.9318E-03
             738     51.4973E-03
             739     54.0565E-03
             740     48.0145E-03
             741     34.3073E-03
             742     14.5995E-03
             743     8.54450E-03
             744     31.0199E-03
             745     48.1208E-03
             746     53.6046E-03
             747     39.6480E-03
             748     10.5600E-03
             749     83.4159E-03
             750     208.833E-03
             751     384.697E-03
             752     600.351E-03
             753     823.570E-03
             754     985.298E-03
             755         1.02606
             756     802.620E-03
             757     310.442E-03
             758         1.04491
             759         1.46621
             760         1.56908
             761         1.43000
             762         1.16440
             763     867.180E-03
             764     597.262E-03
             765     383.640E-03
             766     230.994E-03
             767     132.473E-03
             768     72.4569E-03
             769     42.6061E-03
             770     33.0806E-03
             771     34.4958E-03
             772     40.6839E-03
             773     46.6506E-03
             774     48.6884E-03
             775     45.2267E-03
             776     34.9166E-03
             777     19.9404E-03
             778     5.50981E-03
             779         6.46223
             780         12.1610
             781         8.54186
             782         9.42689
             783         13.9415
             784         13.8771
             785         6.01532
             786         7.64669
             787         9.53608
             788         9.38003
             789         11.7573
             790         10.2285
             791         3.07040
             792         4.18011
             793         10.2128
             794         13.6525
             795         12.8212
             796         8.33131
             797         9.41089
             798         5.07396
             799         7.55172
             800         13.2146
             801         15.1539
             802         7.30407
             803         8.04559
             804         8.99618
             805         9.30023
             806         9.26283
             807         8.92773
             808         7.63702
             809         6.89698
             810         6.25019
             811         6.23275
             812         6.81292
             813         8.44276
             814         9.06836
             815         9.68867
             816         9.63279
             817         8.85955
             818         8.21489
             819         6.79170
             820         5.93982
             821         4.36856
             822         3.77256
             823         3.25086
             824         3.22680
             825         3.64478
             826         4.94553
             827         5.77425
             828         7.71015
             829         6.57490
             830         8.80050
             831         9.69724
             832         6.20184
             833         9.50515
             834         5.01497
             835         10.5972
             836         10.5097
             837         7.33215
             838         8.99947
             839         5.23583
             840         7.12589
             841         4.54454
             842         6.80229
             843         3.81401
             844         7.71563
             845         9.70800
             846         9.11948
             847         10.7986
             848         9.72184
             849         4.29625
             850         10.9192
             851         10.3252
             852         8.03757
             853         4.68643
             854         6.67762
             855         9.22695
             856         3.75722
             857         10.2586
             858         8.08265
             859         10.6868
             860         10.0089
             861         10.3184
             862         9.35600
             863         5.44274
             864         8.22246
             865         6.97025
             866         10.1869
             867         6.24500
             868         8.73024
             869         7.82398
             870         7.02131
             871         9.70909
             872         12.1229
             873         11.8698
             874         9.39141
             875         11.3185
             876         11.6295
             877         5.15463
             878         5.71264
             879         9.46094
             880         8.49508
             881         11.7299
             882         12.4489
             883         11.0595
             884         11.9935
             885         2.10510
             886         1.01523
             887         1.74938
             888     962.207E-03
             889     370.701E-03
             890         3.01506
             891         6.08896
             892         8.89560
             893         8.48283
             894         7.60283
             895         8.41749
             896         8.31807
             897         5.88263
             898         3.97613
             899         1.07562
             900         16.1193
             901         19.2253
             902         17.5981
             903         16.1970
             904         11.7537
             905         6.72657
             906         1.51972
             907         5.87070
             908         10.3918
             909     842.051E-03
             910     731.125E-03
             911     954.699E-03
             912         1.93526
             913         4.06997
             914         5.05332
             915         7.04487
             916         7.93545
             917         8.53879
             918         8.97601
             919         8.84069
             920         8.07862
             921         7.73616
             922         7.77105
             923         8.15532
             924         8.27039
             925         8.24164
             926         7.84255
             927         6.93773
             928         4.89624
             929         2.89470
             930         1.88185
             931     759.344E-03
             932         1.30506
             933         1.28907
             934         9.46292
             935         1.48569
             936         9.83936
             937         9.66967
             938         2.95898
             939         6.45307
             940         5.23502
             941     910.731E-03
             942         9.27138
             943         9.69565
             944     769.960E-03
             945         8.59804
             946         9.03904
             947         9.59033
             948         8.55894
             949         8.51252
             950         10.1736
             951         1.56128
             952         9.87168
             953         9.14832
             954         7.31727
             955         4.32125
             956         6.07525
             957     941.459E-03
             958         5.17463
             959         1.20888
             960         8.74243
             961         4.35073
             962     834.092E-03
             963         1.61735
             964         7.32632
             965         2.65722
             966         9.66259
             967         1.62169
             968         1.09385
             969         8.42033
             970         10.6712
             971         10.8835
             972         11.2884
             973         4.43819
             974         12.0290
             975         10.9183
             976         7.00954
             977         1.19008
             978         2.68838
             979         9.15594
             980         1.57598
             981         12.2788
             982         11.3997
             983         1.76852
             984         1.49338
             985         2.76152
             986         11.9944
             987         6.61159
             988         11.4366
             989         5.78406
             990         3.73554
             991         8.99984
             992         3.89465
             993         4.01640
             994         4.25987
             995         4.11958
             996         3.51222
             997         2.06649
             998     685.530E-03
             999         2.78853
            1000         2.91819
            1001         3.55730
            1002         2.56656
            1003         7.75382
            1004         9.54335
            1005         9.97183
            1006         9.88933
            1007         1.28531
            1008     795.797E-03
            1009     921.874E-03
            1010     729.049E-03
            1011         2.34522
            1012         5.05754
            1013         1.03131
            1014     961.200E-03
            1015     755.734E-03
            1016     948.006E-03
            1017         1.69916
            1018         2.14064
            1019         2.98728
            1020         3.38693
            1021         3.98251
            1022         4.05187
            1023         3.87713
            1024         3.96800
            1025         4.05566
            1026         4.14987
            1027         4.32417
            1028         4.30312
            1029         3.81885
            1030         3.10243
            1031         2.55165
            1032         1.62667
            1033         1.14260
            1034     406.996E-03
            1035     523.855E-03
            1036     677.251E-03
            1037     689.783E-03
            1038         1.25398
            1039         4.62795
            1040     689.989E-03
            1041         1.06766
            1042         4.13094
            1043         2.14908
            1044         4.68663
            1045         4.84805
            1046         1.79968
            1047         3.28366
            1048         4.74464
            1049         3.89807
            1050         4.84423
            1051         1.11227
            1052         4.87754
            1053         5.02016
            1054         4.39376
            1055         4.77353
            1056         2.57970
            1057     727.362E-03
            1058         1.12881
            1059         3.13246
            1060         1.07230
            1061         1.76150
            1062         4.63182
            1063         3.67451
            1064         2.34110
            1065     907.796E-03
            1066         4.11301
            1067         1.30447
            1068         1.35833
            1069         2.71911
            1070         1.33889
            1071         4.86930
            1072         5.06678
            1073         5.97827
            1074         5.85701
            1075         2.98079
            1076         1.12136
            1077         6.18736
            1078         4.50061
            1079         1.46913
            1080         3.54110
            1081         2.29866
            1082         5.21588
            1083         1.57240
            1084         1.67042
            1085         6.21834
            1086         1.86346
            1087         2.35880
            1088         1.68960
            1089         6.03399
            1090         6.32630
            1091         6.02735
            1092         5.07694
            1093         13.4076
            1094     22.1382E-03
            1095     71.9454E-03
            1096     325.528E-03
            1097     477.105E-03
            1098         1.41927
            1099     690.657E-03
            1100         1.15601
            1101     47.2523E-03
            1102     250.330E-03
            1103     38.0067E-03
            1104     443.470E-03
            1105         1.83592
            1106         5.76389
            1107         4.26221
            1108         3.41025
            1109         2.99881
            1110         2.80616
            1111         2.71548
            1112         2.67192
            1113         2.65580
            1114         2.65356
            1115         2.65709
            1116         2.66233
            1117         2.66506
            1118         2.66424
            1119         2.65783
            1120         2.64494
            1121         2.62411
            1122         2.59056
            1123         2.54794
            1124         2.49091
            1125         2.43103
            1126         2.36049
            1127         2.26939
            1128         2.16494
            1129         2.07222
            1130         2.06027
            1131         2.12398
            1132         2.53467
            1133         3.46663
            1134         5.96794
            1135         10.6348
            1136         10.9709
            1137         7.45912
            1138         6.00694
            1139         5.43991
            1140         5.30063
            1141         5.28997
            1142         5.40841
            1143         5.65729
            1144         6.04138
            1145         7.03543
            1146         8.80108
            1147         11.4372
            1148         10.6735
            1149         3.69741
            1150     548.669E-03
            1151         1.55506
            1152         1.25800
            1153     867.939E-03
            1154         3.62523
            1155         8.47439
            1156         9.48878
            1157         8.32900
            1158         6.74954
            1159         5.89909
            1160         5.50702
            1161         5.33325
            1162         5.21115
            1163         5.25300
            1164         5.43549
            1165         5.99895
            1166         7.30931
            1167         10.1365
            1168         12.1297
            1169         10.1261
            1170         5.77986
            1171         3.35655
            1172         2.61442
            1173         2.23327
            1174         2.16364
            1175         2.17292
            1176         2.24359
            1177         2.32351
            1178         2.40307
            1179         2.46692
            1180         2.51981
            1181         2.55832
            1182         2.58438
            1183         2.60316
            1184         2.61044
            1185         2.61165
            1186         2.60783
            1187         2.59857
            1188         2.58491
            1189         2.56996
            1190         2.55218
            1191         2.55451
            1192         2.55710
            1193         2.57772
            1194         2.65264
            1195         2.84176
            1196         3.13760
            1197         3.91538
            1198         5.13762
            1199         4.13565
            1200         1.77158
            1201     735.291E-03
            1202         10.0229
            1203         4.52004
            1204         3.29008
            1205         2.92792
            1206         2.70009
            1207         2.63074
            1208         2.60230
            1209         2.59719
            1210         2.60075
            1211         2.60745
            1212         2.61415
            1213         2.62032
            1214         2.62229
            1215         2.61724
            1216         2.60615
            1217         2.58662
            1218         2.55590
            1219         2.51576
            1220         2.45982
            1221         2.38853
            1222         2.30616
            1223         2.20107
            1224         2.09953
            1225         1.99579
            1226         1.92990
            1227         1.93552
            1228         2.17351
            1229         3.05908
            1230         5.85669
            1231         11.4672
            1232         6.67907
            1233         5.41236
            1234         5.09721
            1235         5.03543
            1236         5.08990
            1237         5.22365
            1238         5.41869
            1239         5.84672
            1240         6.64904
            1241         8.53985
            1242         18.0969
            1243         1.44895
            1244         10.0625
            1245         4.66481
            1246         3.38975
            1247         2.96239
            1248         2.75231
            1249         2.67903
            1250         2.64416
            1251         2.63214
            1252         2.62936
            1253         2.63537
            1254         2.64236
            1255         2.64286
            1256         2.64127
            1257         2.63397
            1258         2.61845
            1259         2.59621
            1260         2.55719
            1261         2.51335
            1262         2.44658
            1263         2.37546
            1264         2.28805
            1265         2.18463
            1266         2.08301
            1267         1.97963
            1268         1.89728
            1269         1.90653
            1270         2.12902
            1271         2.95552
            1272         6.00890
            1273         1.49819
            1274         17.9805
            1275         8.84021
            1276         6.68956
            1277         5.86347
            1278         5.47713
            1279         5.25942
            1280         5.11481
            1281         5.05003
            1282         5.06950
            1283         5.35947
            1284         6.38138
            1285         11.9524
            1286     34.1927E-03
            1287     145.044E-03
            1288     396.339E-03
            1289     720.735E-03
            1290         1.17454
            1291         1.75543
            1292         2.40217
            1293         3.08548
            1294         3.75781
            1295         4.43512
            1296         5.11365
            1297         5.81580
            1298         6.34309
            1299         6.96564
            1300         7.45637
            1301         7.76085
            1302         7.92395
            1303         7.93795
            1304         7.80894
            1305         7.60804
            1306         7.32748
            1307         6.99391
            1308         6.66413
            1309         6.33015
            1310         5.94834
            1311         5.64167
            1312         5.29957
            1313         5.00212
            1314         4.71570
            1315         4.40001
            1316         4.07406
            1317         3.76670
            1318         3.47611
            1319         3.20845
            1320         2.94130
            1321         2.64465
            1322         2.37741
            1323         2.12143
            1324         1.79364
            1325         1.53852
            1326         1.29088
            1327         1.04863
            1328     808.620E-03
            1329     579.797E-03
            1330     369.226E-03
            1331     208.964E-03
            1332     100.224E-03
            1333     26.1576E-03
            1334     155.299E-03
            1335     442.639E-03
            1336     829.787E-03
            1337         1.26039
            1338         1.75649
            1339         2.34432
            1340         2.94014
            1341         3.46740
            1342         3.96505
            1343         4.48048
            1344         5.02081
            1345         5.44223
            1346         5.83615
            1347         6.21244
            1348         6.48147
            1349         6.69933
            1350         6.80635
            1351         6.83074
            1352         6.74988
            1353         6.57304
            1354         6.33641
            1355         6.10845
            1356         5.85758
            1357         5.56140
            1358         5.36067
            1359         5.06240
            1360         4.76684
            1361         4.50912
            1362         4.26754
            1363         4.02416
            1364         3.75246
            1365         3.48428
            1366         3.24960
            1367         3.02766
            1368         2.79540
            1369         2.54384
            1370         2.33913
            1371         2.13390
            1372         1.89705
            1373         1.67631
            1374         1.46620
            1375         1.27023
            1376         1.06716
            1377     829.899E-03
            1378     594.832E-03
            1379     408.538E-03
            1380     245.408E-03
            1381     109.529E-03
            1382     25.6913E-03
            1383     830.416E-03
            1384         1.28920
            1385         1.78748
            1386         2.40155
            1387         2.94868
            1388         3.42316
            1389         3.92007
            1390         4.32759
            1391         4.74580
            1392         5.06963
            1393         5.36299
            1394         5.61478
            1395         5.80329
            1396         5.96817
            1397         6.03668
            1398         6.05752
            1399         6.04427
            1400         5.91985
            1401         5.81631
            1402         5.59670
            1403         5.31518
            1404         5.16672
            1405         4.96487
            1406         4.75038
            1407         4.52533
            1408         4.32968
            1409         4.10328
            1410         3.89227
            1411         3.67335
            1412         3.48088
            1413         3.29744
            1414         3.09574
            1415         2.91356
            1416         2.71478
            1417         2.53367
            1418         2.36632
            1419         2.19823
            1420         2.04246
            1421         1.84034
            1422         1.67518
            1423         1.50340
            1424         1.29880
            1425         1.06072
            1426     825.613E-03
            1427     610.332E-03
            1428     403.602E-03
            1429     244.021E-03
            1430     792.897E-03
            1431         1.40858
            1432         2.08615
            1433         2.82600
            1434         3.52993
            1435         4.12888
            1436         4.55621
            1437         4.90201
            1438         5.14156
            1439         5.35433
            1440         5.48857
            1441         5.62425
            1442         5.69971
            1443         5.74554
            1444         5.67071
            1445         5.51501
            1446         5.26822
            1447         5.01368
            1448         4.77441
            1449         4.51298
            1450         4.29419
            1451         4.08734
            1452         3.99124
            1453         3.90158
            1454         3.73174
            1455         3.61112
            1456         3.53255
            1457         3.40590
            1458         3.31340
            1459         3.19602
            1460         3.10335
            1461         2.99301
            1462         2.88460
            1463         2.78364
            1464         2.68909
            1465         2.59669
            1466         2.50747
            1467         2.41758
            1468         2.33845
            1469         2.23461
            1470         2.11996
            1471         2.02077
            1472         1.82214
            1473         1.60030
            1474         1.38325
            1475         1.06140
            1476     746.352E-03
            1477     453.281E-03
            1478     198.290E-03
            1479     133.850E-03
            1480     334.893E-03
            1481     568.891E-03
            1482     833.260E-03
            1483         1.08483
            1484         1.33756
            1485         1.57190
            1486         1.74742
            1487         1.89576
            1488         2.02668
            1489         2.19348
            1490         2.31034
            1491         2.43661
            1492         2.55543
            1493         2.70927
            1494         2.83818
            1495         2.97016
            1496         3.12349
            1497         3.26500
            1498         3.44537
            1499         3.56964
            1500         3.75186
            1501         3.88427
            1502         3.99471
            1503         4.19380
            1504         4.36702
            1505         4.52892
            1506         4.68544
            1507         4.89533
            1508         5.05114
            1509         5.20986
            1510         5.43377
            1511         5.54683
            1512         5.64107
            1513         5.69652
            1514         5.66403
            1515         5.58409
            1516         5.45546
            1517         5.25718
            1518         4.98355
            1519         4.73464
            1520         4.44496
            1521         3.99880
            1522         3.53752
            1523         2.88706
            1524         2.31689
            1525         1.67942
            1526         1.08716
            1527     547.583E-03
            1528         1.03910
            1529         1.88225
            1530         2.74259
            1531         3.64580
            1532         4.33394
            1533         4.75592
            1534         5.11884
            1535         5.27836
            1536         5.44417
            1537         5.58365
            1538         5.69974
            1539         5.79566
            1540         5.93616
            1541         5.95866
            1542         5.92665
            1543         5.70152
            1544         5.33200
            1545         4.82463
            1546         4.36797
            1547         4.03559
            1548         3.73934
            1549         3.59537
            1550         3.45705
            1551         3.41124
            1552         3.33377
            1553         3.25720
            1554         3.21511
            1555         3.16560
            1556         3.09352
            1557         3.00738
            1558         2.95028
            1559         2.88739
            1560         2.83166
            1561         2.75389
            1562         2.69269
            1563         2.63163
            1564         2.57780
            1565         2.51630
            1566         2.45093
            1567         2.40576
            1568         2.31895
            1569         2.26842
            1570         2.13674
            1571         1.98221
            1572         1.79249
            1573         1.42518
            1574         1.02490
            1575     647.643E-03
            1576     265.735E-03
            1577         1.22888
            1578         2.41201
            1579         3.56203
            1580         4.50559
            1581         5.27662
            1582         5.48731
            1583         5.65141
            1584         5.67093
            1585         5.66826
            1586         5.72130
            1587         5.81900
            1588         5.98969
            1589         6.19049
            1590         6.37122
            1591         6.48979
            1592         6.27856
            1593         5.69348
            1594         4.85825
            1595         4.15147
            1596         3.67131
            1597         3.27869
            1598         3.09338
            1599         2.99127
            1600         2.95614
            1601         2.95001
            1602         2.93378
            1603         2.93747
            1604         2.91444
            1605         2.88983
            1606         2.87519
            1607         2.84096
            1608         2.81008
            1609         2.77011
            1610         2.73702
            1611         2.69807
            1612         2.66226
            1613         2.63180
            1614         2.60399
            1615         2.56592
            1616         2.54023
            1617         2.52459
            1618         2.49130
            1619         2.43881
            1620         2.38001
            1621         2.21802
            1622         1.86602
            1623         1.41509
            1624     896.059E-03
            1625     352.492E-03
            1626         1.55375
            1627         3.98631
            1628         6.93013
            1629         8.28198
            1630         7.68427
            1631         6.72813
            1632         6.16659
            1633         5.84803
            1634         5.59292
            1635         5.54956
            1636         5.56960
            1637         5.84502
            1638         6.48027
            1639         7.43602
            1640         8.90786
            1641         9.70676
            1642         8.11243
            1643         5.53339
            1644         3.89816
            1645         3.01028
            1646         2.48184
            1647         2.33926
            1648         2.32749
            1649         2.35825
            1650         2.42406
            1651         2.48774
            1652         2.54478
            1653         2.60073
            1654         2.63041
            1655         2.65439
            1656         2.67648
            1657         2.68623
            1658         2.68846
            1659         2.68814
            1660         2.68223
            1661         2.67437
            1662         2.66654
            1663         2.66082
            1664         2.66075
            1665         2.67612
            1666         2.71669
            1667         2.79497
            1668         2.92131
            1669         3.17383
            1670         3.57628
            1671         3.66556
            1672         2.87543
            1673         1.57461
            1674     499.455E-03
            1675         1.29275
            1676         1.94624
            1677         2.52789
            1678         2.77437
            1679         2.78869
            1680         2.71294
            1681         2.67543
            1682         2.64743
            1683         2.63146
            1684         2.63682
            1685         2.64539
            1686         2.65713
            1687         2.67488
            1688         2.69340
            1689         2.71309
            1690         2.72337
            1691         2.74527
            1692         2.75982
            1693         2.74432
            1694         2.74023
            1695         2.72216
            1696         2.71197
            1697         2.68917
            1698         2.65930
            1699         2.63300
            1700         2.62928
            1701         2.70028
            1702         2.89445
            1703         3.28821
            1704         4.11937
            1705         5.12018
            1706         6.45734
            1707         7.42486
            1708         7.51858
            1709         6.95121
            1710         6.43209
            1711         6.02728
            1712         5.78871
            1713         5.69630
            1714         5.71572
            1715         5.84064
            1716         6.00487
            1717         6.23921
            1718         6.25442
            1719         5.98199
            1720         4.79398
            1721         3.09229
            1722         3.25525
            1723         5.64715
            1724         7.03632
            1725         6.83921
            1726         6.42845
            1727         5.89020
            1728         5.59397
            1729         5.43979
            1730         5.39542
            1731         5.47914
            1732         5.76986
            1733         6.30272
            1734         7.34735
            1735         8.47188
            1736         8.91857
            1737         7.48595
            1738         5.50847
            1739         3.95733
            1740         3.07364
            1741         2.65195
            1742         2.49369
            1743         2.44638
            1744         2.49467
            1745         2.52807
            1746         2.56644
            1747         2.60829
            1748         2.63300
            1749         2.64501
            1750         2.64894
            1751         2.64466
            1752         2.63317
            1753         2.61867
            1754         2.59725
            1755         2.57293
            1756         2.55272
            1757         2.53312
            1758         2.50864
            1759         2.49795
            1760         2.49545
            1761         2.50294
            1762         2.56059
            1763         2.65970
            1764         2.84173
            1765         3.05106
            1766         2.99397
            1767         2.63851
            1768         1.55937
            1769     756.103E-03
            1770         1.84306
            1771         2.88410
            1772         3.97577
            1773         4.55396
            1774         4.94442
            1775         5.08324
            1776         5.26880
            1777         5.33785
            1778         5.44619
            1779         5.56755
            1780         5.77045
            1781         5.97126
            1782         6.18162
            1783         6.24763
            1784         6.06970
            1785         5.54909
            1786         4.94355
            1787         4.30338
            1788         3.84516
            1789         3.63372
            1790         3.42122
            1791         3.31050
            1792         3.21134
            1793         3.18019
            1794         3.12815
            1795         3.06956
            1796         2.99482
            1797         2.93875
            1798         2.87668
            1799         2.81719
            1800         2.74872
            1801         2.66978
            1802         2.60273
            1803         2.53506
            1804         2.47542
            1805         2.42563
            1806         2.36058
            1807         2.32196
            1808         2.27859
            1809         2.23989
            1810         2.17332
            1811         2.14988
            1812         1.98818
            1813         1.82107
            1814         1.57379
            1815         1.11433
            1816     691.382E-03
            1817     265.918E-03
            1818     492.579E-03
            1819         1.04361
            1820         1.61173
            1821         2.13803
            1822         2.36530
            1823         2.44353
            1824         2.43088
            1825         2.40457
            1826         2.38546
            1827         2.39836
            1828         2.42220
            1829         2.44874
            1830         2.48262
            1831         2.51524
            1832         2.55316
            1833         2.59868
            1834         2.63868
            1835         2.67550
            1836         2.71534
            1837         2.75212
            1838         2.77501
            1839         2.78597
            1840         2.81535
            1841         2.79882
            1842         2.81616
            1843         2.81891
            1844         2.85769
            1845         2.89309
            1846         3.09662
            1847         3.43598
            1848         4.19729
            1849         5.14399
            1850         6.22482
            1851         6.89842
            1852         7.08481
            1853         6.76491
            1854         6.23328
            1855         5.84604
            1856         5.59520
            1857         5.49084
            1858         5.45957
            1859         5.49415
            1860         5.59689
            1861         5.67115
            1862         5.70137
            1863         5.18671
            1864         4.01394
            1865         2.52835
            1866         1.00131
            1867     570.368E-03
            1868         1.27759
            1869         2.08872
            1870         2.91080
            1871         3.75134
            1872         4.15322
            1873         4.56652
            1874         4.90935
            1875         5.06940
            1876         5.25913
            1877         5.44492
            1878         5.60349
            1879         5.74232
            1880         5.83800
            1881         5.82330
            1882         5.65428
            1883         5.40433
            1884         5.05397
            1885         4.72872
            1886         4.36466
            1887         4.17651
            1888         3.91506
            1889         3.82706
            1890         3.65132
            1891         3.57546
            1892         3.50702
            1893         3.38882
            1894         3.23215
            1895         3.16248
            1896         3.04884
            1897         2.93876
            1898         2.83038
            1899         2.72503
            1900         2.63108
            1901         2.53701
            1902         2.44467
            1903         2.35321
            1904         2.27922
            1905         2.19755
            1906         2.13444
            1907         2.04194
            1908         1.94803
            1909         1.80855
            1910         1.65447
            1911         1.39277
            1912         1.11586
            1913     734.683E-03
            1914     413.213E-03
            1915     127.344E-03
            1916     410.476E-03
            1917     962.069E-03
            1918         1.60787
            1919         2.31383
            1920         2.94443
            1921         3.59064
            1922         4.02962
            1923         4.40292
            1924         4.70765
            1925         4.96703
            1926         5.26094
            1927         5.45382
            1928         5.61043
            1929         5.73025
            1930         5.76835
            1931         5.71346
            1932         5.54496
            1933         5.42591
            1934         5.12630
            1935         4.95643
            1936         4.75425
            1937         4.56592
            1938         4.37813
            1939         4.15061
            1940         4.06991
            1941         3.83624
            1942         3.72768
            1943         3.56873
            1944         3.41847
            1945         3.27764
            1946         3.11846
            1947         2.94962
            1948         2.81375
            1949         2.68320
            1950         2.55067
            1951         2.41252
            1952         2.29152
            1953         2.18161
            1954         2.05940
            1955         1.92532
            1956         1.81951
            1957         1.70570
            1958         1.51979
            1959         1.34063
            1960         1.07470
            1961     814.634E-03
            1962     534.986E-03
            1963     285.507E-03
            1964     81.4325E-03
            1965     116.238E-03
            1966     363.523E-03
            1967     750.761E-03
            1968         1.20419
            1969         1.70267
            1970         2.30490
            1971         2.92628
            1972         3.46235
            1973         3.96307
            1974         4.47226
            1975         4.99935
            1976         5.53186
            1977         5.92988
            1978         6.24532
            1979         6.58387
            1980         6.78941
            1981         6.86764
            1982         6.86786
            1983         6.74617
            1984         6.51141
            1985         6.25045
            1986         5.99656
            1987         5.75960
            1988         5.39715
            1989         5.14240
            1990         4.80883
            1991         4.59787
            1992         4.32407
            1993         4.08197
            1994         3.84910
            1995         3.57799
            1996         3.31644
            1997         3.09659
            1998         2.88866
            1999         2.67288
            2000         2.44719
            2001         2.21377
            2002         2.02053
            2003         1.83489
            2004         1.61295
            2005         1.41085
            2006         1.22296
            2007         1.02520
            2008     797.430E-03
            2009     571.377E-03
            2010     382.290E-03
            2011     225.425E-03
            2012     97.4669E-03
            2013     18.8679E-03
            2014     208.969E-03
            2015     380.077E-03
            2016     577.328E-03
            2017     833.520E-03
            2018         1.05600
            2019         1.24400
            2020         1.44280
            2021         1.60622
            2022         1.78203
            2023         1.92494
            2024         2.07956
            2025         2.23460
            2026         2.39125
            2027         2.59786
            2028         2.76497
            2029         2.93239
            2030         3.12251
            2031         3.34086
            2032         3.54628
            2033         3.72842
            2034         3.91275
            2035         4.13341
            2036         4.33817
            2037         4.59804
            2038         4.79412
            2039         5.02741
            2040         5.22776
            2041         5.44565
            2042         5.66448
            2043         5.91377
            2044         6.07186
            2045         6.08406
            2046         6.04826
            2047         6.02660
            2048         5.87576
            2049         5.66032
            2050         5.39561
            2051         5.10256
            2052         4.68435
            2053         4.32016
            2054         3.92327
            2055         3.43639
            2056         2.83584
            2057         2.25931
            2058         1.73294
            2059         1.17176
            2060     727.889E-03
            2061     123.328E-03
            2062     350.829E-03
            2063     672.260E-03
            2064         1.13125
            2065         1.72070
            2066         2.37535
            2067         3.06566
            2068         3.74572
            2069         4.42666
            2070         5.07637
            2071         5.91848
            2072         6.56093
            2073         7.11870
            2074         7.55781
            2075         7.86837
            2076         8.04641
            2077         8.03475
            2078         7.84467
            2079         7.57661
            2080         7.23641
            2081         6.85013
            2082         6.45828
            2083         6.11708
            2084         5.78198
            2085         5.40625
            2086         5.10589
            2087         4.79965
            2088         4.51686
            2089         4.20953
            2090         3.89299
            2091         3.60378
            2092         3.33568
            2093         3.08370
            2094         2.83507
            2095         2.57558
            2096         2.26370
            2097         2.02999
            2098         1.76857
            2099         1.50678
            2100         1.26477
            2101         1.02709
            2102     787.153E-03
            2103     553.681E-03
            2104     353.992E-03
            2105     199.508E-03
            2106     92.7459E-03
            2107     20.5249E-03
            2108     20.9425E-03
            2109         15.8373
            2110     14.0408E-03
            2111     48.8395E-03
            2112     38.2899E-03
            2113     527.768E-03
            2114     855.668E-03
            2115     331.624E-03
            2116         1.15972
            2117     756.229E-03
            2118     21.0488E-03
            2119     13.9591E-03
            2120     23.4496E-03
            2121     188.306E-03
            2122     481.825E-03
            2123     726.728E-03
            2124     801.710E-03
            2125     788.616E-03
            2126     680.035E-03
            2127         1.17544
            2128     47.7799E-03
            2129     42.1403E-03
            2130     70.7541E-03
            2131     239.024E-03
            2132     304.649E-03
            2133     17.3499E-03
            2134     10.7260E-03
            2135     20.5650E-03
            2136     141.034E-03
            2137     362.621E-03
            2138         1.00548
            2139     815.329E-03
            2140     67.5168E-03
            2141     45.5339E-03
            2142     97.7880E-03
            2143     239.372E-03
            2144     179.391E-03
            2145     483.344E-03
            2146     348.509E-03
            2147     127.544E-03
            2148     55.0149E-03
            2149     112.994E-03
            2150     277.338E-03
            2151     378.062E-03
            2152     554.385E-03
            2153     714.768E-03
            2154     785.471E-03
            2155     730.659E-03
            2156     636.954E-03
            2157     501.870E-03
            2158     492.921E-03
            2159     878.447E-03
            2160         1.30965
            2161         1.26959
            2162         1.10554
            2163     959.455E-03
            2164     555.590E-03
            2165     408.774E-03
            2166     315.000E-03
            2167     399.975E-03
            2168     288.420E-03
            2169     121.057E-03
            2170     31.6690E-03
            2171     20.1093E-03
            2172     17.9572E-03
            2173     20.6738E-03
            2174     12.8144E-03
            2175     10.5532E-03
            2176     13.7439E-03
            2177     16.6924E-03
            2178     33.0158E-03
            2179     87.9445E-03
            2180     234.656E-03
            2181     696.927E-03
            2182     948.890E-03
            2183     980.011E-03
            2184         1.01171
            2185     998.172E-03
            2186     585.726E-03
            2187     508.473E-03
            2188     430.647E-03
            2189     336.924E-03
            2190     167.144E-03
            2191     133.613E-03
            2192     115.908E-03
            2193     140.649E-03
            2194     88.1200E-03
            2195     26.9874E-03
            2196     12.3283E-03
            2197     18.2550E-03
            2198         2.35718
            2199         2.64705
            2200         2.79768
            2201         3.09745
            2202         3.24196
            2203         3.52920
            2204         3.82470
            2205         3.96954
            2206         4.26404
            2207         4.64937
            2208         4.38817
            2209     47.2429E-03
            2210     10.8720E-03
            2211     85.0763E-03
            2212         2.78855
            2213         3.57087
            2214         3.96988
            2215         5.16237
            2216         4.37254
            2217         8.57804
            2218         8.42944
            2219         8.29665
            2220         8.60553
            2221         7.54425
            2222         7.91030
            2223         8.47058
            2224         8.70191
            2225     23.1105E-03
            2226     17.3478E-03
            2227     22.7588E-03
            2228     139.282E-03
            2229     257.348E-03
            2230     379.202E-03
            2231     589.583E-03
            2232     784.629E-03
            2233     912.721E-03
            2234         1.18242
            2235         1.89662
            2236         2.05653
            2237         4.58360
            2238         4.70201
            2239         5.01387
            2240         5.17269
            2241         5.49814
            2242         5.84745
            2243         6.37674
            2244         6.78076
            2245         6.97377
            2246         7.35301
            2247         8.26759
            2248         8.20268
            2249         8.38925
            2250         7.89633
            2251         7.30035
            2252         6.96858
            2253         6.32226
            2254         5.56143
            2255         3.97587
            2256         3.19431
            2257         2.44376
            2258         2.11965
            2259         1.47343
            2260     910.555E-03
            2261     376.160E-03
            2262     245.146E-03
            2263     61.5979E-03
            2264     38.0946E-03
            2265     45.7080E-03
            2266         1.81649
            2267         2.41345
            2268     210.208E-03
            2269     41.4706E-03
            2270     15.5689E-03
            2271     112.416E-03
            2272     496.926E-03
            2273     864.083E-03
            2274         1.20179
            2275         4.77589
            2276         5.57757
            2277         6.01471
            2278         6.82502
            2279         7.50753
            2280         7.81156
            2281         8.29025
            2282         8.75522
            2283         8.78103
            2284         8.54620
            2285         8.25759
            2286         7.62501
            2287         7.40896
            2288         6.97345
            2289         6.56403
            2290         6.37021
            2291         5.97292
            2292         5.61226
            2293         5.44395
            2294         5.11196
            2295         4.95462
            2296         4.18558
            2297         3.88987
            2298         3.67050
            2299         3.53206
            2300         3.25994
            2301         2.56570
            2302         2.41626
            2303         2.14440
            2304         1.86525
            2305         1.72237
            2306         1.44331
            2307         1.30626
            2308         1.03666
            2309     776.673E-03
            2310     662.657E-03
            2311     442.605E-03
            2312     285.620E-03
            2313     202.483E-03
            2314     20.8118E-03
            2315     18.3356E-03
            2316         3.12608
            2317     735.212E-03
            2318         6.02697
            2319         1.60281
            2320         1.32048
            2321     49.7029E-03
            2322         2.85457
            2323         8.04028
            2324     21.6304E-03
            2325     12.3315E-03
            2326     87.5961E-03
            2327     201.027E-03
            2328     448.935E-03
            2329     668.579E-03
            2330         1.04601
            2331         1.46104
            2332         1.74614
            2333         2.21112
            2334         2.50155
            2335         2.95003
            2336         3.38570
            2337         3.67642
            2338         4.06221
            2339         4.37301
            2340         4.85614
            2341         5.33267
            2342         5.66866
            2343         6.20302
            2344         6.57269
            2345         7.16201
            2346         7.73192
            2347         8.08215
            2348         8.48108
            2349         8.65419
            2350         8.52666
            2351         8.11743
            2352         7.62637
            2353         6.65841
            2354         5.95835
            2355         4.76751
            2356         3.58132
            2357         2.81233
            2358         1.85525
            2359         1.24689
            2360     541.300E-03
            2361     139.915E-03
            2362     15.1455E-03
            2363     47.2375E-03
            2364     45.0013E-03
            2365     336.578E-03
            2366     688.551E-03
            2367         1.42889
            2368         2.08418
            2369         3.17573
            2370         4.37396
            2371         5.17324
            2372         6.44344
            2373         7.17755
            2374         8.07251
            2375         8.61107
            2376         8.75010
            2377         8.48106
            2378         8.22344
            2379         7.83630
            2380         7.19052
            2381         6.76436
            2382         6.17589
            2383         5.78175
            2384         5.27589
            2385         4.80207
            2386         4.50202
            2387         4.08371
            2388         3.80658
            2389         3.39542
            2390         2.99128
            2391         2.71453
            2392         2.27857
            2393         2.00706
            2394         1.58166
            2395         1.17012
            2396     904.741E-03
            2397     577.375E-03
            2398     371.984E-03
            2399     136.394E-03
            2400     21.0534E-03
            2401     17.2183E-03
            2402         9.56424
            2403         7.24215
            2404         12.7853
            2405         8.72278
            2406         14.9396
            2407         12.5914
            2408         10.7156
            2409         9.08765
            2410         13.5863
            2411         11.7550
            2412         16.3863
            2413         2.52117
            2414         2.56465
            2415         1.51062
            2416         1.60378
            2417         2.27431
            2418         12.0279
            2419         2.16493
            2420         5.09393
            2421         5.08026
            2422         11.2240
            2423         2.94228
            2424         14.3880
            2425         5.17104
            2426         14.0990
            2427         3.66271
            2428         8.84921
            2429         11.2916
            2430         4.88217
            2431         8.40338
            2432         2.97112
            2433         12.0971
            2434         10.8164
            2435     337.244E-03
            2436     424.564E-03
            2437     26.2861E-03
            2438     932.205E-03
            2439     39.0659E-03
            2440     600.272E-03
            2441         1.03626
            2442     254.590E-03
            2443     820.393E-03
            2444     378.837E-03
            2445     140.796E-03
            2446     13.5604E-03
            2447     868.379E-03
            2448     730.379E-03
            2449     74.9709E-03
            2450     14.1867E-03
            2451     121.632E-03
            2452         2.68027
            2453         8.11904
            2454         8.24382
            2455         3.40142
            2456         2.70487
            2457         7.88367
            2458     45.6782E-03
            2459         1.15093
            2460         2.52346
            2461         5.21432
            2462         5.53874
            2463         6.93186
            2464         8.01818
            2465         6.19123
            2466         5.54729
            2467     220.122E-03
            2468     38.7975E-03
            2469     185.360E-03
            2470         3.38668
            2471         6.34358
            2472         6.97121
            2473         6.75891
            2474         6.37722
            2475         5.01025
            2476         3.23910
            2477         2.16205
            2478         1.90869
            2479     40.0728E-03
            2480     13.6736E-03
            2481         3.37091
            2482         3.65167
            2483         8.15409
            2484         1.13036
            2485     886.427E-03
            2486         2.25632
            2487         12.3487
            2488         8.19518
            2489         6.15617
            2490         7.29446
            2491     882.107E-03
            2492         6.18803
            2493         12.4045
            2494         3.12959
            2495         4.20531
            2496     159.385E-03
            2497     222.961E-03
            2498     427.322E-03
            2499     643.880E-03
            2500     488.092E-03
            2501     815.241E-03
            2502         1.39506
            2503         1.22394
            2504         2.85412
            2505         7.69000
            2506         7.59740
            2507         2.87182
            2508     968.240E-03
            2509         3.53351
            2510         3.46591
            2511         3.47857
            2512         1.18475
            2513         3.14093
            2514         7.61021
            2515         3.27659
            2516         1.21699
            2517         7.51087
            2518         8.00008
            2519     186.377E-03
            2520         11.3238
            2521         3.59866
            2522         7.31180
            2523         6.40012
            2524         8.63221
            2525         8.76055
            2526         6.35349
            2527         6.51816
            2528     325.863E-03
            2529     383.403E-03
            2530         4.77197
            2531     85.5354E-03
            2532     93.7467E-03
            2533         4.95529
            2534         11.3024
            2535         12.3247
            2536     628.263E-03
            2537         1.37710
            2538     18.9218E-03
            2539     16.0018E-03
            2540         1.67617
            2541         1.18644
            2542     114.110E-03
            2543     81.7280E-03
            2544         4.86430
            2545         1.48223
            2546         6.22159
            2547         5.45489
            2548         5.99894
            2549         5.24878
            2550         11.3973
            2551         1.90527
            2552         2.47406
            2553         6.59309
            2554         5.39089
            2555         6.07925
            2556         5.91518
            2557         2.12325
            2558         2.24297
            2559         12.6175
            2560         10.6212
            2561         6.40656
            2562         3.50144
            2563     903.613E-03
            2564         4.42295
            2565         7.55084
            2566     242.871E-03
            2567         7.61243
            2568     251.360E-03
            2569         4.62008
            2570     801.114E-03
            2571     847.261E-03
            2572         4.71690
            2573         4.92121
            2574     128.468E-03
            2575     439.104E-03
            2576     484.321E-03
            2577         7.17230
            2578         7.29016
            2579     580.026E-03
            2580     84.0503E-03
            2581     345.095E-03
            2582     49.2291E-03
            2583     939.656E-03
            2584     380.606E-03
            2585         1.17220
            2586     281.922E-03
            2587         6.83214
            2588         7.83531
            2589         3.38043
            2590     996.912E-03
            2591         2.44111
            2592         4.25553
            2593         7.09617
            2594     324.529E-03
            2595         7.16318
            2596     341.105E-03
            2597         4.44524
            2598         1.03556
            2599         1.08342
            2600     733.953E-03
            2601         1.57011
            2602     148.656E-03
            2603     587.238E-03
            2604     107.497E-03
            2605     566.285E-03
            2606         1.71055
            2607     457.630E-03
            2608         4.52389
            2609     199.334E-03
            2610         4.71719
            2611     633.825E-03
            2612     689.574E-03
            2613         6.77038
            2614         6.88436
            2615         2.89085
            2616     178.259E-03
            2617     231.703E-03
            2618     625.587E-03
            2619     677.416E-03
            2620     743.317E-03
            2621     815.384E-03
            2622         1.81525
            2623         1.75997
            2624         7.38618
            2625         3.24871
            2626         3.26034
            2627         7.30107
            2628         1.11997
            2629         3.35047
            2630         3.82321
            2631         3.83085
            2632         1.32855
            2633         2.97398
            2634         7.24768
            2635         7.16196
            2636         3.10577
            2637         1.37110
            2638         14.8288
            2639         9.09469
            2640     163.228E-03
            2641         10.1072
            2642         3.75379
            2643         6.97505
            2644         6.03512
            2645         6.21946
            2646     204.602E-03
            2647     291.865E-03
            2648         4.83498
            2649     57.6314E-03
            2650     54.4342E-03
            2651         4.99079
            2652         9.62205
            2653     12.5710E-03
            2654         1.70041
            2655         1.64013
            2656     45.7678E-03
            2657         4.77030
            2658         5.72106
            2659         5.32789
            2660         3.93647
            2661         9.77221
            2662         6.18590
            2663         5.57329
            2664         2.01202
            2665         2.34684
            2666         1.10092
            2667         10.7740
            2668         9.91290
            2669         9.43047
            2670         10.3297
            2671         8.73298
            2672         4.94534
            2673         7.48386
            2674         4.12807
            2675         8.69850
            2676         8.35418
            2677         1.76106
            2678         6.24167
            2679         5.27986
            2680         1.91917
            2681         2.44291
            2682         5.84178
            2683         5.70661
            2684         2.10935
            2685         2.23888
            2686         1.07779
            2687         4.72338
            2688         3.91519
            2689         2.11161
            2690         8.21016
            2691         9.89671
            2692         3.20351
            2693         1.15635
            2694         6.70689
            2695         4.28716
            2696     293.840E-03
            2697     311.883E-03
            2698         6.79537
            2699         4.47603
            2700     948.984E-03
            2701         1.00297
            2702     988.909E-03
            2703         2.12658
            2704     143.682E-03
            2705     855.467E-03
            2706     113.951E-03
            2707     540.537E-03
            2708         2.27303
            2709     451.236E-03
            2710         4.53873
            2711     176.735E-03
            2712         4.72572
            2713     565.039E-03
            2714     629.678E-03
            2715         6.38974
            2716         6.51874
            2717         9.86759
            2718         2.08602
            2719     274.522E-03
            2720     329.710E-03
            2721     649.658E-03
            2722     938.845E-03
            2723     734.015E-03
            2724         1.08818
            2725         1.88359
            2726         1.85492
            2727         7.12794
            2728         3.08612
            2729         3.09852
            2730         7.06784
            2731         1.07380
            2732         3.41395
            2733         3.62040
            2734         4.08521
            2735         2.90315
            2736         3.03797
            2737         6.99324
            2738         7.29765
            2739         1.44596
            2740         1.31432
            2741         3.62585
            2742         4.09247
            2743         1.40655
            2744         1.26865
            2745         7.07405
            2746         3.02402
            2747         3.18097
            2748     261.327E-03
            2749         7.04639
            2750         6.86067
            2751         5.98507
            2752     473.974E-03
            2753     109.909E-03
            2754         4.79341
            2755         6.12712
            2756         6.27502
            2757     392.948E-03
            2758         4.62066
            2759         5.09853
            2760     118.834E-03
            2761         1.04649
            2762         2.86144
            2763         5.76580
            2764         5.63360
            2765         5.07205
            2766         5.62243
            2767         3.62085
            2768         4.69052
            2769         10.3208
            2770         9.55033
            2771         7.34284
            2772         4.40736
            2773         5.03871
            2774         6.48193
            2775         5.86314
            2776         1.77046
            2777         9.30603
            2778         3.01170
            2779         4.82952
            2780         5.38086
            2781         4.69255
            2782         4.38270
            2783         5.84841
            2784         4.57025
            2785     174.451E-03
            2786         5.73187
            2787     689.320E-03
            2788     193.224E-03
            2789     600.433E-03
            2790         3.00124
            2791         6.56174
            2792         2.24995
            2793         2.11547
            2794         5.57448
            2795         5.67688
            2796     338.629E-03
            2797         1.42221
            2798         6.56042
            2799         2.95107
            2800         3.81233
            2801         5.22780
            2802         5.98757
            2803         2.43244
            2804         1.94782
            2805         3.31213
            2806         1.18412
            2807         3.33609
            2808         6.61379
            2809         6.65608
            2810         3.33235
            2811     877.407E-03
            2812     986.584E-03
            2813     405.486E-03
            2814     449.597E-03
            2815         2.49690
            2816         1.38580
            2817         2.39453
            2818         1.27159
            2819         8.37565
            2820         6.62015
            2821         5.11734
            2822         1.82627
            2823         2.54609
            2824         5.75733
            2825         5.98294
            2826         2.19778
            2827         2.15018
            2828     659.096E-03
            2829     923.468E-03
            2830         3.71857
            2831         2.37071
            2832         7.48033
            2833         8.16763
            2834         12.6928
            2835     853.683E-03
            2836         1.60622
            2837         4.06489
            2838         6.60799
            2839         6.68264
            2840     442.214E-03
            2841         4.24795
            2842         1.30263
            2843         1.35475
            2844         1.07062
            2845     810.650E-03
            2846     236.067E-03
            2847     70.6002E-03
            2848         2.38278
            2849         2.05241
            2850     697.796E-03
            2851     246.221E-03
            2852         2.44129
            2853         1.55994
            2854     903.209E-03
            2855     716.899E-03
            2856     310.675E-03
            2857     814.364E-03
            2858     192.945E-03
            2859     52.1676E-03
            2860         4.49364
            2861     921.843E-03
            2862         6.33188
            2863         4.30268
            2864     283.043E-03
            2865     859.757E-03
            2866         6.42936
            2867         2.21558
            2868     308.341E-03
            2869     876.335E-03
            2870     501.240E-03
            2871         1.49146
            2872     249.285E-03
            2873     472.007E-03
            2874         1.05268
            2875         1.35017
            2876         2.73649
            2877         7.33185
            2878         7.39651
            2879         2.75483
            2880     937.233E-03
            2881         3.57330
            2882         4.09896
            2883         4.15440
            2884         2.98407
            2885         2.81945
            2886         6.81568
            2887         7.77380
            2888         1.40462
            2889         1.52229
            2890         4.16039
            2891         1.46896
            2892         2.94733
            2893         6.61118
            2894         5.90045
            2895         4.83257
            2896         5.88599
            2897         6.60222
            2898         7.50760
            2899         6.03974
            2900         5.33069
            2901         2.85613
            2902         5.44120
            2903         5.33658
            2904         3.27147
            2905         4.08732
            2906         9.55184
            2907         4.10328
            2908         4.44976
            2909         5.80589
            2910         9.36878
            2911         8.59098
            2912         4.03371
            2913         4.15267
            2914         1.11366
            2915         3.25574
            2916     420.381E-03
            2917     149.034E-03
            2918     55.7741E-03
            2919     205.124E-03
            2920     265.488E-03
            2921         4.91476
            2922         5.70108
            2923     48.2924E-03
            2924         5.71516
            2925         8.55437
            2926         1.15349
            2927         5.91996
            2928         4.28669
            2929         1.93914
            2930     334.911E-03
            2931         1.42779
            2932     970.787E-03
            2933         3.07655
            2934         1.62867
            2935         1.56884
            2936     545.679E-03
            2937         6.25230
            2938         4.05939
            2939         3.88508
            2940         6.16183
            2941         3.76057
            2942         2.27799
            2943         4.79468
            2944         5.10039
            2945     437.821E-03
            2946         4.60942
            2947     147.341E-03
            2948         5.42281
            2949     621.984E-03
            2950         4.35953
            2951         5.51372
            2952     170.646E-03
            2953     532.603E-03
            2954         2.43186
            2955         6.27482
            2956     520.162E-03
            2957         2.34661
            2958         2.04443
            2959         5.37877
            2960         5.76386
            2961     971.283E-03
            2962         3.41021
            2963         2.67757
            2964         4.42796
            2965         1.23284
            2966         3.14934
            2967         3.16668
            2968         1.32999
            2969         3.68797
            2970         6.40086
            2971         6.44263
            2972         3.68796
            2973         1.15695
            2974         1.32364
            2975     404.615E-03
            2976     446.185E-03
            2977         3.28284
            2978         1.37468
            2979         3.00141
            2980         1.27256
            2981         8.94630
            2982         7.49987
            2983         6.19965
            2984         5.50268
            2985         2.03898
            2986         2.30431
            2987         1.15232
            2988     724.179E-03
            2989     139.305E-03
            2990     190.634E-03
            2991     442.687E-03
            2992     33.0368E-03
            2993         1.28375
            2994     952.513E-03
            2995     20.2608E-03
            2996         3.41572
            2997         1.80456
            2998         7.91471
            2999         7.21127
            3000         6.96075
            3001         4.24152
            3002         1.40339
            3003         4.05714
            3004         7.01408
            3005     459.692E-03
            3006         1.35447
            3007         1.30402
            3008         2.74774
            3009         4.38504
            3010         2.75183
            3011         6.92570
            3012         1.58646
            3013         4.39244
            3014         1.53811
            3015         2.86716
            3016         5.50572
            3017         5.60807
            3018         4.00085
            3019         3.73501
            3020         5.83307
            3021         1.57764
            3022     91.1794E-03
            3023     308.013E-03
            3024     380.349E-03
            3025     75.1358E-03
            3026         6.40011
            3027         5.42216
            3028         8.21215
            3029         7.29565
            3030         2.48012
            3031     404.857E-03
            3032     357.906E-03
            3033         1.00835
            3034         1.35597
            3035     292.021E-03
            3036         3.00445
            3037         2.82028
            3038         1.56842
            3039         4.13169
            3040         6.33215
            3041         4.70804
            3042     595.887E-03
            3043         6.08885
            3044         7.06464
            3045         3.82211
            3046         3.75769
            3047         2.49861
            3048         1.19328
            3049     311.880E-03
            3050         1.18546
            3051     418.156E-03
            3052         10.3290
            3053         5.58868
            3054         3.46427
            3055         2.50283
            3056         7.34328
            3057         3.68825
            3058     846.076E-03
            3059         7.16363
            3060         2.96916
            3061         5.09500
            3062         5.94848
            3063         3.81105
            3064         9.39151
            3065         3.00771
            3066         1.38554
            3067         8.28417
            3068     474.785E-03
            3069         7.26344
            3070         5.59260
            3071         1.63012
            3072         2.77360
            3073         4.68719
            3074         3.10041
            3075         6.62408
            3076         1.36634
            3077         3.81324
            3078     293.200E-03
            3079         1.20920
            3080         1.08286
            3081         3.37017
            3082         5.41025
            3083         5.78497
            3084         7.72081
            3085         7.68850
            3086         4.54149
            3087         2.43732
            3088         5.22116
            3089         1.98585
            3090         5.82318
            3091         2.67435
            3092         1.67189
            3093         6.97309
            3094         4.67389
            3095         8.46554
            3096         2.10659
            3097         1.51891
            3098         1.47062
            3099     510.196E-03
            3100         5.94843
            3101         4.07552
            3102         3.89256
            3103         5.83691
            3104         4.56122
            3105         5.04934
            3106         5.13449
            3107         5.07449
            3108         4.33432
            3109         5.32437
            3110         4.57634
            3111         4.13896
            3112         5.43555
            3113         5.55928
            3114     271.384E-03
            3115     810.085E-03
            3116         2.57222
            3117         2.45028
            3118         10.7934
            3119         6.19292
            3120         6.29904
            3121         2.27241
            3122         2.13645
            3123         5.50284
            3124         5.57368
            3125         3.22609
            3126         1.29638
            3127         3.57653
            3128         6.22642
            3129         6.25497
            3130         3.57969
            3131         1.10607
            3132         1.23638
            3133     546.689E-03
            3134     579.835E-03
            3135         3.13089
            3136         1.70176
            3137         2.90618
            3138         1.63295
            3139         7.47149
            3140         7.96796
            3141         6.94222
            3142     964.040E-03
            3143         6.22947
            3144         3.97929
            3145         2.75716
            3146         1.60960
            3147         4.26900
            3148         4.02069
            3149         6.43184
            3150         6.20558
            3151         3.46003
            3152         3.60502
            3153         5.15345
            3154         3.36754
            3155         3.35028
            3156         1.64326
            3157         4.11091
            3158         7.06114
            3159         3.26142
            3160         2.87891
            3161         1.53397
            3162         7.70089
            3163     427.615E-03
            3164         5.82194
            3165     244.559E-03
            3166     914.036E-03
            3167         6.56569
            3168         4.31131
            3169         1.03679
            3170         5.61620
            3171         3.89394
            3172     520.644E-03
            3173     879.126E-03
            3174         3.51791
            3175         5.97062
            3176         1.11137
            3177     376.780E-03
            3178         4.07740
            3179         7.72998
            3180         6.41757
            3181         5.48059
            3182         6.83943
            3183         5.21261
            3184         9.41149
            3185         6.55867
            3186         1.03152
            3187         1.64310
            3188         2.74764
            3189         4.62319
            3190         2.96432
            3191         6.39236
            3192         1.50538
            3193         4.13758
            3194         4.46347
            3195         5.61150
            3196         6.16189
            3197         2.50500
            3198         5.08240
            3199         1.90099
            3200         5.98949
            3201         2.30453
            3202         2.16598
            3203         5.47745
            3204         5.52639
            3205         2.72641
            3206         1.66366
            3207         7.36947
            3208         4.80368
            3209         2.68157
            3210         1.91463
            3211         1.84466
            3212     653.641E-03
            3213         5.87093
            3214         3.87889
            3215         3.71866
            3216         5.75012
            3217         4.76580
            3218         4.84153
            3219         4.12780
            3220         4.34075
            3221         5.23138
            3222         5.70979
            3223         2.19842
            3224         9.40195
            3225         6.06128
            3226         2.18793
            3227         2.19158
            3228         5.65354
            3229         5.48881
            3230         3.35136
            3231         1.16378
            3232         3.25953
            3233         6.44364
            3234     876.367E-03
            3235     543.697E-03
            3236         2.48515
            3237         1.68418
            3238         8.28422
            3239         7.36664
            3240         7.25284
            3241         6.35046
            3242         2.70690
            3243         1.70458
            3244         4.41574
            3245         6.13464
            3246         5.75675
            3247         3.09595
            3248         3.51660
            3249         2.85974
            3250         7.45013
            3251         4.86693
            3252         2.64901
            3253         1.73177
            3254         6.19775
            3255         3.76949
            3256     943.114E-03
            3257         3.45187
            3258     313.853E-03
            3259     933.418E-03
            3260         3.34734
            3261         3.28432
            3262         1.08780
            3263     301.403E-03
            3264         4.30214
            3265         4.74516
            3266         4.71383
            3267     631.229E-03
            3268         3.05941
            3269         1.35123
            3270         2.17845
            3271         5.52169
            3272         1.40421
            3273         4.08834
            3274         2.85321
            3275         5.07827
            3276         3.93535
            3277         4.11253
            3278         4.95785
            3279         5.95079
            3280         5.72036
            3281         2.03269
            3282         5.25042
            3283         2.45567
            3284         6.24125
            3285         1.47151
            3286         4.02147
            3287         3.03314
            3288         1.35432
            3289         4.30067
            3290     400.984E-03
            3291         1.50252
            3292     334.719E-03
            3293     979.416E-03
            3294         1.54369
            3295         3.72775
            3296         2.17309
            3297         5.91820
            3298         4.23607
            3299         3.45710
            3300     533.867E-03
            3301         2.81907
            3302         1.64827
            3303         2.00794
            3304         2.33552
            3305         6.05250
            3306         5.26121
            3307         3.27837
            3308         3.15049
            3309         1.41527
            3310         3.82435
            3311         5.89072
            3312         5.90590
            3313         3.83271
            3314         7.53042
            3315         1.32705
            3316         3.73496
            3317     703.252E-03
            3318         2.04644
            3319         1.48245
            3320     724.494E-03
            3321         3.38629
            3322         2.02393
            3323         2.06077
            3324         3.88217
            3325         6.64669
            3326         3.62369
            3327     906.940E-03
            3328         6.80147
            3329         2.62907
            3330         2.60294
            3331         6.82383
            3332         7.18906
            3333         3.12208
            3334         6.92846
            3335     686.279E-03
            3336     530.848E-03
            3337     540.098E-03
            3338         1.62811
            3339         1.52550
            3340         5.18135
            3341         7.78587
            3342         5.32726
            3343     449.186E-03
            3344         1.54197
            3345         4.18099
            3346         7.56623
            3347         3.87966
            3348     696.475E-03
            3349         7.72486
            3350         2.13228
            3351         2.10253
            3352         7.78293
            3353         1.95944
            3354         2.41826
            3355         6.67558
            3356         5.51585
            3357     218.444E-03
            3358     269.729E-03
            3359         1.00745
            3360     760.156E-03
            3361         6.64705
            3362         1.69878
            3363         4.61321
            3364         2.63704
            3365         6.42878
            3366     550.704E-03
            3367         7.09198
            3368         3.92880
            3369         1.60025
            3370         1.37839
            3371         3.09887
            3372         4.10728
            3373         1.89340
            3374         7.03466
            3375         4.30006
            3376         9.44515
            3377         2.18396
            3378         4.86086
            3379         6.57579
            3380         1.78749
            3381         2.54859
            3382         3.16017
            3383         2.99949
            3384         6.43429
            3385         2.57178
            3386         4.74839
            3387         6.33653
            3388         1.79415
            3389         2.55313
            3390         4.75827
            3391         2.66638
            3392         1.72698
            3393         8.99888
            3394         1.25053
            3395     436.251E-03
            3396         1.69624
            3397         8.12940
            3398         2.81987
            3399         4.58050
            3400         2.66656
            3401         5.90499
            3402         1.80480
            3403         4.52497
            3404         6.22108
            3405     162.653E-03
            3406     520.609E-03
            3407         6.94177
            3408         5.95047
            3409         7.76644
            3410         5.17060
            3411         7.10171
            3412         5.30937
            3413         2.88945
            3414         1.54736
            3415         4.27791
            3416         1.87315
            3417         2.14534
            3418     640.751E-03
            3419     759.759E-03
            3420         2.39479
            3421         2.12526
            3422         5.38851
            3423         5.60799
            3424         2.39068
            3425         3.22262
            3426         1.90095
            3427     677.315E-03
            3428         6.14440
            3429         3.72160
            3430         4.99950
            3431         4.89480
            3432         2.43689
            3433         6.77196
            3434         6.43301
            3435         3.02152
            3436         1.07035
            3437         3.45256
            3438         2.98205
            3439         1.47201
            3440         2.65747
            3441         1.72750
            3442         4.50293
            3443         6.21706
            3444     748.401E-03
            3445         3.06086
            3446         3.37993
            3447     768.065E-03
            3448         1.11490
            3449         3.28081
            3450         3.65066
            3451         1.98024
            3452         4.83468
            3453         3.92164
            3454         5.85745
            3455         5.94323
            3456         1.58235
            3457         4.24155
            3458         2.97643
            3459         1.64915
            3460         5.15646
            3461     521.408E-03
            3462         1.80169
            3463         6.75244
            3464         3.06368
            3465         3.18265
            3466         1.21279
            3467         2.10193
            3468         2.27285
            3469         5.79362
            3470         5.32876
            3471         1.82637
            3472     659.261E-03
            3473         5.88767
            3474         3.03040
            3475         1.56596
            3476         4.16905
            3477         5.77464
            3478         5.78954
            3479         4.16274
            3480         2.59125
            3481         1.82388
            3482         4.91342
            3483         6.08044
            3484         1.67051
            3485         4.68947
            3486     673.975E-03
            3487         1.99762
            3488         1.89661
            3489     698.425E-03
            3490         4.04475
            3491         1.95688
            3492         1.92392
            3493         2.21206
            3494         3.78805
            3495         3.96714
            3496         6.16703
            3497         7.17696
            3498         3.82604
            3499     736.136E-03
            3500         7.24724
            3501         6.39897
            3502         2.21101
            3503         3.01068
            3504         2.17977
            3505         7.27335
            3506         7.17198
            3507         3.06919
            3508     751.945E-03
            3509     622.911E-03
            3510         5.17992
            3511         2.43184
            3512         1.90743
            3513         6.42433
            3514     795.355E-03
            3515     649.791E-03
            3516         2.13611
            3517         4.53266
            3518         4.11112
            3519         4.90050
            3520         6.65826
            3521         6.11410
            3522         6.95729
            3523         1.68032
            3524         5.11200
            3525         3.88430
            3526         8.31894
            3527         2.00109
            3528         1.09318
            3529         7.06690
            3530         4.54760
            3531         4.49242
            3532         3.87937
            3533         1.41410
            3534     490.398E-03
            3535         5.69182
            3536         1.63908
            3537         4.43786
            3538         2.84129
            3539         6.04617
            3540         4.26369
            3541         4.48386
            3542         4.68932
            3543         4.09662
            3544         7.38215
            3545         8.05616
            3546         4.32466
            3547     770.368E-03
            3548         5.50544
            3549         2.19092
            3550         2.14058
            3551         3.71891
            3552         3.56129
            3553         5.37082
            3554         4.51136
            3555         5.80943
            3556         1.78340
            3557         2.72026
            3558         2.11884
            3559         3.16469
            3560         5.99837
            3561         5.06077
            3562         2.68746
            3563         4.87574
            3564         3.92061
            3565         3.13606
            3566         1.62349
            3567         2.86847
            3568         6.73850
            3569     692.920E-03
            3570         2.00952
            3571         6.68081
            3572     715.370E-03
            3573         3.70824
            3574         5.97558
            3575         5.32547
            3576         2.97734
            3577         5.96523
            3578     903.594E-03
            3579         2.50712
            3580         1.38310
            3581         3.26932
            3582     910.698E-03
            3583         1.25403
            3584         2.44706
            3585         3.50811
            3586         2.55068
            3587         5.69419
            3588         3.73883
            3589         3.77098
            3590         5.70313
            3591         3.19502
            3592         1.39171
            3593         1.50233
            3594         7.56964
            3595     505.870E-03
            3596         3.99660
            3597         5.85676
            3598         4.97469
            3599         3.77336
            3600         2.24651
            3601         6.80831
            3602         2.53576
            3603         1.99842
            3604         5.16644
            3605         5.74499
            3606         6.75914
            3607         2.69240
            3608         1.73788
            3609         4.71119
            3610         5.10967
            3611         5.66424
            3612         1.93557
            3613     657.989E-03
            3614         3.78872
            3615         6.37218
            3616         2.75873
            3617     968.037E-03
            3618         3.56362
            3619         5.28405
            3620         6.06108
            3621         2.85257
            3622         2.33358
            3623         2.21487
            3624         5.50694
            3625         5.50658
            3626         6.71792
            3627         6.75394
            3628         1.00039
            3629     721.976E-03
            3630         3.70714
            3631         3.39653
            3632         4.75224
            3633         3.74616
            3634         5.80022
            3635         1.73220
            3636         6.60335
            3637         5.69321
            3638         2.00623
            3639         2.36747
            3640         5.92968
            3641         5.12982
            3642         1.60780
            3643         3.07945
            3644         1.54581
            3645         4.09071
            3646         5.60821
            3647         7.01946
            3648         3.62537
            3649         2.12805
            3650         6.24213
            3651     774.496E-03
            3652         1.53908
            3653         4.30338
            3654     862.108E-03
            3655         2.39185
            3656     548.972E-03
            3657         1.55968
            3658         1.98173
            3659         2.48730
            3660         3.67598
            3661         3.88111
            3662         6.28310
            3663         6.04300
            3664         6.41309
            3665         6.35674
            3666         2.71639
            3667         3.25738
            3668         3.13022
            3669     860.789E-03
            3670     959.299E-03
            3671     571.138E-03
            3672         2.40144
            3673         6.31568
            3674         7.07370
            3675         6.97691
            3676         8.78350
            3677         2.90636
            3678         6.48967
            3679         3.75932
            3680         1.55912
            3681     546.534E-03
            3682         5.35084
            3683         1.73275
            3684         4.60629
            3685         2.80765
            3686         7.57495
            3687         4.05899
            3688         4.42605
            3689         4.69673
            3690         2.56996
            3691         6.14143
            3692         1.81320
            3693         8.18843
            3694     715.078E-03
            3695         5.23871
            3696         2.05607
            3697         2.00362
            3698         3.72338
            3699         3.57255
            3700         5.09138
            3701         4.45469
            3702         5.68986
            3703         7.85098
            3704         6.61214
            3705         4.62582
            3706         3.91226
            3707         3.06553
            3708         1.76492
            3709         2.76952
            3710     643.407E-03
            3711         1.88419
            3712         7.17951
            3713         2.94796
            3714         5.08840
            3715         4.77131
            3716         6.15702
            3717         5.18388
            3718         6.46491
            3719     870.061E-03
            3720     964.759E-03
            3721         2.41127
            3722         2.68322
            3723         1.12687
            3724         1.71578
            3725         3.84902
            3726         2.81688
            3727         2.45338
            3728         5.73764
            3729         5.60981
            3730         3.38141
            3731         4.09678
            3732         3.47068
            3733         5.78501
            3734         3.31954
            3735         1.23959
            3736         6.84247
            3737         2.71075
            3738         2.48457
            3739         2.03415
            3740         3.29289
            3741         2.60840
            3742         2.48044
            3743         1.90460
            3744         2.08917
            3745         4.99308
            3746         5.31580
            3747         5.67465
            3748         5.79117
            3749         2.20261
            3750         2.54727
            3751         8.56253
            3752         1.52952
            3753         5.14453
            3754         10.4231
            3755         6.38840
            3756         6.08663
            3757         5.78657
            3758         6.50334
            3759         2.41275
            3760         6.31226
            3761         2.81650
            3762         3.47980
            3763         3.51114
            3764     888.278E-03
            3765         2.28365
            3766         5.60843
            3767         5.85244
            3768         1.66199
            3769         4.52549
            3770         2.78294
            3771         6.23770
            3772         1.16661
            3773         3.24289
            3774         6.38944
            3775         5.63532
            3776         2.09689
            3777         2.31347
            3778         5.75813
            3779         5.23843
            3780         2.59181
            3781         3.61761
            3782         5.91476
            3783         6.02187
            3784         3.11879
            3785     908.519E-03
            3786         7.17523
            3787         7.63150
            3788         2.73206
            3789         6.27732
            3790         1.71117
            3791         4.52924
            3792         2.87256
            3793         4.89596
            3794         2.49458
            3795         5.89993
            3796         1.94113
            3797     888.343E-03
            3798         5.14497
            3799         2.44700
            3800         2.44870
            3801         3.58294
            3802         3.41344
            3803         5.03180
            3804         5.04513
            3805         6.17870
            3806     860.581E-03
            3807         1.07677
            3808         2.96187
            3809         2.41374
            3810         1.32164
            3811     883.235E-03
            3812         3.18229
            3813         2.35077
            3814         2.10944
            3815         5.51386
            3816         3.10848
            3817         3.74076
            3818         6.10748
            3819         3.41992
            3820         1.11560
            3821         3.47287
            3822         2.30307
            3823         2.62576
            3824         1.83308
            3825         4.88281
            3826     665.221E-03
            3827         1.87162
            3828         1.98129
            3829         2.65632
            3830         4.92004
            3831         2.46614
            3832         6.03727
            3833         1.91338
            3834         6.36392
            3835         5.05544
            3836         3.71547
            3837         7.41183
            3838     872.339E-03
            3839         2.46141
            3840         1.59978
            3841         2.91157
            3842         3.02219
            3843         3.77462
            3844         4.78883
            3845         2.59700
            3846         5.11364
            3847         1.97849
            3848         4.59411
            3849         3.88930
            3850         2.92617
            3851         4.47553
            3852         1.70199
            3853         5.72397
            3854         1.90718
            3855         6.43616
            3856         5.79394
            3857         4.65397
            3858         6.26190
            3859         3.67158
            3860         3.22493
            3861         5.51288
            3862         1.37412
            3863         2.85152
            3864         3.25242
            3865         1.13623
            3866         1.17352
            3867         2.89034
            3868         6.58406
            3869         6.91096
            3870         2.47274
            3871         4.97347
            3872         2.66300
            3873         1.90840
            3874         2.26193
            3875         3.32800
            3876         1.24296
            3877         3.35886
            3878         5.47855
            3879         5.47479
            3880         3.51923
            3881         5.17716
            3882         2.63150
            3883         2.02167
            3884         3.17416
            3885         1.47092
            3886         3.85192
            3887         5.25495
            3888         5.22532
            3889         3.91065
            3890         1.40777
            3891         1.28832
            3892         3.35210
            3893         3.48485
            3894         4.97179
            3895         3.57237
            3896         5.87442
            3897         2.33478
            3898         4.54341
            3899         3.61257
            3900         4.54591
            3901         5.87773
            3902         5.93758
            3903         5.17521
            3904         6.76581
            3905         5.61021
            3906         3.98338
            3907         3.12441
            3908         1.31403
            3909         2.06861
            3910         2.88025
            3911         4.71452
            3912         1.82508
            3913         5.58721
            3914         6.14811
            3915         6.48752
            3916         5.82177
            3917         5.50241
            3918         6.09289
            3919         5.98915
            3920         1.82573
            3921         4.77642
            3922         2.78478
            3923         4.91463
            3924         2.52362
            3925         5.78873
            3926         1.97797
            3927     944.997E-03
            3928         5.40874
            3929         2.57305
            3930         3.40439
            3931         5.12795
            3932         5.00847
            3933         5.99035
            3934         1.05255
            3935         2.93932
            3936     953.075E-03
            3937         2.50525
            3938         1.71614
            3939         6.36136
            3940         7.28675
            3941         3.20460
            3942         2.86952
            3943         4.05877
            3944         4.63715
            3945         4.32208
            3946         3.69553
            3947         1.87117
            3948         6.53440
            3949         5.26908
            3950         5.75508
            3951         2.75608
            3952         1.98820
            3953         8.18660
            3954         1.73052
            3955         2.85314
            3956         1.01637
            3957         2.54470
            3958         1.04305
            3959         5.58264
            3960         3.48815
            3961         2.89353
            3962         6.28097
            3963         1.44958
            3964         3.01865
            3965         5.73969
            3966         2.06516
            3967         2.44019
            3968         5.08133
            3969     911.184E-03
            3970         6.36443
            3971         2.62083
            3972         6.59894
            3973         3.53712
            3974         4.75040
            3975         5.73478
            3976         2.63387
            3977         1.90783
            3978         6.80852
            3979         1.89535
            3980         6.36238
            3981         1.96832
            3982         1.66988
            3983         6.23969
            3984         7.81484
            3985         1.88594
            3986         2.72722
            3987         2.92285
            3988         4.35203
            3989         5.38440
            3990         3.57711
            3991         5.25583
            3992         2.55667
            3993         9.01923
            3994         2.25739
            3995         5.56146
            3996         2.38984
            3997         5.55279
            3998         4.29982
            3999         2.80423
            4000         1.85480
            4001         1.02181
            4002         4.31767
            4003         3.72711
            4004         4.67302
            4005         5.52404
            4006         2.85617
            4007         2.81292
            4008         7.68767
            4009         5.26614
            4010         4.44394
            4011         4.32342
            4012         4.45460
            4013         1.77376
            4014         6.49918
            4015         6.17208
            4016         7.20201
            4017         7.43398
            4018         2.57434
            4019         6.39245
            4020         5.65020
            4021         1.02075
            4022         3.38073
            4023         2.70765
            4024         6.88107
            4025         2.07128
            4026         5.36416
            4027         2.57802
            4028         2.12488
            4029         3.05837
            4030         1.65579
            4031         4.26381
            4032         5.20151
            4033         5.20323
            4034         4.29317
            4035         1.23095
            4036         3.97738
            4037         3.33434
            4038         5.93304
            4039         4.92557
            4040         5.62572
            4041         3.57996
            4042         4.25325
            4043         2.60709
            4044         2.01671
            4045         5.85303
            4046         3.60656
            4047         2.03236
            4048         4.78035
            4049         5.80525
            4050         5.47085
            4051         2.59170
            4052         1.91157
            4053         5.62882
            4054         5.58500
            4055         1.83459
            4056         4.81704
            4057         2.73435
            4058         5.95766
            4059         6.01527
            4060         6.12546
            4061         7.58790
            4062         2.83807
            4063         4.24955
            4064         3.55421
            4065         1.88606
            4066         5.69995
            4067         4.95349
            4068         2.73446
            4069         2.71786
            4070         3.16244
            4071         5.48340
            4072         1.88105
            4073         2.76651
            4074     992.671E-03
            4075         6.10228
            4076         5.67400
            4077         2.15157
            4078         2.36042
            4079         5.23424
            4080         6.05631
            4081         5.67189
            4082         3.41017
            4083         4.63962
            4084         2.07894
            4085         6.15904
            4086         6.39845
            4087         9.69214
            4088         2.24468
            4089         5.65967
            4090         2.45181
            4091         5.55072
            4092         3.11371
            4093         5.42752
            4094         4.61839
            4095         4.23234
            4096         4.26343
            4097         4.34910
            4098         5.75608
            4099         5.51069
            4100         1.84360
            4101         2.90398
            4102         4.72298
            4103         5.00063
            4104         2.78500
            4105         2.73289
            4106     996.709E-03
            4107         6.39516
            4108         4.64942
            4109         5.37866
            4110         2.12141
            4111         4.22115
            4112         4.64197
            4113         5.09059
            4114         4.09576
            4115         3.69627
            4116         2.65333
            4117         2.01032
            4118         2.88536
            4119         4.89839
            4120         5.54053
            4121         1.43553
            4122         3.04066
            4123         1.04129
            4124         5.76128
            4125         5.08005
            4126         5.70067
            4127         2.48067
            4128         2.08338
            4129         2.76114
            4130         4.96570
            4131         1.92852
            4132         11.3816
            4133         6.77036
            4134         1.93362
            4135         2.80658
            4136         4.94842
            4137         3.21671
            4138         1.20411
            4139         5.62536
            4140         5.52903
            4141         2.36868
            4142         2.31874
            4143         5.95642
            4144         6.15913
            4145         2.88855
            4146         1.70028
            4147         1.18854
            4148         1.89660
            4149         3.65866
            4150         4.15436
            4151         5.68675
            4152         8.15425
            4153         5.28483
            4154         3.48044
            4155         2.86217
            4156         5.61602
            4157         3.46871
            4158         4.43666
            4159         1.32694
            4160         3.12414
            4161         5.60762
            4162         1.15204
            4163         3.26527
            4164         2.99917
            4165         1.51449
            4166         6.23459
            4167         6.15667
            4168         6.05484
            4169         4.97107
            4170         6.75773
            4171         6.14466
            4172         1.17733
            4173         5.02383
            4174         5.01828
            4175         5.49069
            4176         5.67038
            4177         5.79921
            4178         3.16881
            4179         1.16651
            4180         2.46799
            4181         5.98285
            4182         6.18527
            4183     952.238E-03
            4184         3.44110
            4185         2.19428
            4186         5.39901
            4187         5.34606
            4188         2.63744
            4189         2.51284
            4190         2.11952
            4191         2.14421
            4192         3.08158
            4193         3.02345
            4194         1.67139
            4195         1.65139
            4196         4.33795
            4197         4.20869
            4198         4.99707
            4199         4.98437
            4200         5.38252
            4201         4.23599
            4202         1.48401
            4203         3.80880
            4204         3.92121
            4205         5.62703
            4206         3.26809
            4207         9.87595
            4208         2.19783
            4209         6.00253
            4210         8.50759
            4211         6.90430
            4212         2.76658
            4213         4.44117
            4214         3.57065
            4215         1.87326
            4216         5.78504
            4217         5.60107
            4218         2.68842
            4219         2.64968
            4220         3.30372
            4221         5.13619
            4222         6.00979
            4223         5.99590
            4224         5.22350
            4225         2.34102
            4226         5.68613
            4227         5.69671
            4228         4.87292
            4229         4.48258
            4230         5.73080
            4231         4.74735
            4232         2.71608
            4233         4.62121
            4234         5.21270
            4235         2.40847
            4236         4.56087
            4237         4.13983
            4238         4.01774
            4239         3.55476
            4240         3.83571
            4241         2.69218
            4242         2.01030
            4243         2.82229
            4244         2.92943
            4245         4.88766
            4246         5.42785
            4247         1.22329
            4248         5.79916
            4249         6.21947
            4250         1.94393
            4251         2.84400
            4252         4.93656
            4253         5.62841
            4254         5.63671
            4255         5.63485
            4256         5.41956
            4257         2.43639
            4258         2.29620
            4259         2.29889
            4260         2.35324
            4261         5.94176
            4262         6.31193
            4263         2.80236
            4264         1.88290
            4265         1.29424
            4266         1.97595
            4267         3.74461
            4268         3.52285
            4269         4.13449
            4270         4.06609
            4271         3.28305
            4272         4.57903
            4273         5.01947
            4274         3.34379
            4275         3.25109
            4276         5.52874
            4277         3.41787
            4278         3.44406
            4279         4.53749
            4280         4.19710
            4281         2.14954
            4282         5.66665
            4283         2.48908
            4284         5.16675
            4285         2.52247
            4286         2.96604
            4287         2.78764
            4288         4.40114
            4289         4.13604
            4290         1.59773
            4291         3.37278
            4292         4.40087
            4293         3.70236
            4294         5.08672
            4295         2.02844
            4296         2.69360
            4297         5.17007
            4298         1.81636
            4299         3.26646
            4300         1.08852
            4301         5.33973
            4302         2.93835
            4303         5.84265
            4304         6.48275
            4305         5.63944
            4306         5.11298
            4307         2.12851
            4308         2.54409
            4309         4.81712
            4310         3.26700
            4311         3.06744
            4312         1.41601
            4313         1.23182
            4314         3.17276
            4315         7.53033
            4316         5.89014
            4317         5.34916
            4318         6.47932
            4319         4.62908
            4320         2.29554
            4321         6.42727
            4322         5.05264
            4323         5.35812
            4324         5.66308
            4325         3.03451
            4326         5.49952
            4327         2.54109
            4328         2.20418
            4329         3.16673
            4330         2.96839
            4331         1.50570
            4332         1.80720
            4333         4.59529
            4334         3.88079
            4335         4.97128
            4336         5.22972
            4337         5.54294
            4338         5.98998
            4339         6.09161
            4340         2.49938
            4341         2.95111
            4342         2.62405
            4343         3.71667
            4344         4.93986
            4345         5.92610
            4346         6.11591
            4347         5.26720
            4348         2.20518
            4349         5.58916
            4350         2.34902
            4351         3.05092
            4352         5.67617
            4353         5.62570
            4354         5.34583
            4355         5.50439
            4356         2.35737
            4357         2.23634
            4358         2.36601
            4359         2.33846
            4360         6.63393
            4361         6.08245
            4362         2.07388
            4363         2.21085
            4364         2.48948
            4365         5.50495
            4366         4.68070
            4367         3.29150
            4368         3.36843
            4369         1.79631
            4370         2.94794
            4371         4.60594
            4372         2.57718
            4373         3.26208
            4374         4.33581
            4375         4.09240
            4376         6.20957
            4377         2.03480
            4378         2.74306
            4379         5.15780
            4380         1.60514
            4381         5.88628
            4382         5.74008
            4383         5.59074
            4384         5.08732
            4385         2.12362
            4386         2.59045
            4387         5.99421
            4388         2.97229
            4389         4.65926
            4390         2.84401
            4391         4.89995
            4392         5.04053
            4393         3.92095
            4394         3.66335
            4395         2.83022
            4396         5.96331
            4397         4.84059
            4398         3.45696
            4399         5.74082
            4400         5.74738
            4401         2.20122
            4402         2.45413
            4403         6.12501
            4404         2.40412
            4405         2.30675
            4406         5.41809
            4407         5.68348
            4408         5.92111
            4409         2.40512
            4410         2.39423
            4411         5.54972
            4412         5.75532
            4413         2.59863
            4414         5.45133
            4415         5.62234
            4416         3.73862
            4417         3.89317
            4418         3.52156
            4419         3.66674
            4420         5.68378
            4421         4.70896
            4422         3.86038
            4423         5.74264
            4424         2.86270
            4425         4.48780
            4426         5.85293
            4427         2.78275
            4428         5.17020
            4429         4.38447
            4430         1.94948
            4431         2.91946
            4432         5.21032
            4433         4.85280
            4434         4.51577
            4435         2.26338
            4436         5.60770
            4437         2.56814
            4438         5.89606
            4439         1.47811
            4440         2.49115
            4441         5.87214
            4442         3.15856
            4443         5.20908
            4444         5.47108
            4445         6.20193
            4446         6.17820
            4447         6.77904
            4448         4.34005
            4449         2.45276
            4450         6.23721
            4451         5.10904
            4452         5.05712
            4453         5.36911
            4454         5.39126
            4455         5.89497
            4456         2.34446
            4457         3.92394
            4458         5.02747
            4459         5.86333
            4460         2.01937
            4461         5.59620
            4462         5.37402
            4463         2.23365
            4464         2.27993
            4465         6.91324
            4466         2.09655
            4467         4.83666
            4468         4.67501
            4469         3.38590
            4470         3.21978
            4471         3.06936
            4472         3.66630
            4473         5.98685
            4474         3.82422
            4475         1.62667
            4476         1.59551
            4477         5.85325
            4478         2.67428
            4479         5.08667
            4480         2.68506
            4481         5.91995
            4482         4.74253
            4483         2.12902
            4484         2.73443
            4485         5.31786
            4486         3.18925
            4487         4.53044
            4488         3.43609
            4489         4.17937
            4490         2.59296
            4491         1.95177
            4492         5.74760
            4493         3.40533
            4494         4.28393
            4495         4.76304
            4496         2.22544
            4497         5.98414
            4498         5.96788
            4499         3.27215
            4500         3.94783
            4501         5.76040
            4502         5.99199
            4503         2.53411
            4504         2.87877
            4505         2.40149
            4506         2.80964
            4507         5.76846
            4508         2.39067
            4509         2.46391
            4510         5.68641
            4511         5.80194
            4512         6.56408
            4513         2.61444
            4514         5.17332
            4515         7.02887
            4516         3.37304
            4517         3.56203
            4518         5.85105
            4519         2.75292
            4520         5.56916
            4521         4.96844
            4522         5.84782
            4523         3.05345
            4524         5.65912
            4525         6.31939
            4526         4.63303
            4527         5.05912
            4528         5.11896
            4529         5.26568
            4530         2.26599
            4531         2.22180
            4532         5.54057
            4533         5.44394
            4534         1.37976
            4535         7.10578
            4536         2.05019
            4537         4.55924
            4538         3.16404
            4539         3.81728
            4540         3.49351
            4541         1.80127
            4542         5.60270
            4543         6.13671
            4544         2.45536
            4545         2.24976
            4546         5.31869
            4547         5.67855
            4548         4.83181
            4549         3.09264
            4550         4.28890
            4551         1.96201
            4552         5.76061
            4553         3.14905
            4554         2.52286
            4555         3.83896
            4556         4.83844
            4557         2.93700
            4558         1.97546
            4559         2.61444
            4560         2.26349
            4561         5.60322
            4562         2.14291
            4563         2.76583
            4564         5.30974
            4565         4.09329
            4566         5.57000
            4567         4.20682
            4568         4.50803
            4569         5.17425
            4570         5.80872
            4571         4.31609
            4572         3.10271
            4573         3.94135
            4574         5.53968
            4575         5.39744
            4576         5.15255
            4577         5.17992
            4578         1.91956
            4579         3.17815
            4580         2.42678
            4581         2.04177
            4582         3.22384
            4583         3.72167
            4584         5.69986
            4585         3.08469
            4586         2.27219
            4587         2.69563
            4588         3.00492
            4589         5.76718
            4590         2.34233
            4591         2.43406
            4592         2.45783
            4593         2.47834
            4594         5.72485
            4595         5.63483
            4596         5.87763
            4597         5.72373
            4598         2.66193
            4599         6.67745
            4600         3.40261
            4601         3.32340
            4602         3.73485
            4603         3.38706
            4604         2.73877
            4605         2.75884
            4606         5.26633
            4607         5.20382
            4608         4.81079
            4609         5.73869
            4610         6.56753
            4611         6.14279
            4612         5.18116
            4613         5.30763
            4614         6.00142
            4615         2.48713
            4616         2.29304
            4617         5.36072
            4618         5.70068
            4619         5.27047
            4620         3.03240
            4621         4.02120
            4622         3.46751
            4623         5.09034
            4624         4.51999
            4625         3.01118
            4626         2.87867
            4627         2.09252
            4628         1.80384
            4629         2.64356
            4630         2.59421
            4631         2.31595
            4632         2.20219
            4633         5.48878
            4634         5.70433
            4635         2.21298
            4636         2.06048
            4637         2.81372
            4638         2.72787
            4639         5.14281
            4640         5.45209
            4641         5.63138
            4642         5.47862
            4643         4.55090
            4644         4.54292
            4645         3.47992
            4646         4.63169
            4647         4.30984
            4648         1.92921
            4649         5.96211
            4650         5.82611
            4651         3.37895
            4652         5.29119
            4653         3.18203
            4654         1.29818
            4655         1.17892
            4656         2.21182
            4657         2.50140
            4658         5.66483
            4659         5.24546
            4660         3.97794
            4661         4.38483
            4662         2.33832
            4663         2.70338
            4664         2.19586
            4665         5.44645
            4666         4.63593
            4667         5.18961
            4668         2.98302
            4669         2.04622
            4670         4.65709
            4671         2.11640
            4672         3.90347
            4673         3.30408
            4674         5.79809
            4675         6.07093
            4676         2.55651
            4677         2.31405
            4678         5.70072
            4679         5.07113
            4680         2.86691
            4681         2.05628
            4682         2.98192
            4683         1.55072
            4684         5.96324
            4685         2.74695
            4686         2.49512
            4687         5.12093
            4688         2.84760
            4689         5.68047
            4690         4.64823
            4691         5.27766
            4692         3.34839
            4693         3.80677
            4694         6.06754
            4695         5.54173
            4696         5.64347
            4697         5.45407
            4698         5.76799
            4699         2.29507
            4700         5.28960
            4701         4.07078
            4702         3.10833
            4703         5.14472
            4704         5.17702
            4705         3.10732
            4706         3.60633
            4707         5.77841
            4708         3.08049
            4709         2.11165
            4710         3.14693
            4711         2.78587
            4712         2.64330
            4713         3.43498
            4714         3.26122
            4715         3.46380
            4716         3.48102
            4717         2.75378
            4718         2.71701
            4719         4.81512
            4720         5.49671
            4721         5.78172
            4722         4.53716
            4723         5.29833
            4724         6.09732
            4725         2.47746
            4726         2.37490
            4727         5.46906
            4728         3.12759
            4729         4.12380
            4730         4.05850
            4731         3.43704
            4732         4.53200
            4733         4.57189
            4734         4.78512
            4735         4.29390
            4736         1.42091
            4737         4.99893
            4738         1.89951
            4739         4.14831
            4740         3.88910
            4741         6.03939
            4742         2.91302
            4743         5.27197
            4744         5.29154
            4745         2.93973
            4746         1.99060
            4747         2.13775
            4748         5.04168
            4749         4.30061
            4750         2.32102
            4751         5.80313
            4752         2.91448
            4753         1.67024
            4754         5.19650
            4755         2.77545
            4756         5.95874
            4757         2.65381
            4758         5.59867
            4759         2.27036
            4760         4.82292
            4761         2.94713
            4762         2.53241
            4763         5.76133
            4764         2.34807
            4765         5.19881
            4766         2.82704
            4767         2.10860
            4768         3.27091
            4769         3.69772
            4770         2.15650
            4771         2.34060
            4772         2.51411
            4773         5.40011
            4774         5.79198
            4775         5.41351
            4776         4.68512
            4777         2.55864
            4778         2.44369
            4779         6.36159
            4780         3.29463
            4781         3.63611
            4782         3.21016
            4783         3.85068
            4784         3.21808
            4785         5.89976
            4786         5.30507
            4787         2.64923
            4788         5.76295
            4789         1.98417
            4790         5.55799
            4791         2.36553
            4792         2.61613
            4793         5.79412
            4794         5.33132
            4795         2.23624
            4796         2.83930
            4797         3.41164
            4798         2.33853
            4799         5.69714
            4800         2.70730
            4801         3.96650
            4802         3.75576
            4803         5.33033
            4804         3.61938
            4805         3.87778
            4806         5.79204
            4807         3.80280
            4808         3.92357
            4809         3.49534
            4810         4.11665
            4811         5.30942
            4812         2.50210
            4813         2.40984
            4814         5.48549
            4815         2.68746
            4816         6.45431
            4817         6.27268
            4818         3.01863
            4819         4.49879
            4820         5.68747
            4821         2.66460
            4822         2.33186
            4823         2.88980
            4824         5.14712
            4825         4.54934
            4826         3.47369
            4827         3.42824
            4828         3.13015
            4829         3.24714
            4830         4.62507
            4831         5.80896
            4832         5.80422
            4833         2.73013
            4834         1.16528
            4835         2.38605
            4836         2.57443
            4837         5.75379
            4838         5.41358
            4839         4.18761
            4840         3.21380
            4841         5.11055
            4842         3.13233
            4843         3.80559
            4844         2.91167
            4845         2.71686
            4846         2.44690
            4847         2.40392
            4848         5.53492
            4849         3.83832
            4850         4.84632
            4851         4.28578
            4852         4.62485
            4853         2.97336
            4854         2.12402
            4855         5.36216
            4856         2.46581
            4857         5.55548
            4858         5.20708
            4859         2.66720
            4860         2.55954
            4861         5.89390
            4862         2.40343
            4863         5.42386
            4864         2.78822
            4865         2.23672
            4866         3.29925
            4867         3.64473
            4868         2.29120
            4869         2.31073
            4870         2.55232
            4871         5.34275
            4872         5.50348
            4873         3.39586
            4874         3.17781
            4875         3.55347
            4876         3.67348
            4877         3.18769
            4878         3.63678
            4879         5.32730
            4880         2.65966
            4881         1.51313
            4882         5.62794
            4883         2.82256
            4884         5.45091
            4885         5.20431
            4886         2.47620
            4887         2.85256
            4888         5.70930
            4889         2.06187
            4890         5.39667
            4891         1.95323
            4892         5.68531
            4893         2.68933
            4894         4.02873
            4895         4.89064
            4896         5.37037
            4897         2.69130
            4898         5.81248
            4899         5.19568
            4900         2.88583
            4901         1.75988
            4902         1.94327
            4903         3.18145
            4904         3.89749
            4905         4.24440
            4906         2.84393
            4907         2.37339
            4908         2.64826
            4909         5.77507
            4910         5.49026
            4911         2.79874
            4912         2.29903
            4913         2.60461
            4914         2.40640
            4915         5.89362
            4916         5.12041
            4917         2.69226
            4918         2.91952
            4919         2.86949
            4920         5.31356
            4921         5.37830
            4922         6.03047
            4923         3.30540
            4924         2.22478
            4925         2.03673
            4926         5.55264
            4927         5.67480
            4928         3.82107
            4929         5.71220
            4930         2.18371
            4931         3.58358
            4932         1.62675
            4933         5.37412
            4934         1.94062
            4935         1.99612
            4936         2.58137
            4937         5.72310
            4938         5.88714
            4939         3.67913
            4940         3.61361
            4941         3.07089
            4942         3.07983
            4943         2.75278
            4944         3.45234
            4945         3.65793
            4946         5.40991
            4947         3.94323
            4948         4.42906
            4949         3.16223
            4950         3.30169
            4951         4.79023
            4952         4.85833
            4953         3.02033
            4954         2.36305
            4955         2.31210
            4956         3.23723
            4957         3.50007
            4958         5.97871
            4959         5.55530
            4960         5.38352
            4961         2.81109
            4962         1.75410
            4963         2.68530
            4964         4.33622
            4965         2.80879
            4966         1.95440
            4967         3.82666
            4968         3.85150
            4969         2.80074
            4970         2.63618
            4971         2.41104
            4972         5.86518
            4973         2.69239
            4974         2.68260
            4975         2.83285
            4976         3.12494
            4977         5.29661
            4978         5.44004
            4979         2.89638
            4980         3.02735
            4981         3.49974
            4982         2.08176
            4983         4.34202
            4984         2.28686
            4985         2.58357
            4986         2.21775
            4987         5.21885
            4988         5.59399
            4989         2.34404
            4990         2.85302
            4991         4.02402
            4992         4.03160
            4993         2.46773
            4994         5.52684
            4995         2.51229
            4996         2.67604
            4997         5.49783
            4998         2.21740
            4999         5.68483
            5000         3.74426
            5001         4.46436
            5002         2.03590
            5003         5.35127
            5004         2.11725
            5005         3.02174
            5006         3.31554
            5007         5.82283
            5008         3.36294
            5009         5.26945
            5010         2.09322
            5011         2.66792
            5012         5.48995
            5013         3.39438
            5014         3.52848
            5015         5.85847
            5016         3.92846
            5017         3.63427
            5018         3.49578
            5019         3.28832
            5020         5.48923
            5021         3.07120
            5022         3.30130
            5023         3.09433
            5024         2.93838
            5025         2.69863
            5026         2.78537
            5027         2.40805
            5028         2.30171
            5029         5.68831
            5030         5.70846
            5031         2.65575
            5032         2.28731
            5033         2.58383
            5034         5.30368
            5035         1.83513
            5036         4.89415
            5037         5.00735
            5038         5.45652
            5039         3.00210
            5040         3.15445
            5041         3.14957
            5042         3.02209
            5043         5.50136
            5044         5.52659
            5045         3.01322
            5046         2.76132
            5047         2.69409
            5048         2.79221
            5049         5.36945
            5050         5.23306
            5051         2.97505
            5052         2.51548
            5053         5.60252
            5054         2.49538
            5055         5.52863
            5056         2.08741
            5057         3.22536
            5058         5.68590
            5059         5.35281
            5060         2.66246
            5061         2.41480
            5062         2.93528
            5063         3.22027
            5064         2.87702
            5065         2.59939
            5066         2.44438
            5067         2.76521
            5068         3.66554
            5069         6.07008
            5070         2.15855
            5071         2.63765
            5072         2.04686
            5073         2.16743
            5074         5.42790
            5075         5.41258
            5076         5.78545
            5077         3.18535
            5078         2.96571
            5079         2.85574
            5080         2.62655
            5081         2.20416
            5082         5.69364
            5083         2.66126
            5084         2.36321
            5085         2.56879
            5086         5.38910
            5087         3.10896
            5088         5.52600
            5089         5.51198
            5090         3.00542
            5091         2.93531
            5092         2.76531
            5093         2.81107
            5094         5.36798
            5095         2.90194
            5096         2.50745
            5097         2.52729
            5098         5.54048
            5099         5.67078
            5100         2.52607
            5101         2.46120
            5102         5.57177
            5103         4.11521
            5104         5.58677
            5105         5.72477
            5106         5.14353
            5107         2.47732
            5108         2.87769
            5109         2.97347
            5110         3.09143
            5111         3.34215
            5112         2.61662
            5113         2.21872
            5114         5.21221
            5115         3.88003
            5116         2.71146
            5117         2.62531
            5118         2.47243
            5119         2.74495
            5120         2.64164
            5121         5.90086
            5122         2.22059
            5123         3.42121
            5124         2.67412
            5125         5.45808
            5126         2.86790
            5127         2.56380
            5128         2.44906
            5129         2.75462
            5130         2.05188
            5131         2.45934
            5132         2.65380
            5133         3.35490
            5134         3.25558
            5135         4.96814
            5136         5.52692
            5137         2.87303
            5138         2.76879
            5139         1.95842
            5140         2.78485
            5141         3.35218
            5142         5.53044
            5143         2.80023
            5144         5.13687
            5145         2.65419
            5146         2.56123
            5147         2.43954
            5148         5.44573
            5149         5.05752
            5150         2.65885
            5151         5.07884
            5152         2.12961
            5153         2.66317
            5154         5.51256
            5155         2.57673
            5156         2.54052
            5157         2.73931
            5158         2.87305
            5159         3.58760
            5160         2.30086
            5161         5.73918
            5162         3.06879
            5163         2.90183
            5164         2.82761
            5165         2.48178
            5166         2.77809
            5167         2.33100
            5168         5.71372
            5169         5.65956
            5170         2.64836
            5171         2.67081
            5172         3.34364
            5173         3.08053
            5174         3.01219
            5175         2.76055
            5176         2.86640
            5177         2.92725
            5178         2.55851
            5179         2.48242
            5180         5.48991
            5181         2.54157
            5182         2.48149
            5183         2.73240
            5184         2.26228
            5185         2.64609
            5186         2.48225
            5187         2.74559
            5188         2.62216
            5189         3.08568
            5190         3.20047
            5191         2.13774
            5192         2.44175
            5193         2.66762
            5194         2.28894
            5195         2.56470
            5196         2.81690
            5197         2.64746
            5198         2.75419
            5199         2.71691
            5200         2.67960
            5201         5.41825
            5202         3.15396
            5203         2.87214
            5204         5.46023
            5205         2.87724
            5206         2.77256
            5207         5.48614
            5208         5.47143
            5209         5.11518
            5210         2.66572
            5211         5.22958
            5212         2.64301
            5213         2.60608
            5214         2.53487
            5215         5.46513
            5216         2.49874
            5217         2.56233
            5218         2.38877
            5219         5.76449
            5220         2.49168
            5221         2.91544
            5222         2.42132
            5223         3.37095
            5224         2.76170
            5225         2.86268
            5226         2.53703
            5227         2.45419
            5228         2.21658
            5229         2.65192
            5230         2.63942
            5231         2.50306
            5232         2.47655
            5233         2.72714
            5234         2.76546
            5235         2.62627
            5236         2.61879
            5237         2.99683
            5238         3.14730
            5239         5.64042
            5240         2.73171
            5241         2.38848
            5242         2.68213
            5243         2.61311
            5244         2.76682
            5245         2.73829
            5246         5.40969
            5247         5.45711
            5248         3.07248
            5249         2.97192
            5250         2.77856
            5251         2.04546
            5252         2.66266
            5253         5.64577
            5254         2.52127
            5255         2.94986
            5256         2.78857
            5257         2.51049
            5258         2.38227
            5259         5.60424
            5260         2.35223
            5261         2.18671
            5262         2.81554
            5263         2.75569
            5264         2.55870
            5265         3.80676
            5266         3.16173
            5267         2.36194
            5268         4.24304
            5269         2.71112
            5270         3.04690
            5271         2.60585
            5272         2.55042
            5273         2.57671
            5274         2.71149
            5275         2.47490
            5276         2.58015
            5277         2.70130
            5278         5.41444
            5279         2.60459
            5280         5.11742
            5281         2.66460
            5282         2.66076
            5283         2.65152
            5284         2.80980
            5285         5.33752
            5286         2.62982
            5287         3.05694
            5288         2.93191
            5289         2.70538
            5290         5.42542
            5291         2.65406
            5292         2.61553
            5293         2.59968
            5294         2.51057
            5295         2.55513
            5296         2.41625
            5297         2.64892
            5298         2.38418
            5299         3.20687
            5300         2.72389
            5301         2.14130
            5302         2.60778
            5303         2.64078
            5304         5.58411
            5305         2.70448
            5306         2.32581
            5307         2.43146
            5308         2.59087
            5309         2.93062
            5310         2.80723
            5311         2.64391
            5312         2.08104
            5313         2.57820
            5314         2.55317
            5315         2.50928
            5316         2.30675
            5317         2.85306
            5318         2.97445
            5319         2.80726
            5320         2.28697
            5321         2.45159
            5322         2.56832
            5323         2.70980
            5324         2.58146
            5325         2.65378
            5326         2.62187
            5327         2.82589
            5328         2.79811
            5329         2.60199
            5330         2.66536
            5331         2.74970
            5332         2.64069
            5333         2.62878
            5334         2.53287
            5335         2.47690
            5336         2.61572
            5337         2.67307
            5338         2.74282
            5339         2.33979
            5340         2.47393
            5341         2.78413
            5342         2.14396
            5343         2.68425
            5344         2.55060
            5345         2.54636
            5346         2.77895
            5347         2.93413
            5348         2.39224
            5349         2.57004
            5350         2.66129
            5351         2.66841
            5352         2.79426
            5353         2.80064
            5354         2.77799
            5355         2.51708
            5356         2.79624
            5357         2.80736
            5358         2.71670
            5359         2.41284
            5360         2.61715
            5361         2.55792
            5362         2.58279
            5363         2.67024
            5364         2.58774
            5365         2.65908
            5366         2.64507
            5367         2.67760
            5368         2.55994
            5369         2.81398
            5370         2.62118
            5371         2.63977
            5372         2.70933
            5373         2.62524
            5374         2.51272
            5375         2.69750
            5376         2.67213
            5377         2.90346
            5378         2.13847
            5379         2.57810
            5380         3.02438
            5381         2.46343
            5382         2.56931
            5383         2.66964
            5384         2.67461
            5385         2.55231
            5386         2.64725
            5387         2.56577
            5388         2.53104
            5389         2.65283
            5390         2.25025
            5391         2.70622
            5392         2.68229
            5393         2.61162
            5394         2.54534
            5395         2.69362
            5396         2.52941
            5397         2.88179
            5398         2.66519
            5399         2.35846
            5400         2.45704
            5401         2.63350
            5402         2.66026
            5403         2.64388
            5404         3.07855
            5405         2.58968
            5406         2.60341
            5407         2.77028
            5408         2.86427
            5409         2.99915
            5410         2.58468
            5411         2.76908
            5412         2.57665
            5413         2.26895
            5414         2.80934
            5415         2.54111
            5416         2.55470
            5417         2.65163
            5418         2.64867
            5419         2.72744
            5420         2.57705
            5421         2.38077
            5422         2.67494
            5423         2.64485
            5424         2.53903
            5425         2.65705
            5426         2.59609
            5427         2.52900
            5428         2.73103
            5429         2.64432
            5430         2.48351
            5431         2.90076
            5432         2.35966
            5433         2.75011
            5434         2.66538
            5435         2.69664
            5436         2.46788
            5437         2.63312
            5438         2.58059
            5439         2.56969
            5440         2.63061
            5441         2.62102
            5442         2.48092
            5443         2.65235
            5444         2.62498
            5445         2.56247
            5446         2.58358
            5447         2.47003
            5448         2.42129
            5449         2.32209
            5450         2.69581
            5451         2.71019
            5452         2.67939
            5453         2.59913
            5454         2.58651
            5455         2.55468
            5456         2.51290
            5457         2.68425
            5458         2.65476
            5459         2.66884
            5460         2.65992
            5461         2.67443
            5462         2.61909
            5463         2.52742
            5464         2.48305
            5465         2.48403
            5466         2.65455
            5467         2.58706
            5468         2.51927
            5469         2.68350
            5470         2.58687
            5471         2.59978
            5472         2.66015
            5473         2.64702
            5474         2.54728
            5475         2.45246
            5476         2.58596
            5477         2.50792
            5478         2.46990
            5479         2.55939
            5480         2.48335
            5481         2.61331
            5482         2.62873
            5483         2.42313
            5484         2.60998
            5485         2.56323
            5486         2.56813
            5487         2.59784
            5488         2.60305
            5489         2.66203
            5490         2.52625
            5491         2.52686
            5492         2.66453
            5493         2.37769
            5494         2.60379
            5495         2.58666
            5496         2.42044
            5497         2.53172
            5498         2.61342
            5499         2.61311
            5500         2.57530
            5501         2.42525
            5502         2.61075
            5503         2.59022
            5504         2.66289
            5505         2.53768
            5506         2.61227
            5507         2.60785
            5508         2.62359
            5509         2.60350
            5510         2.57798
            5511         2.55946
            5512         2.60966
            5513         2.65964
            5514         2.39560
            5515         2.52943
            5516         2.61562
            5517         2.43465
            5518         2.41128
            5519         2.52520
            5520         2.54139
            5521         2.61989
            5522         2.61913
            5523         2.62802
            5524         2.60603
            5525         2.60883
            5526         2.66779
            5527         2.34613
            5528         2.44308
            5529         2.50181
            5530         2.36734
            5531         2.47249
            5532         2.50032
            5533         2.56162
            5534         2.61729
            5535         2.61162
            5536         2.56880
            5537         2.41393
            5538         2.53291
            5539         2.62713
            5540         2.44582
            5541         2.48833
            5542         2.61821
            5543         2.63575
            5544         2.61028
            5545         2.59881
            5546         2.61874
            5547         2.66939
            5548         2.41780
            5549         2.32964
            5550         2.33756
            5551         2.35859
            5552         2.49274
            5553         2.54638
            5554         2.57484
            5555         2.37248
            5556         2.51033
            5557         2.61323
            5558         2.62258
            5559         2.67073
            5560         2.65233
            5561         2.32998
            5562         2.60467
            5563         2.63184
            5564         2.40756
            5565         2.61058
            5566         2.45364
            5567         2.59523
            5568         2.63687
            5569         2.53260
            5570         2.66397
            5571         2.65430
            5572         2.64960
            5573         2.29400
            5574         2.67018
            5575         2.63568
            5576         2.61555
            5577         2.61438
            5578         2.61240
            5579         2.55011
            5580         2.67305
            5581         2.64250
            5582         2.31647
            5583         2.66457
            5584         2.49027
            5585         2.58667
            5586         2.48172
            5587         2.57335
            5588         2.59468
            5589         2.56578
            5590         2.61036
            5591         2.67824
            5592         2.39016
            5593         2.25977
            5594         2.66227
            5595         2.66698
            5596         2.46454
            5597         2.65467
            5598         2.61433
            5599         2.20047
            5600         2.66378
            5601         2.35027
            5602         2.65594
            5603         2.68030
            5604         2.64630
            5605         2.62175
            5606         2.59918
            5607         2.23878
            5608         2.67451
            5609         2.65417
            5610         2.62072
            5611         2.48264
            5612         2.66411
            5613         2.14299
            5614         2.68041
            5615         2.23391
            5616         2.42573
            5617         2.62238
            5618         2.60459
            5619         2.66464
            5620         2.61506
            5621         2.51201
            5622         2.43581
            5623         2.68435
            5624         2.61418
            5625         2.68585
            5626         2.61427
            5627         2.49086
            5628         2.62634
            5629         2.59219
            5630         2.65387
            5631         2.67447
            5632         2.61088
            5633         2.53935
            5634         2.19539
            5635         2.62944
            5636         2.67682
            5637         2.62206
            5638         2.60698
            5639         2.63002
            5640         2.69031
            5641         2.53977
            5642         2.24296
            5643         2.63172
            5644         2.57911
            5645         2.67550
            5646         2.56198
            5647         2.68982
            5648         2.68370
            5649         2.67539
            5650         2.63212
            5651         2.60085
            5652         2.63184
            5653         2.62794
            5654         2.70145
            5655         2.57858
            5656         2.64977
            5657         2.68035
            5658         2.66211
            5659         2.64308
            5660         2.63108
            5661         2.59917
            5662         2.64451
            5663         2.70260
            5664         2.69231
            5665         2.56530
            5666         2.59865
            5667         2.67418
            5668         2.57555
            5669         2.65965
            5670         2.67372
            5671         2.65206
            5672         2.61139
            5673         2.58996
            5674         2.64305
            5675         2.58098
            5676         2.60622
            5677         2.68786
            5678         2.66355
            5679         2.64845
            5680         2.68787
            5681         2.60638
            5682         2.69777
            5683         2.63136
            5684         2.67795
            5685         2.64615
            5686         2.70097
            5687         2.64976
            5688         2.67137
            5689         2.66932
            5690         2.69718
            5691         2.71072
            5692         2.71362
            5693         2.73183
            5694         2.69956
            5695         2.74271
            5696         2.60418
            5697         2.65462
            5698         2.71171
            5699         2.43041
            5700         2.70895
            5701         3.09255
            5702         2.72521
            5703         2.62987
            5704         3.04256
            5705         5.07420
            5706         2.61558
            5707         2.28426
            5708         2.68373
            5709         2.26438
            5710         2.61003
            5711         2.71108
            5712         2.59170
            5713         2.28033
            5714         2.70244
            5715         2.58493
            5716         2.64490
            5717         2.21366
            5718         2.52067
            5719         2.88209
            5720         5.74669
            5721         2.84321
            5722         5.19621
            5723         4.08968
            5724         2.57233
            5725         5.82998
            5726         5.83960
            5727         2.59316
            5728         2.21656
            5729         5.58550
            5730         2.63452
            5731         2.58845
            5732     909.556E-03
            5733         2.68463
            5734         3.22295
            5735         5.72182
            5736         2.53646
            5737         4.30501
            5738         5.68550
            5739         1.63523
            5740         2.81642
            5741         4.81455
            5742         4.78733
            5743         3.47889
            5744         4.64935
            5745         2.65687
            5746         2.22904
            5747         2.55910
            5748         5.69028
            5749         1.58740
            5750         5.60362
            5751         3.94856
            5752         3.71005
            5753         4.85363
            5754         5.72750
            5755         4.48990
            5756         3.08165
            5757         1.23245
            5758     423.744E-03
            5759         2.14353
            5760         2.31328
            5761         5.68239
            5762         5.26556
            5763         2.58357
            5764         2.57213
            5765         2.72292
            5766         5.56134
            5767         2.40438
            5768         2.58220
            5769         4.44414
            5770         4.29962
            5771         2.18445
            5772         2.55559
            5773         2.23112
            5774         2.78166
            5775         2.68689
            5776         5.69965
            5777         3.39654
            5778         5.97068
            5779         2.20584
            5780         2.62863
            5781         6.47107
            5782         5.74204
            5783         6.61664
            5784         5.84169
            5785         2.65205
            5786         5.56386
            5787         2.30850
            5788         5.79376
            5789         2.71811
            5790         12.9695
            5791         5.35651
            5792         3.76233
            5793         2.02873
            5794         2.77879
            5795         2.75614
            5796         2.70767
            5797         2.61233
            5798         2.71560
            5799         3.28188
            5800         2.72668
            5801         2.64182
            5802         2.23556
            5803         2.59269
            5804         5.63156
            5805         2.59110
            5806         2.56619
            5807         5.58877
            5808         2.15967
            5809         5.31008
            5810         5.66963
            5811         2.59176
            5812         2.59353
            5813         2.07598
            5814         2.64051
            5815         2.53771
            5816         2.68312
            5817         5.65281
            5818         6.50026
            5819     465.327E-03
            5820         1.17948
            5821     33.1391E-03
            5822     574.995E-03
            5823     160.969E-03
            5824         1.07414
            5825     265.216E-03
            5826         5.45453
            5827         3.28886
            5828     620.040E-03
            5829     116.551E-03
            5830     20.6434E-03
            5831         1.42609
            5832         2.99256
            5833         4.96663
            5834         5.84138
            5835         6.18824
            5836         6.20553
            5837         6.01657
            5838         5.83148
            5839         5.71647
            5840         5.70154
            5841         5.78481
            5842         6.04625
            5843         6.46518
            5844         6.95821
            5845         7.41063
            5846         7.46215
            5847         5.17303
            5848         4.00054
            5849         3.31204
            5850         2.89876
            5851         2.71835
            5852         2.63403
            5853         2.64649
            5854         2.64180
            5855         2.67109
            5856         2.73725
            5857         2.74266
            5858         2.74768
            5859         2.74565
            5860         2.74529
            5861         2.74293
            5862         2.72535
            5863         2.71231
            5864         2.69468
            5865         2.67593
            5866         2.65855
            5867         2.64127
            5868         2.63256
            5869         2.63434
            5870         2.64659
            5871         2.67630
            5872         2.72990
            5873         2.78521
            5874         2.75311
            5875         2.49195
            5876         2.08954
            5877         7.51884
            5878         6.40381
            5879         5.87126
            5880         5.59135
            5881         5.53280
            5882         5.62423
            5883         5.83576
            5884         6.21068
            5885         6.74667
            5886         1.28380
            5887         2.27995
            5888         3.58106
            5889         4.60915
            5890         5.32627
            5891         5.55159
            5892         5.64823
            5893         5.63399
            5894         5.67307
            5895         5.71359
            5896         5.80822
            5897         5.96774
            5898         6.23889
            5899         6.45191
            5900         6.47773
            5901         6.25918
            5902         5.76345
            5903         4.96785
            5904         4.12368
            5905         3.63302
            5906         3.29468
            5907         3.11583
            5908         2.99906
            5909         2.94091
            5910         2.97118
            5911         2.98645
            5912         2.93480
            5913         2.92451
            5914         2.90163
            5915         2.88314
            5916         2.83798
            5917         2.81192
            5918         2.77092
            5919         2.73463
            5920         2.69799
            5921         2.66249
            5922         2.63132
            5923         2.59796
            5924         2.56601
            5925         2.54946
            5926         2.52394
            5927         2.49416
            5928         2.47338
            5929         2.39208
            5930         2.19158
            5931         1.87333
            5932         1.44658
            5933     872.027E-03
            5934     339.314E-03
            5935     862.553E-03
            5936         1.42907
            5937         2.17077
            5938         2.90497
            5939         3.53042
            5940         4.09071
            5941         4.59710
            5942         4.93000
            5943         5.13354
            5944         5.33702
            5945         5.49480
            5946         5.63131
            5947         5.71158
            5948         5.72637
            5949         5.65817
            5950         5.49675
            5951         5.27123
            5952         4.99079
            5953         4.71458
            5954         4.44021
            5955         4.23224
            5956         4.13879
            5957         3.92895
            5958         3.84232
            5959         3.72775
            5960         3.61987
            5961         3.52819
            5962         3.41571
            5963         3.32156
            5964         3.20348
            5965         3.09629
            5966         2.97917
            5967         2.88483
            5968         2.79057
            5969         2.69025
            5970         2.59730
            5971         2.50628
            5972         2.42057
            5973         2.34013
            5974         2.21422
            5975         2.11203
            5976         2.00110
            5977         1.84780
            5978         1.65679
            5979         1.40911
            5980         1.12190
            5981     793.922E-03
            5982     452.644E-03
            5983     197.064E-03
            5984     679.991E-03
            5985         1.02006
            5986         1.42489
            5987         1.77696
            5988         1.97371
            5989         2.12617
            5990         2.28199
            5991         2.33176
            5992         2.39928
            5993         2.46527
            5994         2.53111
            5995         2.58474
            5996         2.63492
            5997         2.69478
            5998         2.75819
            5999         2.81873
            6000         2.88633
            6001         2.95504
            6002         3.02745
            6003         3.09363
            6004         3.12747
            6005         3.20614
            6006         3.26030
            6007         3.31892
            6008         3.37696
            6009         3.43715
            6010         3.56501
            6011         3.76584
            6012         4.04557
            6013         4.33744
            6014         4.82576
            6015         5.31919
            6016         5.64745
            6017         5.87996
            6018         6.03290
            6019         5.93627
            6020         5.82606
            6021         5.69996
            6022         5.57699
            6023         5.45506
            6024         5.33445
            6025         5.14906
            6026         4.79745
            6027         4.26913
            6028         3.63983
            6029         2.74076
            6030         1.92379
            6031         1.11164
            6032         1.72298
            6033         2.26894
            6034         2.96632
            6035         3.51633
            6036         4.03690
            6037         4.39626
            6038         4.75377
            6039         5.06125
            6040         5.25655
            6041         5.42786
            6042         5.58038
            6043         5.66230
            6044         5.68684
            6045         5.64610
            6046         5.54308
            6047         5.39746
            6048         5.23059
            6049         5.04826
            6050         4.88746
            6051         4.67020
            6052         4.55385
            6053         4.37103
            6054         4.20364
            6055         3.99591
            6056         3.88616
            6057         3.73314
            6058         3.59428
            6059         3.41116
            6060         3.25988
            6061         3.10942
            6062         2.94879
            6063         2.82787
            6064         2.69453
            6065         2.56625
            6066         2.44006
            6067         2.31507
            6068         2.19674
            6069         2.04259
            6070         1.88443
            6071         1.74404
            6072         1.58080
            6073         1.33362
            6074         1.11744
            6075     812.966E-03
            6076     604.759E-03
            6077     352.162E-03
            6078     155.438E-03
            6079     422.966E-03
            6080     808.916E-03
            6081         1.24686
            6082         1.77221
            6083         2.33840
            6084         2.94056
            6085         3.47694
            6086         3.97047
            6087         4.51508
            6088         4.95355
            6089         5.48573
            6090         5.86765
            6091         6.20496
            6092         6.49188
            6093         6.68219
            6094         6.80655
            6095         6.83552
            6096         6.74126
            6097         6.53445
            6098         6.35048
            6099         6.13004
            6100         5.82851
            6101         5.60520
            6102         5.32443
            6103         5.03212
            6104         4.79149
            6105         4.51916
            6106         4.27547
            6107         4.01583
            6108         3.75614
            6109         3.50827
            6110         3.23910
            6111         3.01878
            6112         2.77965
            6113         2.57305
            6114         2.31816
            6115         2.11357
            6116         1.91161
            6117         1.68253
            6118         1.46091
            6119         1.25403
            6120         1.05054
            6121     834.737E-03
            6122     625.693E-03
            6123     427.201E-03
            6124     251.882E-03
            6125     111.250E-03
            6126     18.7583E-03
            6127     78.4570E-03
            6128     208.494E-03
            6129     389.995E-03
            6130     612.844E-03
            6131     841.487E-03
            6132         1.11002
            6133         1.28755
            6134         1.49179
            6135         1.65958
            6136         1.86677
            6137         2.02006
            6138         2.19553
            6139         2.37149
            6140         2.54654
            6141         2.72325
            6142         2.89871
            6143         3.09374
            6144         3.30454
            6145         3.48676
            6146         3.67729
            6147         3.91800
            6148         4.10177
            6149         4.30862
            6150         4.52346
            6151         4.72100
            6152         4.96236
            6153         5.18956
            6154         5.41791
            6155         5.61140
            6156         5.70436
            6157         5.79621
            6158         5.99420
            6159         6.04971
            6160         6.05248
            6161         5.95375
            6162         5.83987
            6163         5.61835
            6164         5.35870
            6165         5.04573
            6166         4.71979
            6167         4.35576
            6168         3.93571
            6169         3.44035
            6170         2.92401
            6171         2.37679
            6172         1.73818
            6173         1.21512
            6174     767.472E-03
            6175     363.766E-03
            6176     151.927E-03
            6177     395.566E-03
            6178     757.260E-03
            6179         1.25635
            6180         1.76629
            6181         2.40484
            6182         3.08954
            6183         3.77250
            6184         4.47329
            6185         5.13718
            6186         5.77117
            6187         6.44349
            6188         6.92504
            6189         7.34529
            6190         7.75968
            6191         7.93344
            6192         7.94228
            6193         7.79511
            6194         7.59611
            6195         7.27116
            6196         6.95803
            6197         6.58723
            6198         6.32379
            6199         5.99523
            6200         5.62470
            6201         5.32060
            6202         5.00511
            6203         4.68401
            6204         4.32703
            6205         4.10540
            6206         3.79812
            6207         3.43643
            6208         3.18856
            6209         2.92195
            6210         2.66350
            6211         2.36805
            6212         2.09916
            6213         1.82828
            6214         1.55523
            6215         1.28016
            6216         1.03907
            6217     801.878E-03
            6218     579.350E-03
            6219     373.099E-03
            6220     229.568E-03
            6221     108.379E-03
            6222     27.9523E-03
            6223     22.4490E-03
            6224         3.13499
            6225         2.91700
            6226         2.78442
            6227         2.71099
            6228         2.67573
            6229         2.66051
            6230         2.66049
            6231         2.66689
            6232         2.67552
            6233         2.68392
            6234         2.68917
            6235         2.69125
            6236         2.68812
            6237         2.67829
            6238         2.65638
            6239         2.63002
            6240         2.58576
            6241         2.52467
            6242         2.46933
            6243         2.39649
            6244         2.33873
            6245         2.30567
            6246         2.35283
            6247         2.48315
            6248         2.88941
            6249         3.75615
            6250         3.40798
            6251         3.00200
            6252         2.80501
            6253         2.71452
            6254         2.66807
            6255         2.65509
            6256         2.65408
            6257         2.65766
            6258         2.66292
            6259         2.66433
            6260         2.66508
            6261         2.65952
            6262         2.64655
            6263         2.62763
            6264         2.59182
            6265         2.55288
            6266         2.50226
            6267         2.42609
            6268         2.34293
            6269         2.25476
            6270         2.16132
            6271         2.08626
            6272         2.04374
            6273         2.13538
            6274         2.46945
            6275         2.95871
            6276         2.77063
            6277         2.67769
            6278         2.63946
            6279         2.62613
            6280         2.62947
            6281         2.63674
            6282         2.64135
            6283         2.64409
            6284         2.64219
            6285         2.63381
            6286         2.61847
            6287         2.59666
            6288         2.55636
            6289         2.51191
            6290         2.45560
            6291         2.37777
            6292         2.28312
            6293         2.17947
            6294         2.07040
            6295         1.97061
            6296         1.89875
            6297         1.91175
            6298         2.09106
            6299         2.88192
            6300         2.70883
            6301         2.63661
            6302         2.59670
            6303         2.58892
            6304         2.60269
            6305         2.60743
            6306         2.61530
            6307         2.62086
            6308         2.62219
            6309         2.61807
            6310         2.60514
            6311         2.58496
            6312         2.55571
            6313         2.51333
            6314         2.46436
            6315         2.39090
            6316         2.30505
            6317         2.20860
            6318         2.10656
            6319         1.99001
            6320         1.91597
            6321         1.92486
            6322         2.15736
            6323         3.07675
            6324         2.81693
            6325         2.65902
            6326         2.56413
            6327         2.51189
            6328         2.49443
            6329         2.49799
            6330         2.51303
            6331         2.53337
            6332         2.55347
            6333         2.57652
            6334         2.59836
            6335         2.61621
            6336         2.62996
            6337         2.64142
            6338         2.64786
            6339         2.64493
            6340         2.63584
            6341         2.61079
            6342         2.57588
            6343         2.52608
            6344         2.48120
            6345         2.44494
            6346         2.48419
            6347         2.66388
            6348         3.08129
            6349         3.91250
            6350         2.60753
            6351         2.23424
            6352         2.15794
            6353         2.17732
            6354         2.24629
            6355         2.32456
            6356         2.39742
            6357         2.47075
            6358         2.52512
            6359         2.55914
            6360         2.58617
            6361         2.60329
            6362         2.61051
            6363         2.61163
            6364         2.60656
            6365         2.59636
            6366         2.58390
            6367         2.57390
            6368         2.55642
            6369         2.54836
            6370         2.55079
            6371         2.57848
            6372         2.65240
            6373         2.83657
            6374         3.15709
            6375         6.14301
            6376     525.677E-03
            6377         1.04714
            6378         1.63231
            6379         2.05246
            6380         2.36834
            6381         2.41941
            6382         2.43235
            6383         2.41582
            6384         2.39376
            6385         2.40930
            6386         2.42992
            6387         2.45081
            6388         2.48603
            6389         2.51584
            6390         2.56136
            6391         2.59772
            6392         2.63653
            6393         2.67616
            6394         2.70517
            6395         2.74433
            6396         2.77166
            6397         2.79443
            6398         2.81049
            6399         2.81222
            6400         2.80517
            6401         2.81029
            6402         2.86134
            6403         2.96444
            6404         3.08537
            6405         3.48520
            6406         4.11945
            6407         5.09552
            6408         6.92388
            6409         7.07648
            6410         6.69366
            6411         6.27685
            6412         5.83626
            6413         5.59746
            6414         5.48691
            6415         5.46337
            6416         5.50931
            6417         5.62566
            6418         5.74141
            6419         5.64083
            6420         5.17283
            6421         4.04953
            6422         2.55016
            6423         1.04704
            6424         6.97223
            6425         6.31170
            6426         5.87754
            6427         5.58329
            6428         5.44833
            6429         5.38501
            6430         5.48415
            6431         5.70686
            6432         6.30987
            6433         7.28072
            6434         1.18336
            6435     705.713E-03
            6436     265.459E-03
            6437     674.091E-03
            6438         1.07965
            6439         1.54045
            6440         1.84385
            6441         2.00152
            6442         2.11153
            6443         2.17105
            6444         2.21954
            6445         2.26960
            6446         2.32233
            6447         2.37445
            6448         2.42233
            6449         2.47464
            6450         2.53803
            6451         2.60323
            6452         2.67112
            6453         2.73552
            6454         2.80548
            6455         2.87279
            6456         2.94076
            6457         2.99292
            6458         3.05281
            6459         3.11108
            6460         3.15208
            6461         3.20809
            6462         3.29491
            6463         3.43379
            6464         3.60667
            6465         3.88518
            6466         4.36504
            6467         4.93376
            6468         5.62893
            6469         6.09968
            6470         6.22532
            6471         6.16052
            6472         5.98674
            6473         5.76068
            6474         5.58172
            6475         5.45363
            6476         5.34649
            6477         5.26544
            6478         5.11499
            6479         4.95406
            6480         4.61439
            6481         3.89734
            6482         2.86680
            6483         1.81180
            6484     813.709E-03
            6485     426.815E-03
            6486     800.151E-03
            6487         1.12866
            6488         1.41367
            6489         1.64753
            6490         1.80873
            6491         1.96861
            6492         2.03689
            6493         2.12372
            6494         2.19842
            6495         2.26850
            6496         2.35389
            6497         2.43757
            6498         2.52915
            6499         2.62301
            6500         2.72618
            6501         2.81982
            6502         2.93726
            6503         3.06142
            6504         3.15882
            6505         3.26206
            6506         3.39602
            6507         3.47416
            6508         3.56977
            6509         3.67002
            6510         3.80180
            6511         3.92329
            6512         4.17528
            6513         4.43693
            6514         4.73318
            6515         5.06560
            6516         5.41178
            6517         5.68153
            6518         5.80650
            6519         5.83180
            6520         5.73857
            6521         5.59247
            6522         5.41709
            6523         5.26491
            6524         5.04946
            6525         4.86928
            6526         4.62936
            6527         4.21033
            6528         3.67510
            6529         3.03153
            6530         2.25334
            6531         1.33121
            6532     57.4996E-03
            6533     186.274E-03
            6534     378.184E-03
            6535     565.303E-03
            6536     834.849E-03
            6537         1.04188
            6538         1.23831
            6539         1.44907
            6540         1.61865
            6541         1.76892
            6542         1.91298
            6543         2.07890
            6544         2.24130
            6545         2.40535
            6546         2.57030
            6547         2.77811
            6548         2.94379
            6549         3.13579
            6550         3.30112
            6551         3.50424
            6552         3.74133
            6553         3.93044
            6554         4.17051
            6555         4.35915
            6556         4.57587
            6557         4.82922
            6558         5.00710
            6559         5.22893
            6560         5.50291
            6561         5.61212
            6562         5.84510
            6563         6.04761
            6564         6.06918
            6565         6.09556
            6566         6.02062
            6567         5.88312
            6568         5.63484
            6569         5.38053
            6570         5.07953
            6571         4.75203
            6572         4.29216
            6573         3.91389
            6574         3.43362
            6575         2.99434
            6576         2.36627
            6577         1.67191
            6578         1.12081
            6579     678.273E-03
            6580     283.298E-03
            6581     438.678E-03
            6582         1.00810
            6583         1.68508
            6584         2.33440
            6585         3.02692
            6586         3.49529
            6587         4.06971
            6588         4.40899
            6589         4.67924
            6590         4.97194
            6591         5.22751
            6592         5.44730
            6593         5.61027
            6594         5.72634
            6595         5.76304
            6596         5.72806
            6597         5.60504
            6598         5.39534
            6599         5.21239
            6600         4.94818
            6601         4.76126
            6602         4.56721
            6603         4.33628
            6604         4.15393
            6605         4.02555
            6606         3.88824
            6607         3.74147
            6608         3.56794
            6609         3.41635
            6610         3.26878
            6611         3.09721
            6612         2.94297
            6613         2.81557
            6614         2.68830
            6615         2.54888
            6616         2.40090
            6617         2.29023
            6618         2.17055
            6619         2.05958
            6620         1.96499
            6621         1.82921
            6622         1.72600
            6623         1.54906
            6624         1.35922
            6625         1.10414
            6626     842.149E-03
            6627     551.011E-03
            6628     293.209E-03
            6629     83.0700E-03
            6630     13.2387E-03
            6631     108.598E-03
            6632     218.700E-03
            6633     379.402E-03
            6634     581.688E-03
            6635     796.496E-03
            6636         1.00474
            6637         1.23271
            6638         1.41877
            6639         1.62405
            6640         1.81189
            6641         2.03999
            6642         2.23373
            6643         2.43089
            6644         2.66440
            6645         2.89594
            6646         3.11323
            6647         3.33346
            6648         3.57306
            6649         3.80740
            6650         4.06766
            6651         4.32668
            6652         4.56203
            6653         4.88930
            6654         5.17270
            6655         5.45091
            6656         5.70455
            6657         5.99233
            6658         6.25610
            6659         6.53860
            6660         6.71552
            6661         6.86098
            6662         6.86337
            6663         6.78137
            6664         6.58347
            6665         6.25191
            6666         5.87654
            6667         5.48058
            6668         5.04467
            6669         4.49731
            6670         3.94925
            6671         3.43333
            6672         2.91191
            6673         2.33639
            6674         1.75579
            6675         1.24095
            6676     756.111E-03
            6677     369.300E-03
            6678     94.5423E-03
            6679     20.5279E-03
            6680     88.5820E-03
            6681     211.309E-03
            6682     396.735E-03
            6683     538.627E-03
            6684     762.590E-03
            6685         1.05597
            6686         1.27676
            6687         1.52248
            6688         1.76466
            6689         2.02664
            6690         2.29372
            6691         2.54458
            6692         2.80913
            6693         3.09353
            6694         3.34611
            6695         3.61241
            6696         3.89386
            6697         4.20248
            6698         4.47451
            6699         4.77249
            6700         5.06777
            6701         5.44203
            6702         5.74042
            6703         6.14064
            6704         6.49317
            6705         6.84785
            6706         7.19207
            6707         7.45677
            6708         7.83390
            6709         8.02621
            6710         7.91983
            6711         7.84433
            6712         7.56869
            6713         7.15597
            6714         6.47086
            6715         5.89691
            6716         5.17693
            6717         4.44421
            6718         3.71324
            6719         3.04225
            6720         2.36785
            6721         1.72688
            6722         1.13944
            6723     729.699E-03
            6724     387.224E-03
            6725     136.896E-03
            6726     39.6750E-03
            6727         6.64719
            6728         5.95050
            6729         5.53976
            6730         5.32586
            6731         5.22200
            6732         5.23533
            6733         5.43368
            6734         6.00359
            6735         5.80187
            6736         5.45292
            6737         5.24048
            6738         5.09436
            6739         5.03825
            6740         5.11129
            6741         6.51191
            6742         5.82919
            6743         5.48945
            6744         5.23806
            6745         5.11283
            6746         5.03919
            6747         5.07750
            6748         5.41658
            6749         6.95691
            6750         6.10441
            6751         5.69599
            6752         5.44397
            6753         5.30537
            6754         5.28781
            6755         5.46468
            6756         5.95263
            6757     824.568E-03
            6758         3.18930
            6759     890.258E-03
            6760     739.283E-03
            6761         1.15125
            6762         3.45536
            6763     470.993E-03
            6764     739.636E-03
            6765         3.25502
            6766         3.25281
            6767         3.35888
            6768         3.31453
            6769     466.305E-03
            6770         3.44941
            6771         3.01073
            6772         1.51271
            6773         2.46810
            6774         6.64018
            6775         7.29326
            6776         2.04901
            6777         3.74805
            6778         7.35955
            6779     542.525E-03
            6780         7.50673
            6781         7.09787
            6782         6.58986
            6783         6.85538
            6784         2.98849
            6785         1.27922
            6786         6.38469
            6787         6.71851
            6788     671.871E-03
            6789     804.984E-03
            6790     332.358E-03
            6791     419.968E-03
            6792     19.2765E-03
            6793     25.5551E-03
            6794     159.513E-03
            6795     126.641E-03
            6796     685.156E-03
            6797     98.4078E-03
            6798     275.568E-03
            6799     458.550E-03
            6800     612.122E-03
            6801     778.167E-03
            6802     782.263E-03
            6803     798.949E-03
            6804     744.002E-03
            6805     590.743E-03
            6806     320.760E-03
            6807     226.384E-03
            6808     132.071E-03
            6809     128.240E-03
            6810     120.063E-03
            6811     112.112E-03
            6812     80.6557E-03
            6813     40.3966E-03
            6814     13.6157E-03
            6815     13.3929E-03
            6816     23.2394E-03
            6817     20.5420E-03
            6818     37.6129E-03
            6819     121.105E-03
            6820     48.7534E-03
            6821     14.2375E-03
            6822     56.7815E-03
            6823     196.508E-03
            6824         5.10149
            6825         4.50016
            6826         4.51858
            6827         5.97882
            6828         5.96334
            6829         7.07261
            6830         3.76106
            6831         3.18628
            6832         5.27843
            6833         2.24221
            6834         7.63835
            6835         2.60576
            6836         5.91888
            6837         5.65786
            6838         8.01096
            6839         2.73097
            6840         6.52941
            6841         6.92427
            6842         2.38462
            6843         3.33573
            6844         7.10715
            6845         2.30616
            6846         7.00397
            6847         6.51594
            6848         3.93268
            6849         6.39516
            6850         7.88126
            6851         7.51237
            6852         7.91243
            6853         7.73108
            6854         5.29056
            6855         3.58619
            6856         4.38510
            6857         4.78519
            6858         5.21828
            6859         4.37187
            6860         2.81373
            6861         1.85868
            6862         2.44520
            6863     34.7409E-03
            6864     17.2089E-03
            6865     140.492E-03
            6866     383.343E-03
            6867     532.118E-03
            6868     920.941E-03
            6869         1.26627
            6870         5.56393
            6871         5.94300
            6872         6.69183
            6873         7.32998
            6874         7.61274
            6875         8.08291
            6876         8.43114
            6877         8.53096
            6878         3.26468
            6879         3.40060
            6880         8.60832
            6881         8.65418
            6882         8.47531
            6883         8.26209
            6884         8.07918
            6885         7.72326
            6886         7.34546
            6887         7.14447
            6888         6.77173
            6889         6.59034
            6890         6.20326
            6891         5.84430
            6892         5.67440
            6893         5.33450
            6894         5.00758
            6895         4.86026
            6896         4.53011
            6897         4.38783
            6898         4.07652
            6899         3.82025
            6900         3.65761
            6901         3.37421
            6902         3.08768
            6903         2.65382
            6904         2.50061
            6905         2.20396
            6906         1.90923
            6907         1.76024
            6908         1.46321
            6909         1.17731
            6910         1.04123
            6911     781.916E-03
            6912     666.117E-03
            6913     448.105E-03
            6914     258.006E-03
            6915     203.678E-03
            6916     92.8084E-03
            6917     23.2282E-03
            6918     12.5439E-03
            6919     23.3062E-03
            6920     21.7402E-03
            6921         2.98407
            6922     133.080E-03
            6923     20.5340E-03
            6924     13.5780E-03
            6925     20.8420E-03
            6926     244.640E-03
            6927     39.2983E-03
            6928     14.6598E-03
            6929     16.3465E-03
            6930     20.1786E-03
            6931     86.9499E-03
            6932     567.611E-03
            6933     775.047E-03
            6934     361.134E-03
            6935     911.941E-03
            6936         1.17629
            6937         1.44916
            6938         1.58756
            6939         1.86363
            6940         2.00436
            6941         2.28904
            6942         2.56455
            6943         2.70372
            6944         3.67445
            6945         3.81005
            6946         4.08437
            6947         4.38560
            6948         4.49658
            6949         4.78981
            6950         5.10587
            6951         5.26699
            6952         5.61876
            6953         5.79941
            6954         6.15448
            6955         6.57607
            6956         6.78085
            6957         7.19252
            6958         7.61394
            6959         7.83710
            6960         8.11616
            6961         8.36405
            6962         8.47403
            6963         8.68576
            6964         8.65328
            6965         8.58673
            6966         8.29201
            6967         7.51320
            6968         7.15225
            6969         6.43323
            6970         5.63285
            6971         3.55548
            6972         3.16221
            6973         2.40816
            6974         2.07960
            6975         1.43210
            6976     866.886E-03
            6977     695.156E-03
            6978     354.288E-03
            6979     123.331E-03
            6980     49.0827E-03
            6981     42.3467E-03
            6982     47.1453E-03
            6983     22.3964E-03
            6984     132.436E-03
            6985     239.356E-03
            6986     365.785E-03
            6987     383.185E-03
            6988         8.08188
            6989         2.94498
            6990     281.023E-03
            6991     523.704E-03
            6992     17.4240E-03
            6993     52.5225E-03
            6994     144.597E-03
            6995     380.290E-03
            6996     587.160E-03
            6997     909.641E-03
            6998         1.31736
            6999         1.61085
            7000         2.05803
            7001         2.35084
            7002         2.80192
            7003         3.23135
            7004         3.51407
            7005         3.97791
            7006         4.27651
            7007         4.72478
            7008         5.17055
            7009         5.50291
            7010         6.01340
            7011         6.40274
            7012         6.94940
            7013         7.53734
            7014         7.90087
            7015         8.19308
            7016         8.38717
            7017         8.58442
            7018         8.28377
            7019         7.86328
            7020         7.02817
            7021         6.32087
            7022         5.17843
            7023         3.98214
            7024         3.19670
            7025         2.12168
            7026         1.47989
            7027     687.101E-03
            7028     247.986E-03
            7029     62.3325E-03
            7030     46.0386E-03
            7031     18.1437E-03
            7032     18.3370E-03
            7033     9.68472E-03
            7034     11.6185E-03
            7035     17.1869E-03
            7036     21.1197E-03
            7037     76.1677E-03
            7038     151.325E-03
            7039     363.375E-03
            7040     17.2674E-03
            7041     224.207E-03
            7042     512.675E-03
            7043         1.20544
            7044         1.81722
            7045         2.77873
            7046         3.95793
            7047         4.79365
            7048         6.04684
            7049         6.79543
            7050         7.82561
            7051         8.46244
            7052         8.65041
            7053         8.76513
            7054         8.56931
            7055         8.04777
            7056         7.40453
            7057         6.98501
            7058         6.35894
            7059         5.97530
            7060         5.43622
            7061         4.94584
            7062         4.63779
            7063         4.18366
            7064         3.89345
            7065         3.53682
            7066         3.12692
            7067         2.84347
            7068         2.42744
            7069         2.14688
            7070         1.72518
            7071         1.31107
            7072         1.04391
            7073     655.026E-03
            7074     434.901E-03
            7075     185.428E-03
            7076     46.7102E-03
            7077     11.9067E-03
            7078     18.6663E-03
            7079     566.444E-03
            7080     386.714E-03
            7081     420.716E-03
            7082     357.176E-03
            7083     279.762E-03
            7084     187.100E-03
            7085     76.6059E-03
            7086     30.1151E-03
            7087     42.2582E-03
            7088     47.2318E-03
            7089         3.25313
            7090         1.16256
            7091         2.13629
            7092         2.56345
            7093         1.49861
            7094         2.87780
            7095         2.73711
            7096         5.17352
            7097         1.79456
            7098         6.06674
            7099         3.61842
            7100         6.63592
            7101         5.79272
            7102         1.38834
            7103         3.43952
            7104         3.33251
            7105         6.25406
            7106         2.29090
            7107     843.726E-03
            7108         7.45313
            7109         6.35431
            7110         2.10440
            7111         4.42582
            7112         4.99662
            7113         5.66167
            7114         2.26056
            7115         6.39195
            7116         3.07332
            7117         1.95923
            7118         4.06788
            7119     842.001E-03
            7120     602.651E-03
            7121         6.32144
            7122         6.38346
            7123         1.83824
            7124         3.30759
            7125         5.13639
            7126         6.99692
            7127         6.41514
            7128     14.3255E-03
            7129     202.612E-03
            7130     901.808E-03
            7131         1.20008
            7132     250.294E-03
            7133     32.1139E-03
            7134     39.3028E-03
            7135         6.53277
            7136         2.70745
            7137     492.243E-03
            7138         8.12521
            7139         3.50904
            7140     20.7769E-03
            7141         2.66691
            7142     24.4664E-03
            7143     560.768E-03
            7144     107.531E-03
            7145     12.5943E-03
            7146         1.96795
            7147         2.24051
            7148         3.07932
            7149         3.34860
            7150         5.22375
            7151         6.56665
            7152         6.82176
            7153         6.22321
            7154         4.12707
            7155     220.777E-03
            7156     14.1552E-03
            7157     74.3297E-03
            7158     28.9606E-03
            7159         5.62199
            7160         6.29892
            7161         7.87680
            7162         8.09810
            7163         6.77225
            7164         5.33336
            7165         2.43621
            7166         2.17573
            7167         1.39032
            7168         1.14465
            7169     37.5674E-03
            7170     142.404E-03
            7171         4.91351
            7172     897.576E-03
            7173     122.054E-03
            7174         7.15605
            7175         3.40861
            7176         1.00290
            7177         6.29541
            7178         3.15833
            7179         6.84324
            7180         2.44877
            7181         2.69456
            7182         5.82891
            7183         2.04703
            7184     855.926E-03
            7185     235.651E-03
            7186         1.13732
            7187     316.482E-03
            7188         6.51754
            7189         5.85813
            7190         3.04930
            7191         2.87548
            7192         7.60452
            7193         3.39245
            7194     986.358E-03
            7195         2.83461
            7196         2.81330
            7197     160.073E-03
            7198         1.03279
            7199         2.51711
            7200     416.812E-03
            7201         3.48793
            7202         3.24920
            7203         1.20697
            7204         7.56047
            7205         6.25427
            7206     683.573E-03
            7207     181.633E-03
            7208         4.72091
            7209         6.74691
            7210         7.02477
            7211     71.7180E-03
            7212         1.71476
            7213         4.13599
            7214         2.98981
            7215         1.43259
            7216         7.30383
            7217         3.97563
            7218         4.01454
            7219         3.03038
            7220         5.84280
            7221         6.77963
            7222         6.33465
            7223         2.03443
            7224         5.92353
            7225         5.63272
            7226         3.61591
            7227     750.402E-03
            7228     975.982E-03
            7229     373.051E-03
            7230     74.6932E-03
            7231         5.94518
            7232         6.36635
            7233         4.97366
            7234         5.15824
            7235         5.24017
            7236     55.9789E-03
            7237     251.321E-03
            7238         1.73848
            7239     717.503E-03
            7240         4.84622
            7241         3.11995
            7242         3.13844
            7243     452.509E-03
            7244         5.99908
            7245         6.52349
            7246         7.02672
            7247         7.29788
            7248     108.815E-03
            7249     19.9901E-03
            7250         1.94876
            7251         2.10623
            7252         2.80140
            7253         5.05624
            7254     83.5918E-03
            7255         6.21786
            7256         5.12398
            7257     14.8369E-03
            7258         6.46177
            7259         2.37794
            7260         1.97628
            7261         5.45135
            7262         2.53930
            7263         6.70728
            7264         5.99486
            7265         2.20978
            7266         2.15391
            7267         5.98233
            7268         5.99178
            7269         6.65789
            7270         2.88753
            7271         6.07607
            7272         5.20916
            7273         1.00926
            7274     404.604E-03
            7275         6.28356
            7276         1.31157
            7277     640.088E-03
            7278         6.04498
            7279         6.74794
            7280         2.66538
            7281         6.17023
            7282         6.60677
            7283         5.05635
            7284         5.51748
            7285         5.29186
            7286     457.018E-03
            7287         1.43574
            7288     263.512E-03
            7289     936.350E-03
            7290         2.94519
            7291         1.14673
            7292         3.06417
            7293     592.368E-03
            7294         3.26779
            7295         7.30503
            7296         1.14291
            7297         3.21782
            7298         3.21942
            7299         1.79394
            7300     182.197E-03
            7301         4.35118
            7302         3.83617
            7303         3.09201
            7304         1.34070
            7305         7.22711
            7306     62.3032E-03
            7307         6.89754
            7308     617.921E-03
            7309         4.36706
            7310         3.48610
            7311     152.854E-03
            7312         6.38502
            7313         4.73577
            7314         2.18142
            7315         5.61227
            7316         4.47410
            7317         2.83027
            7318         1.57071
            7319         6.98273
            7320     245.432E-03
            7321         4.58717
            7322         2.64029
            7323     48.6278E-03
            7324         5.03726
            7325         6.06127
            7326     51.9778E-03
            7327     220.059E-03
            7328     63.8670E-03
            7329         1.96195
            7330         6.02515
            7331         2.21027
            7332     872.159E-03
            7333         5.93366
            7334         5.15668
            7335     11.3550E-03
            7336         4.44212
            7337         6.32465
            7338         5.65807
            7339         5.48577
            7340         6.09540
            7341         2.25087
            7342         2.09472
            7343         2.29714
            7344         5.63128
            7345         4.79057
            7346         6.12220
            7347         3.07915
            7348         5.30567
            7349         1.21949
            7350         3.08444
            7351     432.887E-03
            7352         2.97287
            7353         3.05395
            7354         6.99913
            7355         6.71125
            7356         5.58262
            7357         3.07635
            7358         2.65398
            7359         2.00087
            7360         2.33755
            7361         6.15502
            7362         5.32163
            7363         5.75795
            7364         2.14285
            7365         2.20347
            7366         5.77458
            7367         3.85080
            7368         1.53594
            7369         2.88042
            7370         1.11356
            7371     987.697E-03
            7372     987.728E-03
            7373         2.58629
            7374         2.02371
            7375         2.36771
            7376         1.79878
            7377         7.17345
            7378         6.01365
            7379     469.843E-03
            7380         1.46948
            7381         2.86403
            7382         2.10121
            7383     551.511E-03
            7384         5.03608
            7385     427.996E-03
            7386         1.28573
            7387     124.563E-03
            7388         6.65437
            7389         3.67897
            7390         3.10379
            7391         7.51814
            7392         7.06976
            7393         1.20356
            7394         1.09962
            7395         3.15476
            7396         3.27085
            7397         3.43106
            7398         3.06603
            7399     283.360E-03
            7400     113.139E-03
            7401     897.914E-03
            7402         1.89323
            7403         3.63626
            7404         3.15976
            7405         7.05139
            7406         1.28776
            7407     451.647E-03
            7408     252.039E-03
            7409         6.31834
            7410         4.50657
            7411         4.41644
            7412         4.29282
            7413         4.75968
            7414         2.75205
            7415         2.88658
            7416         1.65316
            7417         1.52193
            7418         6.85730
            7419         7.08844
            7420     126.146E-03
            7421         4.81416
            7422         5.31018
            7423         6.10575
            7424         6.10423
            7425         5.97993
            7426     363.011E-03
            7427         5.88246
            7428         5.97180
            7429         4.93039
            7430         5.42706
            7431         5.09336
            7432         4.43160
            7433         4.32530
            7434         2.09110
            7435         4.60404
            7436         5.70234
            7437         6.13572
            7438         5.86308
            7439         6.17157
            7440         5.01060
            7441         5.97348
            7442         2.61285
            7443     107.520E-03
            7444     634.981E-03
            7445         5.34764
            7446         3.37060
            7447         1.88698
            7448         3.00458
            7449         6.13156
            7450     34.9072E-03
            7451         6.69903
            7452         1.75486
            7453         7.13459
            7454         6.55135
            7455         5.88543
            7456         4.65959
            7457         5.61996
            7458         5.71183
            7459         4.56896
            7460     564.607E-03
            7461     666.640E-03
            7462         6.56019
            7463         1.54914
            7464         2.87991
            7465         4.29010
            7466         1.75885
            7467     618.261E-03
            7468         5.60658
            7469         2.22059
            7470         2.14391
            7471         5.62558
            7472         1.86934
            7473         4.30408
            7474         5.91817
            7475     329.640E-03
            7476         1.11369
            7477     190.030E-03
            7478     84.8536E-03
            7479         6.61913
            7480         1.38225
            7481         3.08248
            7482         3.82681
            7483         5.25435
            7484         2.03847
            7485         2.31818
            7486         5.93329
            7487         4.12041
            7488         1.84623
            7489     635.908E-03
            7490     424.705E-03
            7491         6.34358
            7492     104.228E-03
            7493         2.56471
            7494     163.954E-03
            7495         5.40210
            7496         3.31565
            7497         3.16497
            7498         1.21735
            7499         6.60739
            7500         3.34243
            7501         2.40971
            7502         3.15474
            7503         1.22395
            7504         5.50887
            7505     841.927E-03
            7506         6.45188
            7507         2.44174
            7508         1.89720
            7509         5.68225
            7510         2.06352
            7511         2.29122
            7512         6.03993
            7513         5.16283
            7514         2.26500
            7515         6.49256
            7516         3.41841
            7517     317.993E-03
            7518     330.461E-03
            7519         5.81198
            7520         1.13188
            7521         2.78885
            7522     128.199E-03
            7523         6.74033
            7524         3.31361
            7525         6.07425
            7526     432.968E-03
            7527     946.863E-03
            7528         1.14875
            7529         2.75762
            7530         6.99328
            7531         7.33614
            7532         1.29990
            7533         3.05346
            7534     958.859E-03
            7535         3.42397
            7536     195.571E-03
            7537     53.6549E-03
            7538     273.170E-03
            7539         3.29619
            7540         1.16600
            7541         7.33903
            7542         2.81271
            7543         7.53134
            7544         5.55232
            7545         6.41625
            7546         4.84781
            7547         1.64409
            7548         3.58775
            7549         6.65019
            7550         4.51009
            7551         2.72306
            7552         4.76553
            7553         1.70324
            7554         2.68104
            7555     437.572E-03
            7556         5.03923
            7557         5.74870
            7558         6.61666
            7559         5.63818
            7560         6.25453
            7561         5.15286
            7562         5.67451
            7563         6.05895
            7564         4.84199
            7565         5.01985
            7566         6.99023
            7567         4.65731
            7568     621.967E-03
            7569         3.69412
            7570         2.07775
            7571         5.89740
            7572         6.70105
            7573         6.04165
            7574         5.95723
            7575         1.97058
            7576         6.62333
            7577         1.44958
            7578         6.93341
            7579         2.96992
            7580         4.09658
            7581         5.20067
            7582     219.934E-03
            7583     251.977E-03
            7584         2.94758
            7585         1.59962
            7586         6.01397
            7587         3.00036
            7588         5.04883
            7589         1.32901
            7590         3.03291
            7591     457.535E-03
            7592         1.17001
            7593         6.16676
            7594         6.62306
            7595     940.165E-03
            7596         1.69329
            7597     877.240E-03
            7598         5.63311
            7599     673.368E-03
            7600         5.28620
            7601         4.62234
            7602     593.519E-03
            7603         4.54600
            7604         5.36177
            7605     545.878E-03
            7606         4.72203
            7607         6.25009
            7608         4.58769
            7609         1.68588
            7610         2.75093
            7611         6.27254
            7612         1.88833
            7613     599.951E-03
            7614         1.76673
            7615     995.059E-03
            7616         5.71363
            7617         2.23091
            7618     171.293E-03
            7619         2.14871
            7620     291.085E-03
            7621         5.61018
            7622         4.31571
            7623     811.337E-03
            7624         2.24320
            7625         5.40403
            7626     58.5551E-03
            7627     80.0229E-03
            7628         1.35544
            7629         2.95108
            7630         1.51511
            7631         6.40462
            7632         6.14285
            7633         2.99093
            7634         2.26624
            7635         2.54113
            7636         3.45402
            7637         1.31571
            7638         3.70086
            7639         6.39602
            7640         1.36996
            7641         3.02362
            7642         3.40873
            7643         3.66688
            7644         2.51829
            7645         6.20327
            7646         2.38367
            7647         1.97577
            7648         5.46717
            7649         5.69954
            7650         6.58863
            7651         5.66449
            7652         5.58857
            7653         6.20912
            7654         7.17489
            7655         1.35245
            7656         2.99351
            7657     127.002E-03
            7658         4.98094
            7659         1.75438
            7660         2.63075
            7661         5.70524
            7662         5.41508
            7663         5.32376
            7664         6.76788
            7665         5.30399
            7666         3.77539
            7667     364.856E-03
            7668         7.37624
            7669         1.06662
            7670         3.41564
            7671     335.987E-03
            7672         2.70648
            7673         5.00051
            7674         2.50405
            7675         5.88491
            7676         6.57095
            7677         4.15334
            7678     417.574E-03
            7679         5.83761
            7680         6.03673
            7681         5.87837
            7682         4.59318
            7683         1.83171
            7684         3.26976
            7685         5.59267
            7686         5.61201
            7687     501.979E-03
            7688         4.03516
            7689         2.91790
            7690         1.42998
            7691         7.29040
            7692         5.23851
            7693         2.08723
            7694         2.31376
            7695         5.77826
            7696         6.57146
            7697         1.86897
            7698         2.50872
            7699         5.27941
            7700         6.38364
            7701         2.75660
            7702         5.81602
            7703     578.238E-03
            7704         1.95071
            7705         4.71944
            7706         6.08445
            7707         1.39143
            7708         5.69854
            7709     800.397E-03
            7710         2.79589
            7711     876.837E-03
            7712         2.23438
            7713         5.31726
            7714         5.23860
            7715         1.57667
            7716         4.39205
            7717         4.87080
            7718     271.969E-03
            7719         1.33880
            7720         4.01535
            7721     668.458E-03
            7722     799.021E-03
            7723         4.31525
            7724         4.78173
            7725         5.40819
            7726         5.29846
            7727     148.961E-03
            7728         5.06516
            7729         4.45412
            7730         4.75373
            7731         1.73975
            7732         1.64555
            7733         2.82957
            7734         2.66617
            7735         6.08414
            7736     187.166E-03
            7737     414.812E-03
            7738         6.20154
            7739         6.29783
            7740         5.53147
            7741         2.15547
            7742         2.25480
            7743         5.53817
            7744         4.10874
            7745     811.037E-03
            7746         2.24748
            7747         1.35692
            7748         3.01674
            7749         1.48697
            7750         6.25343
            7751         5.74980
            7752         5.65087
            7753         3.59717
            7754         3.24004
            7755         5.52477
            7756         3.58682
            7757         6.20883
            7758         6.56182
            7759         1.33923
            7760         1.40338
            7761         2.97089
            7762         3.07221
            7763         3.57239
            7764         3.77459
            7765     738.329E-03
            7766         5.70524
            7767         1.92242
            7768         5.39424
            7769         5.88359
            7770         5.03290
            7771     285.549E-03
            7772         5.46307
            7773         4.04423
            7774     292.848E-03
            7775     578.190E-03
            7776         4.13815
            7777         5.69305
            7778         1.61618
            7779         6.40484
            7780     496.371E-03
            7781         5.01864
            7782         6.16641
            7783         5.98514
            7784         4.44823
            7785         5.90911
            7786         5.53960
            7787         3.18456
            7788         6.17746
            7789         1.62164
            7790         5.69003
            7791     855.290E-03
            7792         1.27270
            7793         5.75496
            7794         1.75328
            7795         5.89233
            7796         4.50575
            7797     245.687E-03
            7798     644.251E-03
            7799         5.49592
            7800     685.658E-03
            7801     313.066E-03
            7802         5.82774
            7803         5.96028
            7804         2.29863
            7805         2.18063
            7806         5.49367
            7807         6.91130
            7808         2.86974
            7809         1.47228
            7810         4.04393
            7811         5.95425
            7812         1.98921
            7813         2.38468
            7814         5.51831
            7815         1.89868
            7816         2.53280
            7817         6.94986
            7818         5.09862
            7819         2.83919
            7820         2.05765
            7821     626.574E-03
            7822         1.86346
            7823         5.12664
            7824         5.49622
            7825         5.56490
            7826         5.96790
            7827     273.856E-03
            7828         1.42115
            7829         5.68825
            7830         6.22351
            7831         5.00551
            7832     823.178E-03
            7833         4.59205
            7834         4.82756
            7835         4.53678
            7836         5.07923
            7837     443.481E-03
            7838         1.80228
            7839         2.64703
            7840         5.44456
            7841         2.07902
            7842         2.30972
            7843         4.12017
            7844         5.83010
            7845     147.753E-03
            7846         6.21011
            7847         6.40239
            7848         1.74182
            7849     827.822E-03
            7850         6.05728
            7851         1.51438
            7852         1.19664
            7853         2.89817
            7854         2.24283
            7855         3.19912
            7856         2.85112
            7857         3.24249
            7858         3.98624
            7859         5.68121
            7860         5.70317
            7861         6.12255
            7862     405.361E-03
            7863         4.19060
            7864         5.54729
            7865         1.62663
            7866         1.59858
            7867     303.592E-03
            7868         5.05633
            7869         6.41578
            7870         5.58649
            7871         4.59072
            7872         4.30495
            7873         4.15320
            7874         4.90955
            7875         1.05253
            7876         5.13507
            7877         5.95730
            7878         5.33163
            7879         1.74376
            7880         2.79462
            7881         4.63334
            7882         5.67905
            7883         2.32228
            7884         2.14637
            7885         5.26225
            7886         3.91668
            7887         5.17147
            7888     505.632E-03
            7889         1.59236
            7890         6.88049
            7891         1.55971
            7892         2.77882
            7893         4.28937
            7894         6.57772
            7895         1.58024
            7896         2.77217
            7897     484.218E-03
            7898         4.24117
            7899         1.67977
            7900     526.784E-03
            7901     194.441E-03
            7902         6.18974
            7903         5.81184
            7904         5.41990
            7905         2.80181
            7906         5.92117
            7907         1.63166
            7908         2.83425
            7909         2.05839
            7910         4.20958
            7911         5.67366
            7912         2.06820
            7913         4.09429
            7914     996.552E-03
            7915     937.293E-03
            7916     987.141E-03
            7917         5.61260
            7918         6.21869
            7919         5.91499
            7920         2.50316
            7921         3.17468
            7922         5.57523
            7923         2.25307
            7924         2.26151
            7925         5.14648
            7926         5.41641
            7927         5.48918
            7928         4.41475
            7929         5.39784
            7930         4.92867
            7931         5.06381
            7932         4.82183
            7933         1.83177
            7934         2.58359
            7935         6.35193
            7936         1.52891
            7937         2.86001
            7938         1.40488
            7939         6.42300
            7940         2.68092
            7941         6.08100
            7942         4.04578
            7943         1.09068
            7944         3.30469
            7945     296.643E-03
            7946         4.59066
            7947         2.97896
            7948         5.05541
            7949         5.11688
            7950     325.889E-03
            7951         1.83415
            7952         6.21731
            7953         5.69649
            7954         4.65901
            7955         4.11668
            7956         2.14416
            7957         1.67834
            7958         1.45282
            7959         3.90403
            7960         4.88707
            7961         5.21191
            7962         2.73343
            7963     543.325E-03
            7964         5.96068
            7965         4.01104
            7966         6.40737
            7967         1.00075
            7968         2.46955
            7969         1.90268
            7970         6.07294
            7971         2.49712
            7972         4.94815
            7973         4.91965
            7974         2.63156
            7975         1.88213
            7976         5.87821
            7977         1.82707
            7978         5.66511
            7979         4.31389
            7980         4.76402
            7981     199.048E-03
            7982         4.83062
            7983         4.19010
            7984         5.71117
            7985         1.38514
            7986         4.70650
            7987         4.32393
            7988         5.75146
            7989         2.22174
            7990         4.87915
            7991         2.70469
            7992         1.86176
            7993         5.84873
            7994         5.95911
            7995         1.60134
            7996         2.95802
            7997         1.87337
            7998         5.28700
            7999         1.99483
            8000         2.39763
            8001         5.82810
            8002         4.29008
            8003         6.35325
            8004         6.74073
            8005         5.50214
            8006     728.227E-03
            8007         5.21176
            8008         1.90889
            8009         2.45863
            8010         5.13493
            8011         5.19945
            8012         6.14468
            8013         3.84121
            8014         2.60617
            8015         6.88796
            8016         3.38014
            8017         1.11258
            8018         4.56698
            8019         2.85737
            8020         1.72600
            8021         5.86771
            8022         3.00205
            8023         5.53240
            8024         5.79200
            8025         3.07800
            8026         1.16536
            8027         4.45474
            8028         6.56253
            8029         2.62451
            8030         1.26906
            8031         1.96446
            8032         7.29867
            8033     868.305E-03
            8034         3.52983
            8035         2.47529
            8036         5.42499
            8037         2.33804
            8038         6.41455
            8039         6.62640
            8040         4.82976
            8041         5.99697
            8042         2.72048
            8043         1.99086
            8044         3.60896
            8045         7.98883
            8046     912.565E-03
            8047         5.78462
            8048         5.30413
            8049         2.13645
            8050         6.47024
            8051     667.330E-03
            8052         2.08338
            8053         5.09239
            8054         3.74866
            8055         5.48636
            8056         1.38074
            8057         1.81306
            8058         4.83987
            8059         3.97949
            8060     290.291E-03
            8061         1.06948
            8062         5.88199
            8063         4.41092
            8064         1.11137
            8065         3.91290
            8066         5.48940
            8067         5.30157
            8068         4.94606
            8069         5.60669
            8070         4.84652
            8071         1.88950
            8072         5.26480
            8073         1.89918
            8074         5.58964
            8075         5.40001
            8076         2.16824
            8077         6.37077
            8078         1.38056
            8079         5.28419
            8080         5.32621
            8081         4.06260
            8082         1.19423
            8083         5.84136
            8084         4.08137
            8085     617.559E-03
            8086     365.859E-03
            8087         6.30796
            8088         2.77152
            8089         1.61526
            8090         4.25107
            8091         6.33440
            8092         1.95986
            8093     693.017E-03
            8094         5.42568
            8095         5.42662
            8096         3.03042
            8097     781.461E-03
            8098         1.08183
            8099         5.76781
            8100         1.61672
            8101         2.87498
            8102         7.48654
            8103         5.91321
            8104         4.16289
            8105         2.46927
            8106     273.350E-03
            8107         5.09360
            8108     896.845E-03
            8109         5.50113
            8110         2.35400
            8111         2.21335
            8112         6.36394
            8113         6.82187
            8114     930.504E-03
            8115         3.46530
            8116         2.17664
            8117         2.59696
            8118         1.85881
            8119         1.51371
            8120         4.07533
            8121         3.74022
            8122         4.81624
            8123         4.90022
            8124     481.899E-03
            8125         6.42980
            8126         4.14252
            8127         5.50915
            8128         5.30574
            8129     764.876E-03
            8130         6.37192
            8131         2.55192
            8132         1.79172
            8133         2.66436
            8134         4.76439
            8135         4.10154
            8136         4.66576
            8137         5.67894
            8138         1.90336
            8139         2.49953
            8140         5.09312
            8141         3.22781
            8142         2.64054
            8143         2.54424
            8144         5.77308
            8145         4.59524
            8146         5.64893
            8147         4.16461
            8148         1.67600
            8149         2.66073
            8150         6.76351
            8151         7.39067
            8152         6.46469
            8153         3.56238
            8154         3.23265
            8155         1.27026
            8156     946.425E-03
            8157         4.91548
            8158         4.97095
            8159         4.81790
            8160         5.66769
            8161         2.77051
            8162         1.84487
            8163         5.80020
            8164         6.79688
            8165         2.80270
            8166         6.24789
            8167         4.19893
            8168         2.21379
            8169         3.01648
            8170         2.08372
            8171         5.53702
            8172         5.12970
            8173         5.10891
            8174         2.16289
            8175     177.737E-03
            8176         2.36589
            8177     744.923E-03
            8178         3.72370
            8179         5.33245
            8180         1.47095
            8181         5.95833
            8182         4.60175
            8183         4.96548
            8184         3.92321
            8185         3.92871
            8186         1.91908
            8187         5.97639
            8188         1.28894
            8189         2.58645
            8190         5.88548
            8191         1.32126
            8192         5.84946
            8193         2.92459
            8194         2.46733
            8195     507.166E-03
            8196         3.12298
            8197         4.48778
            8198     695.307E-03
            8199         2.66584
            8200         1.71677
            8201         6.23807
            8202         1.67585
            8203         2.18896
            8204         3.65430
            8205     765.312E-03
            8206         7.24018
            8207         2.05084
            8208         6.38767
            8209         2.28034
            8210         5.70228
            8211     880.520E-03
            8212         5.83508
            8213         3.32883
            8214         5.30941
            8215         5.57037
            8216         5.28054
            8217         1.92669
            8218         2.74492
            8219         5.55242
            8220         5.21130
            8221         5.41084
            8222         1.23544
            8223         1.29130
            8224         2.81273
            8225         5.31727
            8226         1.80300
            8227         2.11556
            8228     171.162E-03
            8229     379.864E-03
            8230         5.68956
            8231         5.87049
            8232         5.17738
            8233         1.46865
            8234         1.75130
            8235         2.77997
            8236         2.98642
            8237         6.19155
            8238         6.60463
            8239         1.82522
            8240         1.15142
            8241         2.06252
            8242         6.47986
            8243         3.84573
            8244         4.43251
            8245     602.697E-03
            8246     349.301E-03
            8247         6.18981
            8248         6.77506
            8249         3.96515
            8250         4.38101
            8251         3.87769
            8252         4.65674
            8253         6.60028
            8254     532.325E-03
            8255         2.54134
            8256         1.79554
            8257         3.16928
            8258     258.414E-03
            8259         4.10338
            8260         4.43128
            8261         2.71348
            8262         2.57633
            8263         2.51429
            8264         5.40222
            8265         5.19664
            8266         1.98007
            8267         2.45521
            8268         4.90145
            8269         2.03679
            8270         4.10672
            8271         6.46359
            8272         6.44041
            8273         3.12959
            8274         3.34840
            8275         1.16543
            8276         1.36319
            8277         1.99075
            8278         5.41300
            8279         2.74352
            8280         3.26546
            8281         6.69390
            8282         4.31505
            8283         5.15360
            8284         5.86210
            8285         6.08213
            8286         1.38504
            8287     670.214E-03
            8288         5.65885
            8289         3.83437
            8290         5.65628
            8291         1.12611
            8292         2.75861
            8293         5.28843
            8294         5.56720
            8295         5.67695
            8296         5.57916
            8297         6.03652
            8298         5.71785
            8299         6.46058
            8300         2.56707
            8301         1.80542
            8302         5.02688
            8303         3.86793
            8304         5.10232
            8305         1.81569
            8306         1.93434
            8307         5.73647
            8308         5.75565
            8309         1.71919
            8310         2.90714
            8311         4.53784
            8312         2.82425
            8313     878.187E-03
            8314         4.07254
            8315         4.42678
            8316         5.35835
            8317     837.327E-03
            8318         7.32950
            8319         3.69988
            8320         5.01571
            8321         3.61740
            8322     834.073E-03
            8323         1.67184
            8324         2.33262
            8325         2.59361
            8326         4.71049
            8327         1.81033
            8328         2.56618
            8329         6.16915
            8330         6.06260
            8331         3.81279
            8332         6.13358
            8333     733.596E-03
            8334         2.14942
            8335         2.55905
            8336         3.69942
            8337         5.00345
            8338         4.99076
            8339     921.703E-03
            8340         3.56197
            8341         5.15466
            8342         5.87828
            8343         2.69197
            8344         2.04380
            8345         1.01649
            8346         3.46814
            8347         4.76797
            8348         5.80144
            8349         1.89437
            8350         3.73133
            8351         4.79993
            8352         5.07042
            8353         1.69404
            8354         5.51626
            8355         4.89026
            8356         1.91918
            8357         2.49482
            8358         5.96126
            8359         2.49016
            8360         6.41719
            8361         3.46016
            8362         1.06340
            8363         6.45089
            8364         2.45873
            8365         3.23655
            8366         2.77212
            8367         2.65609
            8368     222.153E-03
            8369         6.90387
            8370         4.23416
            8371     444.000E-03
            8372         1.40222
            8373         4.35704
            8374         3.74908
            8375         2.66576
            8376         2.31283
            8377     642.695E-03
            8378         3.45589
            8379     916.808E-03
            8380         6.01538
            8381         1.76303
            8382         2.67461
            8383         4.51915
            8384         4.66478
            8385         2.32790
            8386         7.72250
            8387     716.176E-03
            8388         3.71293
            8389         2.10294
            8390         5.91666
            8391         5.07466
            8392         3.71951
            8393         1.93954
            8394         5.40301
            8395         5.48837
            8396     454.229E-03
            8397         5.34261
            8398         2.60859
            8399         2.85944
            8400         6.06245
            8401         1.43396
            8402         2.17397
            8403         2.72219
            8404         2.45540
            8405         5.59403
            8406         1.60320
            8407         2.90943
            8408         2.19655
            8409         2.64577
            8410         1.82309
            8411         2.86942
            8412         5.27647
            8413         5.17949
            8414         5.16687
            8415         3.08461
            8416         4.12258
            8417         6.17460
            8418         3.22560
            8419         5.64710
            8420         1.30635
            8421         6.21615
            8422         1.48814
            8423         1.48999
            8424         5.57272
            8425         2.53188
            8426         5.26112
            8427         4.16298
            8428         3.84066
            8429         5.53314
            8430         4.48016
            8431         4.25757
            8432         5.76293
            8433         1.61072
            8434         2.98970
            8435         5.80657
            8436         5.22950
            8437         1.00712
            8438         5.97356
            8439         2.47406
            8440         2.02041
            8441         5.22457
            8442     912.992E-03
            8443         5.55443
            8444         5.63031
            8445         5.85335
            8446         5.60599
            8447         2.29994
            8448         5.74836
            8449         2.15823
            8450         5.97415
            8451         4.58149
            8452         5.81898
            8453         1.82106
            8454         2.68328
            8455         6.09066
            8456         2.05365
            8457         6.61806
            8458         3.88381
            8459     689.740E-03
            8460         5.91068
            8461         2.57762
            8462         5.30482
            8463         3.72754
            8464         5.73103
            8465         2.00390
            8466         4.46392
            8467         3.44688
            8468         5.37460
            8469         1.73591
            8470         2.84543
            8471         5.24532
            8472         4.38710
            8473     543.056E-03
            8474         5.50190
            8475         5.50291
            8476         1.50252
            8477         2.53327
            8478         2.80149
            8479         6.66915
            8480     132.731E-03
            8481         6.80443
            8482         3.63347
            8483         2.60836
            8484     899.151E-03
            8485         1.04715
            8486     316.334E-03
            8487         7.26659
            8488         4.46656
            8489         4.24356
            8490         3.57783
            8491     772.031E-03
            8492     982.146E-03
            8493         2.85723
            8494         2.32095
            8495     435.387E-03
            8496         3.34819
            8497         3.64973
            8498         2.14983
            8499         4.67231
            8500         5.78637
            8501         6.05645
            8502         3.29946
            8503         2.98327
            8504         2.58171
            8505         2.61583
            8506         4.94137
            8507         1.36037
            8508         1.94454
            8509         2.29840
            8510         6.19218
            8511         5.67873
            8512         1.46644
            8513         3.00550
            8514         1.92908
            8515         1.36065
            8516         1.64340
            8517         1.01415
            8518         2.80831
            8519         3.48648
            8520         5.29598
            8521         1.26107
            8522         5.63413
            8523         2.29377
            8524         3.82841
            8525         5.85664
            8526         5.66204
            8527         2.24695
            8528         5.31667
            8529         4.09830
            8530         3.67540
            8531         2.83369
            8532         5.14108
            8533         2.55486
            8534         1.98601
            8535         5.50826
            8536         1.97434
            8537         4.68913
            8538         5.82820
            8539         5.47508
            8540         2.47182
            8541         2.79662
            8542         5.33972
            8543         1.55858
            8544         3.05297
            8545         5.72747
            8546         3.48849
            8547         4.31127
            8548         4.36330
            8549         2.01493
            8550         2.69310
            8551         3.41885
            8552     978.529E-03
            8553         6.45974
            8554         2.77696
            8555         1.50908
            8556         6.09522
            8557         4.65160
            8558         2.73351
            8559         1.87298
            8560         5.52169
            8561         1.05560
            8562         5.31431
            8563         3.96675
            8564         6.20613
            8565         5.94281
            8566         5.44187
            8567         1.99538
            8568         4.35420
            8569         5.44769
            8570         2.99586
            8571         3.29892
            8572         1.10649
            8573         6.10974
            8574         2.56071
            8575         3.46833
            8576     932.231E-03
            8577         6.24491
            8578         2.44176
            8579         5.94702
            8580         5.90481
            8581     75.0457E-03
            8582         6.84694
            8583     294.255E-03
            8584     225.311E-03
            8585         7.60039
            8586         4.65342
            8587     790.508E-03
            8588         5.44805
            8589         2.02692
            8590         5.81286
            8591         1.74997
            8592         2.74997
            8593         4.44116
            8594         1.66404
            8595         3.01755
            8596         2.14832
            8597         6.24585
            8598         7.00853
            8599         3.68644
            8600         4.09290
            8601     541.495E-03
            8602     853.444E-03
            8603         2.70131
            8604         2.36855
            8605         5.10173
            8606         5.42998
            8607         5.74462
            8608         4.97212
            8609         2.61973
            8610         3.55468
            8611         5.37647
            8612         2.47068
            8613         4.43107
            8614         4.45660
            8615         3.32798
            8616         3.56475
            8617         1.87110
            8618         2.76596
            8619         5.48011
            8620     941.451E-03
            8621     950.366E-03
            8622         5.91302
            8623         1.52412
            8624         5.68631
            8625         4.64406
            8626         6.33919
            8627         3.57141
            8628     960.188E-03
            8629         3.77289
            8630         3.53335
            8631         2.89260
            8632         4.02993
            8633         3.56115
            8634         2.67804
            8635         4.91851
            8636         4.98505
            8637         5.56532
            8638         3.24047
            8639         1.80836
            8640         5.76969
            8641         5.08075
            8642         1.93817
            8643         1.91325
            8644         3.34076
            8645         2.86392
            8646         2.75855
            8647         3.91129
            8648         4.30302
            8649         3.71964
            8650         3.62294
            8651         5.29598
            8652         2.07835
            8653         2.49562
            8654         5.54913
            8655         5.72642
            8656         5.65699
            8657         1.88953
            8658         4.58255
            8659         1.40851
            8660         3.16200
            8661         5.87761
            8662         5.45410
            8663         1.81970
            8664         5.51148
            8665         1.64892
            8666         3.02624
            8667         5.49416
            8668         3.86620
            8669         4.09436
            8670         4.09710
            8671         6.02505
            8672         3.84581
            8673         1.56610
            8674         2.55226
            8675         3.01061
            8676         5.81551
            8677         5.51529
            8678         5.39197
            8679         5.17611
            8680         3.06792
            8681         3.64304
            8682         3.06979
            8683         1.38724
            8684         5.60127
            8685         2.29650
            8686         5.73057
            8687         5.46280
            8688         5.81582
            8689     673.706E-03
            8690         2.61173
            8691         5.96456
            8692     730.506E-03
            8693         3.83760
            8694         7.24847
            8695         2.53296
            8696         2.56097
            8697         2.01919
            8698         5.62861
            8699         3.06639
            8700         2.51786
            8701         2.13998
            8702         5.39656
            8703         1.11856
            8704         2.17240
            8705         5.99273
            8706         5.62530
            8707         1.51026
            8708         3.10895
            8709         2.00629
            8710         3.97544
            8711         5.80047
            8712         5.47702
            8713     647.893E-03
            8714         3.91214
            8715         5.80699
            8716         6.04693
            8717         5.39925
            8718         6.63432
            8719     735.687E-03
            8720         3.68343
            8721         2.06145
            8722         2.75533
            8723         2.11717
            8724         2.43075
            8725         3.11235
            8726         2.42538
            8727         7.13240
            8728         3.96807
            8729     632.801E-03
            8730         5.88316
            8731         3.63694
            8732         3.95329
            8733     897.834E-03
            8734         5.20881
            8735         4.76147
            8736         3.52644
            8737         4.66375
            8738         4.23686
            8739         3.10928
            8740         3.37065
            8741         6.07435
            8742         1.86858
            8743         3.42757
            8744         2.72281
            8745         3.42249
            8746         3.33527
            8747         2.79271
            8748         1.10638
            8749         5.66019
            8750         5.44701
            8751         5.37201
            8752         4.38131
            8753         4.77350
            8754         1.99601
            8755         5.79771
            8756         5.74002
            8757         5.41804
            8758         4.76952
            8759         4.64414
            8760         3.27900
            8761         3.40532
            8762         5.33915
            8763         4.01910
            8764         3.98445
            8765         2.09756
            8766         3.52657
            8767         3.77745
            8768         2.43016
            8769         2.03443
            8770         1.72951
            8771         1.77606
            8772         1.32142
            8773         5.67878
            8774         3.20411
            8775         1.38548
            8776         2.94313
            8777         1.81502
            8778         5.41446
            8779         6.44643
            8780         4.22290
            8781         3.93767
            8782         4.35721
            8783         3.12245
            8784         2.97988
            8785         5.74584
            8786         5.30096
            8787         1.46463
            8788         3.02119
            8789         3.80985
            8790         5.78026
            8791         5.83070
            8792         3.29352
            8793         3.18765
            8794         1.23410
            8795         5.79764
            8796         5.46416
            8797         5.68658
            8798         7.77069
            8799         3.89923
            8800     683.489E-03
            8801         5.88774
            8802         1.94301
            8803         2.53912
            8804         2.45883
            8805         2.92393
            8806         5.49316
            8807         5.75854
            8808         5.01385
            8809         2.62800
            8810         1.96796
            8811         5.08820
            8812         1.13367
            8813         3.74026
            8814         5.15080
            8815         2.16939
            8816         3.05074
            8817         2.74746
            8818         2.03153
            8819         5.45338
            8820         5.37089
            8821         2.07246
            8822         4.49810
            8823         3.41316
            8824         5.55701
            8825         5.87134
            8826         2.06464
            8827         2.02423
            8828         2.71098
            8829         2.12660
            8830         2.73880
            8831         4.20322
            8832         3.57744
            8833         2.05461
            8834         3.75961
            8835         5.15720
            8836         3.34156
            8837         2.61052
            8838         5.30854
            8839         3.95512
            8840         3.32941
            8841         3.11461
            8842         2.87278
            8843         3.36527
            8844         5.49066
            8845         5.37820
            8846         2.13049
            8847         2.58046
            8848         3.38650
            8849         3.14782
            8850         1.27805
            8851         5.51965
            8852         5.75973
            8853         5.94642
            8854         5.76284
            8855         5.39057
            8856         3.82192
            8857         6.17586
            8858         7.15243
            8859     665.225E-03
            8860     794.414E-03
            8861         1.94543
            8862         3.60056
            8863         3.77896
            8864         1.90857
            8865         2.82672
            8866         2.86785
            8867         5.27152
            8868         1.60620
            8869         3.64877
            8870         2.07896
            8871         2.18796
            8872         7.44814
            8873     503.028E-03
            8874         4.15556
            8875         5.20731
            8876         5.41773
            8877         5.76449
            8878         1.73739
            8879         2.14671
            8880         2.37710
            8881         2.86035
            8882         4.89369
            8883         3.21582
            8884         6.81135
            8885         6.10067
            8886         3.72324
            8887         4.17697
            8888         3.00777
            8889         4.47940
            8890         4.58329
            8891         5.28210
            8892         4.39654
            8893         1.24380
            8894         5.12029
            8895         1.64816
            8896         2.91368
            8897         5.92444
            8898         2.49936
            8899         5.43368
            8900         5.23370
            8901         2.05258
            8902         2.62771
            8903         2.29793
            8904         3.33047
            8905         2.86258
            8906         3.98882
            8907         5.74824
            8908         2.34721
            8909         5.76069
            8910         3.32842
            8911         1.22627
            8912         5.59707
            8913         4.01123
            8914         5.72957
            8915         4.86156
            8916         4.30046
            8917         2.69451
            8918         1.37521
            8919         3.22844
            8920         5.44918
            8921         1.99607
            8922         5.41310
            8923         5.44729
            8924         5.68224
            8925         2.60349
            8926         3.86124
            8927         3.90222
            8928         4.59483
            8929         2.88989
            8930         1.62151
            8931         5.50533
            8932         5.60986
            8933         1.26983
            8934         5.40392
            8935         5.36624
            8936         5.48269
            8937         1.10868
            8938         5.79253
            8939         1.51330
            8940         5.39453
            8941         5.59141
            8942         5.74490
            8943         5.63807
            8944         4.78776
            8945         3.73301
            8946         4.44342
            8947         3.93303
            8948         5.56728
            8949         4.63756
            8950         5.67809
            8951         3.18038
            8952         4.36381
            8953         4.99174
            8954         5.59555
            8955         3.15626
            8956         4.41140
            8957         3.45227
            8958         2.06394
            8959         2.14491
            8960         2.77249
            8961         2.43971
            8962         3.60116
            8963         3.28475
            8964         5.30798
            8965         3.88643
            8966         3.20750
            8967         6.08108
            8968         2.68274
            8969         5.68453
            8970         5.50625
            8971         2.20111
            8972         5.45826
            8973         5.71585
            8974         5.75025
            8975         2.54220
            8976         3.56213
            8977         4.07266
            8978         1.77739
            8979         6.93486
            8980         5.77379
            8981         4.04390
            8982         3.66942
            8983         5.00292
            8984         4.32588
            8985         4.59060
            8986         2.94170
            8987         1.54439
            8988         5.25100
            8989         2.45649
            8990         2.97950
            8991         5.77278
            8992         3.34066
            8993         4.41661
            8994         2.29939
            8995         2.88763
            8996         4.51645
            8997         4.22596
            8998         2.59548
            8999         5.18911
            9000         3.14576
            9001         3.79065
            9002         3.95774
            9003         3.52005
            9004         4.23865
            9005         5.23222
            9006         5.52686
            9007         1.44956
            9008         3.33883
            9009         5.05790
            9010         5.38011
            9011         2.12209
            9012         2.66754
            9013         5.71186
            9014         4.84442
            9015         2.66659
            9016         1.98161
            9017         5.51668
            9018         5.40255
            9019         2.51969
            9020         2.63448
            9021         2.12814
            9022         5.36443
            9023         2.21685
            9024         3.91221
            9025     562.477E-03
            9026         7.05514
            9027         5.16154
            9028         1.29428
            9029         3.07360
            9030         4.97900
            9031         2.28401
            9032         2.25361
            9033         5.28214
            9034         2.90114
            9035         5.45372
            9036         3.54771
            9037         4.86202
            9038         4.74437
            9039     509.986E-03
            9040         7.54928
            9041         3.98999
            9042     467.533E-03
            9043         5.28584
            9044         5.71401
            9045         5.63042
            9046         4.23192
            9047         3.78296
            9048         5.48771
            9049         2.20026
            9050         2.64463
            9051         5.60515
            9052         4.53140
            9053         3.60020
            9054         2.14819
            9055         2.01151
            9056         2.22107
            9057         2.07513
            9058         2.82456
            9059         2.73184
            9060         5.13832
            9061         5.44976
            9062         3.67353
            9063         3.51742
            9064         5.72391
            9065         3.41412
            9066         3.16659
            9067         3.65426
            9068         4.14179
            9069         2.82511
            9070         3.21309
            9071         3.19703
            9072         4.15181
            9073         3.78151
            9074         2.98790
            9075         5.51591
            9076         2.20518
            9077         2.48667
            9078         2.40554
            9079         4.91317
            9080         4.77020
            9081         3.59836
            9082         3.13534
            9083         2.25634
            9084         2.35485
            9085         2.65774
            9086         4.59629
            9087         5.17019
            9088         3.06095
            9089     931.434E-03
            9090         5.49529
            9091         2.13590
            9092         2.69488
            9093         5.07625
            9094         2.05944
            9095         2.67068
            9096         2.60609
            9097         2.03607
            9098         5.57545
            9099         4.94931
            9100         5.75166
            9101         2.56857
            9102         2.26243
            9103         5.61292
            9104         1.87644
            9105         3.11719
            9106         4.39600
            9107         4.78621
            9108         2.40535
            9109         2.52709
            9110         5.77955
            9111         5.48129
            9112         2.17703
            9113         5.71017
            9114         2.22547
            9115         4.54048
            9116         3.99599
            9117         2.33863
            9118         5.21665
            9119         1.45482
            9120         5.51906
            9121         2.20767
            9122         5.21764
            9123         2.84713
            9124         3.56301
            9125         4.76992
            9126         5.12887
            9127     521.437E-03
            9128         4.18406
            9129         3.37672
            9130         4.30683
            9131         5.55078
            9132         5.68756
            9133         5.68273
            9134         5.71264
            9135         2.26290
            9136         2.61617
            9137         3.56844
            9138         5.31939
            9139         5.43790
            9140         1.97740
            9141         2.15140
            9142         2.19169
            9143         2.72003
            9144         2.59296
            9145         2.52192
            9146         3.04684
            9147         2.79902
            9148         2.70616
            9149         2.27732
            9150         3.11041
            9151     971.085E-03
            9152         2.24650
            9153         2.00545
            9154         2.74992
            9155         2.64805
            9156         5.13482
            9157         5.22884
            9158         4.88907
            9159         5.67715
            9160         1.96593
            9161         2.62332
            9162         2.07381
            9163         2.27957
            9164         3.29161
            9165         4.79041
            9166         2.55340
            9167         5.57716
            9168         2.24824
            9169         2.42893
            9170         3.01663
            9171         4.80600
            9172         2.52699
            9173         2.86452
            9174         3.86109
            9175         3.22140
            9176         3.45352
            9177         2.17346
            9178         3.01646
            9179         3.52580
            9180         5.16963
            9181         3.33753
            9182         4.13119
            9183         2.77762
            9184         2.27323
            9185         3.24734
            9186         3.04560
            9187         5.47369
            9188         5.49117
            9189         5.69405
            9190         2.81317
            9191         2.28748
            9192         2.57416
            9193         4.19408
            9194         2.83033
            9195         3.29764
            9196         2.29260
            9197         2.13187
            9198     379.363E-03
            9199     671.700E-03
            9200         3.62547
            9201         4.55540
            9202         2.49439
            9203         5.63585
            9204         5.58115
            9205         1.14316
            9206     798.697E-03
            9207         2.26729
            9208         2.65617
            9209         3.12440
            9210         2.20884
            9211         2.27060
            9212         2.37061
            9213         5.16571
            9214         5.13117
            9215         2.46784
            9216         3.41162
            9217         5.11619
            9218         3.47939
            9219         5.09068
            9220         2.01017
            9221         4.56143
            9222         2.71566
            9223         2.14242
            9224         2.69377
            9225         2.59671
            9226         2.32004
            9227         5.70674
            9228         2.30357
            9229         1.13985
            9230         4.22076
            9231         2.37598
            9232         5.33448
            9233         3.40802
            9234         5.63001
            9235         3.28545
            9236         4.79680
            9237         2.01774
            9238         2.76245
            9239         4.96588
            9240         2.73348
            9241         2.68806
            9242         2.67574
            9243         4.80205
            9244         2.14909
            9245         2.99221
            9246         2.02377
            9247         5.57800
            9248         2.88827
            9249         3.15893
            9250         2.95359
            9251         5.71552
            9252         2.49661
            9253         2.57572
            9254         3.38787
            9255     340.034E-03
            9256     564.420E-03
            9257         2.52184
            9258         2.45972
            9259         2.18415
            9260         2.33921
            9261         5.66899
            9262         2.58833
            9263         3.65359
            9264         5.29388
            9265         3.08062
            9266         2.32134
            9267         2.55239
            9268         5.59825
            9269         2.66668
            9270         2.33023
            9271         2.40380
            9272         3.26990
            9273         3.35572
            9274         3.47738
            9275         5.09185
            9276         2.74612
            9277         2.75717
            9278         3.03725
            9279         2.23350
            9280     696.199E-03
            9281     467.514E-03
            9282         2.43474
            9283         4.56633
            9284         3.28316
            9285         2.65173
            9286         2.63838
            9287         2.34588
            9288         2.09397
            9289         3.06306
            9290         2.93174
            9291         5.56566
            9292         2.59177
            9293         2.56083
            9294         3.28920
            9295         3.05034
            9296         2.88444
            9297         3.01221
            9298         2.13321
            9299         2.77884
            9300         3.92777
            9301         2.98985
            9302         2.37765
            9303         2.65054
            9304         2.33264
            9305         2.50807
            9306         2.48915
            9307         5.25646
            9308         3.28623
            9309         3.17871
            9310         2.71228
            9311         2.75987
            9312         2.72646
            9313         5.36155
            9314         5.67149
            9315         5.69646
            9316         5.64399
            9317         3.84992
            9318         5.65016
            9319         2.46496
            9320         1.95981
            9321         2.61538
            9322         2.99390
            9323         2.43112
            9324         2.47237
            9325         2.29879
            9326     338.421E-03
            9327         4.48627
            9328         2.59618
            9329         2.66338
            9330         3.16768
            9331         2.66490
            9332         2.63346
            9333         2.60093
            9334         2.58198
            9335         2.54074
            9336         2.12726
            9337         2.05037
            9338         2.96036
            9339         2.95775
            9340         3.07706
            9341         3.14015
            9342         4.02142
            9343         2.71286
            9344         2.71103
            9345         2.87561
            9346         2.97144
            9347         4.96001
            9348         5.44947
            9349         2.93968
            9350         2.37044
            9351         2.62117
            9352         2.67508
            9353         2.30862
            9354         2.45463
            9355         3.43737
            9356         3.13324
            9357         3.39180
            9358         2.99182
            9359         3.77502
            9360         2.38872
            9361         2.72071
            9362         2.56772
            9363         2.91262
            9364         2.76922
            9365         2.85257
            9366         2.68371
            9367         3.43583
            9368         3.40038
            9369         4.76307
            9370         2.90798
            9371         2.75242
            9372         2.70558
            9373         2.71474
            9374         2.51276
            9375         2.61707
            9376         2.78375
            9377         2.92073
            9378         2.50443
            9379         2.28174
            9380         2.33273
            9381     296.908E-03
            9382     384.219E-03
            9383         2.67227
            9384         2.75835
            9385         2.74658
            9386         5.50479
            9387         4.84892
            9388         2.59822
            9389         2.68585
            9390         2.56952
            9391         2.62262
            9392         2.69632
            9393         3.20235
            9394         3.02166
            9395         2.41537
            9396         2.93093
            9397         2.63955
            9398         3.59961
            9399         3.12369
            9400         3.53505
            9401         3.00895
            9402         3.49352
            9403         3.05619
            9404         2.86777
            9405         2.88685
            9406         2.82075
            9407         3.27560
            9408         4.36005
            9409         2.56854
            9410         2.65388
            9411         2.60141
            9412         2.61426
            9413         2.65571
            9414         4.89264
            9415         2.69713
            9416         3.24788
            9417         3.23610
            9418         2.72337
            9419         2.68544
            9420         2.60173
            9421         2.72333
            9422         2.75688
            9423         2.67282
            9424         4.66905
            9425         3.40927
            9426         2.48168
            9427         2.52621
            9428     220.251E-03
            9429         2.37351
            9430         2.55461
            9431         2.40703
            9432         2.60757
            9433         3.70218
            9434         2.61571
            9435         2.68814
            9436         3.04307
            9437         2.78038
            9438         4.63397
            9439         3.14144
            9440         3.23800
            9441         2.91673
            9442         3.03810
            9443         2.32834
            9444         2.86227
            9445         4.55001
            9446         2.83649
            9447         2.65526
            9448         2.55007
            9449         2.67099
            9450         2.63172
            9451         2.62418
            9452         2.66362
            9453         2.64628
            9454         2.72341
            9455         3.48920
            9456         3.03351
            9457         3.11283
            9458         3.36501
            9459         2.62125
            9460         2.77493
            9461         2.73793
            9462         2.64294
            9463         2.70799
            9464         2.74249
            9465     196.037E-03
            9466         2.53213
            9467         2.45041
            9468         3.95079
            9469         2.40800
            9470         2.95494
            9471         2.81029
            9472         2.41497
            9473         3.17035
            9474         2.38547
            9475         2.83908
            9476         2.49229
            9477         2.58383
            9478         2.75362
            9479         2.78443
            9480         3.02123
            9481         2.54050
            9482         2.82824
            9483         2.85203
            9484         2.91685
            9485         2.60438
            9486         2.65553
            9487         2.66400
            9488         2.68085
            9489         2.64468
            9490         2.60915
            9491         2.60885
            9492         3.64000
            9493         3.50825
            9494         3.08836
            9495         3.06670
            9496         2.80024
            9497         2.61048
            9498         2.72638
            9499         2.70199
            9500         3.05883
            9501         3.27677
            9502         2.37375
            9503         2.70729
            9504         3.10513
            9505         2.80066
            9506         2.82781
            9507         3.55098
            9508         3.32380
            9509         2.63885
            9510         2.65257
            9511     134.793E-03
            9512         2.63330
            9513         2.48600
            9514         2.54797
            9515         2.56830
            9516         2.65371
            9517         2.58584
            9518         2.58081
            9519         2.84551
            9520         2.71161
            9521         2.69240
            9522         2.87900
            9523         2.90323
            9524         2.80988
            9525         2.85044
            9526         2.50326
            9527         2.65054
            9528         2.68411
            9529         2.65017
            9530         3.30303
            9531         2.62902
            9532         2.65795
            9533         2.74261
            9534         2.93191
            9535         2.68335
            9536         2.77427
            9537         3.35272
            9538         2.48298
            9539         3.10178
            9540         3.63540
            9541         3.81699
            9542         2.60782
            9543         3.12346
            9544         2.67012
            9545         2.82896
            9546         2.60760
            9547         2.52351
            9548         2.60914
            9549         3.73633
            9550         4.03048
            9551         2.64362
            9552         2.56503
            9553         2.87982
            9554         2.70083
            9555         2.65019
            9556         2.61875
            9557         2.94862
            9558         2.66249
            9559         2.86886
            9560         2.82486
            9561         2.64506
            9562         2.64007
            9563         2.71848
            9564         2.76213
            9565         2.77626
            9566         3.61878
            9567         2.78668
            9568         2.46801
            9569         2.68419
            9570         3.01673
            9571         2.67761
            9572         2.49309
            9573         2.54925
            9574         2.61219
            9575         2.63628
            9576         2.63972
            9577         2.74928
            9578         2.63661
            9579         2.63816
            9580         2.72839
            9581         2.58651
            9582         2.69736
            9583         2.70051
            9584         2.80012
            9585         2.79360
            9586         2.88357
            9587         2.78522
            9588         3.78010
            9589         3.13001
            9590         2.67209
            9591         2.50595
            9592         2.60826
            9593         2.61783
            9594         2.61369
            9595         2.72815
            9596         2.50072
            9597         2.89909
            9598         3.15565
            9599         2.66646
            9600         2.66699
            9601         2.65380
            9602         2.51810
            9603         3.24801
            9604         2.72769
            9605         2.69634
            9606         2.62269
            9607         2.62575
            9608         2.71417
            9609         2.69169
            9610         2.81350
            9611         2.47780
            9612         2.66669
            9613         2.59822
            9614         2.71035
            9615         2.40067
            9616         2.62483
            9617         2.78555
            9618         2.80338
            9619         2.92190
            9620         3.20795
            9621         2.66184
            9622         2.63657
            9623         2.68156
            9624         2.62052
            9625         2.57756
            9626         2.66076
            9627         2.54309
            9628         2.70308
            9629         2.58665
            9630         2.68218
            9631         2.69821
            9632         2.70904
            9633         2.70725
            9634         2.67712
            9635         2.69215
            9636         2.74448
            9637         2.37219
            9638         2.74359
            9639         3.38609
            9640         2.66370
            9641         2.66073
            9642         2.61922
            9643         2.66334
            9644         2.68792
            9645         2.79954
            9646         2.61707
            9647         2.75347
            9648         2.71955
            9649         2.67317
            9650         2.46537
            9651         2.55972
            9652         2.64826
            9653         2.53043
            9654         2.74312
            9655         2.67154
            9656         2.58711
            9657         2.58779
            9658         2.67716
            9659         2.70649
            9660         2.70807
            9661         2.67098
            9662         2.29531
            9663         2.70679
            9664         2.67281
            9665         2.65634
            9666         2.68122
            9667         2.62013
            9668         2.62413
            9669         2.70147
            9670         2.67129
            9671         2.70162
            9672         2.24271
            9673         2.62553
            9674         2.70135
            9675         2.71439
            9676         2.64566
            9677         2.34721
            9678         2.50697
            9679         2.71054
            9680         2.67237
            9681         2.54722
            9682         2.61618
            9683         2.67092
            9684         2.68333
            9685         2.65991
            9686         2.67030
            9687         2.67007
            9688         2.60848
            9689         2.66845
            9690         2.66553
            9691         2.68457
            9692         2.54441
            9693         2.56403
            9694         2.32073
            9695         2.62530
            9696         2.62796
            9697         2.60371
            9698         2.66232
            9699         2.51603
            9700         2.21727
            9701         2.26758
            9702         2.62974
            9703         2.75690
            9704         2.68334
            9705         2.62034
            9706         2.54680
            9707         2.67514
            9708         2.66980
            9709         2.64843
            9710         2.68007
            9711         2.68536
            9712         2.56478
            9713         2.55663
            9714         2.57248
            9715         2.59713
            9716         2.48385
            9717         2.64364
            9718         2.65396
            9719         2.66439
            9720         2.66094
            9721         2.65345
            9722         2.66505
            9723         2.65597
            9724         2.65684
            9725         2.59941
            9726         2.60859
            9727         2.65900
            9728         2.52771
            9729         2.35466
            9730         2.75436
            9731         2.71014
            9732         2.61735
            9733         2.67523
            9734         2.67660
            9735         2.65297
            9736         2.56051
            9737         2.57341
            9738         2.58808
            9739         2.61297
            9740         2.20425
            9741         2.45234
            9742         2.52056
            9743         2.66144
            9744         2.66207
            9745         2.59598
            9746         2.65448
            9747         2.58991
            9748         2.67329
            9749         2.64569
            9750         2.65271
            9751         2.65351
            9752         2.61159
            9753         2.49412
            9754         2.55935
            9755         2.41779
            9756         2.31834
            9757         2.53996
            9758         2.61109
            9759         2.45690
            9760         2.44984
            9761         2.41901
            9762         2.58831
            9763         2.56433
            9764         2.58120
            9765         2.44135
            9766         2.57826
            9767         2.52543
            9768         2.51733
            9769         2.64366
            9770         2.58723
            9771         2.63091
            9772         2.58642
            9773         2.64519
            9774         2.65950
            9775         2.64484
            9776         2.65981
            9777         2.61216
            9778         2.61637
            9779         2.54023
            9780         2.42762
            9781         2.26036
            9782         2.48480
            9783         2.59011
            9784         2.59785
            9785         2.48209
            9786         2.40963
            9787         2.22443
            9788         2.50035
            9789         2.39363
            9790         2.53094
            9791         2.64637
            9792         2.64657
            9793         2.57586
            9794         2.60186
            9795         2.63211
            9796         2.62961
            9797         2.64887
            9798         2.64867
            9799         2.64903
            9800         2.61242
            9801         2.61323
            9802         2.56455
            9803         2.53024
            9804         2.58772
            9805         2.50677
            9806         2.37964
            9807         2.59781
            9808         2.50339
            9809         2.52527
            9810         2.61317
            9811         2.63703
            9812         2.63816
            9813         2.40906
            9814         2.55952
            9815         2.49894
            9816         2.57142
            9817         2.64341
            9818         2.61496
            9819         2.65431
            9820         2.65438
            9821         2.59775
            9822         2.57609
            9823         2.48426
            9824         2.60056
            9825         2.58223
            9826         2.56074
            9827         2.60423
            9828         2.47553
            9829         2.60938
            9830         2.64745
            9831         2.62866
            9832         2.55596
            9833         2.63168
            9834         2.48784
            9835         2.54009
            9836         2.61295
            9837         2.61147
            9838         2.38381
            9839         2.61138
            9840         2.58839
            9841         2.62453
            9842         2.58242
            9843         2.53048
            9844         2.47427
            9845         2.44698
            9846         2.51111
            9847         2.63294
            9848         2.56903
            9849         2.63423
            9850         2.62740
            9851         2.60711
            9852         2.33557
            9853         2.60036
            9854         2.60424
            9855         2.50372
            9856         2.48446
            9857         2.61923
            9858         2.56892
            9859         2.63254
            9860         2.62492
            9861         2.35886
            9862         2.57843
            9863         2.46041
            9864         2.61750
            9865         2.56570
            9866         2.62393
            9867         2.54262
            9868         2.62595
            9869         2.57979
            9870         2.63188
            9871         2.56276
            9872         2.54677
            9873         2.41317
            9874         2.61397
            9875         2.59169
            9876         2.57058
            9877         2.62029
            9878         2.62206
            9879         2.62100
            9880         2.59725
            9881         2.57171
            9882         2.61718
            9883         2.61170
            9884         2.63344
            9885         2.53899
            9886         2.60940
            9887         2.62680
            9888         2.61931
            9889         2.60871
            9890         4.94114
            9891         2.39007
            9892         5.05826
            9893         5.78635
            9894         1.01171
            9895         2.35370
            9896         3.32128
            9897         5.38137
            9898         2.45673
            9899         2.75346
            9900         2.70112
            9901         3.88687
            9902         5.62077
            9903         2.54432
            9904         2.36387
            9905         5.59631
            9906         2.57718
            9907         2.63689
            9908         2.56196
            9909         2.86321
            9910         3.37326
            9911         2.36216
            9912         2.17744
            9913         2.08663
            9914         2.21655
            9915         2.33628
            9916         4.52393
            9917         2.07412
            9918         2.44533
            9919         4.36772
            9920         2.46479
            9921         2.45218
            9922         2.47548
            9923         3.67312
            9924         2.54539
            9925         2.57567
            9926         5.68029
            9927         2.53946
            9928     507.691E-03
            9929         2.57083
            9930         2.78187
            9931         5.84810
            9932         2.45374
            9933         1.57138
            9934         2.45055
            9935         3.81381
            9936         4.93550
            9937         2.52587
            9938         2.89325
            9939         4.09513
            9940         5.71078
            9941         4.67553
            9942         5.67657
            9943         3.53609
            9944         5.60618
            9945         3.41768
            9946         1.02967
            9947         5.41633
            9948         2.60127
            9949         2.58259
            9950         2.33235
            9951         6.31502
            9952         6.98541
            9953         1.70339
            9954         2.64834
            9955         2.60345
            9956         2.55579
            9957         2.51474
            9958         4.65984
            9959         2.59229
            9960         5.35944
            9961         2.45293
            9962         2.81033
            9963         2.65614
            9964         2.55195
            9965         4.78245
            9966         5.69921
            9967         2.43048
            9968         2.82366
            9969         4.36246
            9970         1.66173
            9971         2.65810
            9972         6.95289
            9973         4.54142
            9974         3.70097
            9975         4.53835
            9976         7.69181
            9977     280.395E-03
            9978         3.74629
            9979     937.356E-03
            9980         2.59744
            9981         5.12193
            9982         2.22822
            9983         2.75614
            9984         4.13432
            9985         2.10521
            9986     732.306E-03
            9987         2.36305
            9988         4.41096
            9989     257.539E-03
            9990         7.61195
            9991     817.650E-03
            9992         2.39860
            9993         2.11322
            9994         5.21257
            9995         2.61365
            9996     97.5547E-03
            9997         2.35274
            9998         6.41835
            9999         1.70335
           10000         4.62013
           10001         5.21823
           10002         3.35954
           10003         3.24873
           10004         8.02415
           10005         1.14154
           10006         3.04838
           10007         5.90701
           10008         3.44411
           10009     970.807E-03
           10010         2.65264
           10011         4.75502
           10012         2.51660
           10013         2.60190
           10014         1.90522
           10015         5.80194
           10016         2.40586
           10017     392.079E-03
           10018     462.791E-03
           10019         3.45902
           10020         2.24108
           10021         2.41599
           10022         3.71038
           10023         3.83236
           10024         2.86840
           10025         5.23017
           10026         2.98532
           10027         5.15954
           10028         5.30513
           10029         4.08425
           10030         2.98213
           10031         7.73995
           10032         1.40237
           10033         2.96563
           10034         3.66472
           10035         3.21940
           10036         1.97280
           10037         2.77984
           10038         2.49848
           10039         2.86955
           10040         3.68931
           10041         4.10602
           10042         6.92935
           10043         5.00608
           10044     44.8053E-03
           10045         2.26581
           10046     773.867E-03
           10047         1.69743
           10048     983.528E-03
           10049         1.20311
           10050         4.37325
           10051         2.40115
           10052         1.21686
           10053         2.41743
           10054     981.874E-03
           10055         5.81299
           10056         2.47433
           10057         2.00540
           10058         5.53772
           10059         2.57111
           10060         2.59818
           10061         5.40322
           10062         2.69301
           10063         2.23461
           10064         2.48225
           10065         3.23965
           10066     548.956E-03
           10067         2.90040
           10068         2.99488
           10069         4.41283
           10070         1.29999
           10071         2.58129
           10072         2.64825
           10073         5.89202
           10074         5.31607
           10075         5.05275
           10076     627.512E-03
           10077         6.22039
           10078         5.66697
           10079         4.71583
           10080         2.76405
           10081         3.17754
           10082         7.04718
           10083         2.71156
           10084         2.21175
           10085         2.67790
           10086         2.00108
           10087         2.49984
           10088     674.908E-03
           10089         5.90593
           10090         3.85714
           10091         5.32637
           10092         5.30037
           10093         3.23028
           10094         4.43070
           10095         5.16745
           10096         5.01962
           10097         3.45976
           10098         4.15744
           10099         4.25861
           10100         7.24145
           10101         5.21169
           10102         2.74097
           10103         2.57595
           10104         2.29581
           10105         4.57885
           10106     205.719E-03
           10107         3.93524
           10108         5.01251
           10109         3.06129
           10110         5.73665
           10111         3.23049
           10112         5.44784
           10113         1.18811
           10114         1.34754
           10115         5.59097
           10116         2.16024
           10117         4.13057
           10118         2.37189
           10119         5.16383
           10120         4.89554
           10121         2.25019
           10122         1.81028
           10123         5.14193
           10124         2.42123
           10125         2.71266
           10126         2.46748
           10127         2.30663
           10128         5.75979
           10129         1.97356
           10130         2.52962
           10131         4.90918
           10132         2.41539
           10133         5.69061
           10134         4.02270
           10135         3.93288
           10136         3.84096
           10137         1.03107
           10138         2.60972
           10139         5.21350
           10140         2.78906
           10141         2.53266
           10142         2.42557
           10143         2.23226
           10144         4.27391
           10145         2.85904
           10146         2.96209
           10147     491.325E-03
           10148     414.261E-03
           10149         2.48736
           10150         4.67882
           10151         3.17750
           10152         2.45369
           10153         2.39752
           10154         2.52583
           10155         5.65633
           10156         5.71472
           10157         1.14039
           10158         2.46650
           10159         2.45346
           10160         2.57442
           10161         2.28675
           10162         2.86676
           10163         2.35703
           10164         2.09968
           10165         3.11878
           10166         2.75780
           10167         4.86362
           10168         5.75516
           10169         2.49827
           10170         1.68517
           10171         2.70575
           10172         7.33483
           10173         3.00029
           10174         2.18042
           10175         2.82517
           10176         2.66624
           10177         5.77852
           10178         2.47323
           10179         5.62523
           10180         2.09930
           10181         2.34793
           10182         2.41789
           10183     757.416E-03
           10184     706.597E-03
           10185         2.35503
           10186         2.24311
           10187         4.17828
           10188         3.90014
           10189         7.83918
           10190         4.29835
           10191         5.35297
           10192         4.70237
           10193         7.28542
           10194         3.35755
           10195         5.64394
           10196         2.49161
           10197         2.20994
           10198         2.27540
           10199         2.29841
           10200         2.13300
           10201         2.43259
           10202         2.46560
           10203         2.30372
           10204         2.39363
           10205         2.85991
           10206         2.90135
           10207         2.60967
           10208         2.25019
           10209         2.66442
           10210         2.16754
           10211         2.58572
           10212         2.38551
           10213         2.79550
           10214         2.51308
           10215         2.42769
           10216         2.23615
           10217         2.67946
           10218         2.31702
           10219         2.75369
           10220         2.05035
           10221         2.31858
           10222         2.59822
           10223         2.38139
           10224         2.40071
           10225         2.39732
           10226         2.77046
           10227         2.35566
           10228         2.27178
           10229         2.34596
           10230     850.775E-03
           10231         1.00677
           10232         1.41967
           10233     480.826E-03
           10234     601.078E-03
           10235         1.06125
           10236         2.35158
           10237         2.36151
           10238         2.43355
           10239         2.28695
           10240         1.02524
           10241         2.34572
           10242         2.27154
           10243         2.61020
           10244         2.61176
           10245         2.60863
           10246         2.60099
           10247         2.61214
           10248         2.60898
           10249         5.13759
           10250         2.59389
           10251         2.58868
           10252         2.59247
           10253         7.46789
           10254         7.80997
           10255         7.90806
           10256         4.93213
           10257         4.96908
           10258         4.89649
           10259         4.60249
           10260         5.24558
           10261         4.88122
           10262         4.80481
           10263         4.95167
           10264         4.63663
           10265         2.03840
           10266         2.02702
           10267         1.96475
           10268         2.05707
           10269         5.96538
           10270         6.09636
           10271         5.81797
           10272         5.68064
           10273         2.96276
           10274         3.13223
           10275         3.11074
           10276         2.86419
           10277         2.88443
           10278         7.49032
           10279         2.77633
           10280         2.60233
           10281         2.60217
           10282         2.61147
           10283         2.59354
           10284         6.50958
           10285         6.23804
           10286         2.96444
           10287         2.89152
           10288         3.04823
           10289         3.08377
           10290         2.90758
           10291         5.15279
           10292         5.06096
           10293         5.03756
           10294         4.77900
           10295         4.95990
           10296         2.85116
           10297         2.32602
           10298         2.40520
           10299         5.26716
           10300         1.79895
           10301         1.81815
           10302         1.69895
           10303         1.88865
           10304         2.88894
           10305         2.82760
           10306         2.78845
           10307         2.93691
           10308         2.99014
           10309         2.90900
           10310         4.43427
           10311         4.54650
           10312         4.25386
           10313         4.27328
           10314         4.61667
           10315         4.20586
           10316         4.39480
           10317         4.29635
           10318         4.01984
           10319         4.14352
           10320         6.01479
           10321         6.16223
           10322         6.32910
           10323         6.70732
           10324         5.46228
           10325         5.57246
           10326         5.47049
           10327         5.45110
           10328         5.81930
           10329         5.88052
           10330         5.75625
           10331         5.77623
           10332         5.34605
           10333         5.19648
           10334         5.30818
           10335         5.52067
           10336         4.09350
           10337         3.90472
           10338         4.08804
           10339         4.31251
           10340         4.29593
           10341         3.96247
           10342         3.41139
           10343         3.41218
           10344         3.53606
           10345         3.70058
           10346         3.61966
           10347         3.44452
           10348         2.57590
           10349         2.61387
           10350         2.70574
           10351         2.51501
           10352         2.50141
           10353     446.147E-03
           10354     374.353E-03
           10355     348.758E-03
           10356     559.748E-03
           10357     549.237E-03
           10358     396.824E-03
           10359     488.483E-03
           10360     405.030E-03
           10361     310.904E-03
           10362         2.98109
           10363         2.95769
           10364         3.03712
           10365         2.99700
           10366         2.92783
           10367         3.04025
           10368         3.50774
           10369         3.64765
           10370         3.39793
           10371         3.46598
           10372         3.54493
           10373         5.69516
           10374         5.67223
           10375         5.73304
           10376         5.66942
           10377         5.76118
           10378         1.58518
           10379         2.38905
           10380         2.57310
           10381         5.26423
           10382         5.15348
           10383         2.14969
           10384         2.24287
           10385         5.75395
           10386         5.68936
           10387         5.66825
           10388         5.84548
           10389         5.76608
           10390         5.84160
           10391         3.63082
           10392         3.93738
           10393         3.57892
           10394         3.36666
           10395         3.24316
           10396         3.79906
           10397         4.42810
           10398         4.62932
           10399         4.23599
           10400         4.45662
           10401         3.64498
           10402         3.83419
           10403         3.24623
           10404         3.72669
           10405         3.32158
           10406         2.96441
           10407     104.884E-03
           10408     46.9524E-03
           10409     62.2529E-03
           10410     105.465E-03
           10411     170.023E-03
           10412     151.608E-03
           10413         6.71086
           10414         7.03521
           10415         6.91779
           10416         6.69372
           10417         6.42071
           10418         6.43707
           10419         2.35261
           10420         2.34163
           10421         2.39449
           10422         2.31591
           10423         2.36434
           10424         5.45715
           10425         7.01352
           10426         7.44159
           10427         6.69534
           10428         6.68096
           10429         2.57571
           10430         2.56265
           10431         2.56985
           10432         1.23477
           10433         1.08814
           10434     892.562E-03
           10435     601.886E-03
           10436         1.04712
           10437         1.04220
           10438     897.058E-03
           10439     979.026E-03
           10440         2.16638
           10441         2.30326
           10442         3.89316
           10443         3.73790
           10444         3.80849
           10445         3.97553
           10446         4.12365
           10447         4.01419
           10448         6.65542
           10449         6.78248
           10450         2.40935
           10451         6.55684
           10452         7.17194
           10453         7.26203
           10454         6.36232
           10455         3.25655
           10456         3.46361
           10457         3.60795
           10458         2.50210
           10459         2.46809
           10460         2.49384
           10461         2.53920
           10462         2.51497
           10463         2.92689
           10464         2.87452
           10465         2.99067
           10466         3.06771
           10467         2.96217
           10468         3.54828
           10469         4.21796
           10470         3.74995
           10471         3.13972
           10472         3.09215
           10473         3.19181
           10474         3.00398
           10475         2.99454
           10476         3.18974
           10477         2.74372
           10478         2.67739
           10479         2.72835
           10480     747.702E-03
           10481         2.36622
           10482         2.32359
           10483         2.28355
           10484         2.38944
           10485         2.40831
           10486         3.04292
           10487         1.09202
           10488     471.542E-03
           10489         4.75985
           10490         4.65341
           10491     860.791E-03
           10492         1.33735
           10493         2.59880
           10494         2.61492
           10495         2.62516
           10496         2.60430
           10497         2.57616
           10498         2.57641
           10499         5.86273
           10500         5.87060
           10501         5.98244
           10502         5.96744
           10503         5.45638
           10504         5.75618
           10505         5.47115
           10506         5.19802
           10507         5.39157
           10508         4.47771
           10509         4.67669
           10510         4.68314
           10511     499.170E-03
           10512     579.595E-03
           10513     460.119E-03
           10514     356.081E-03
           10515     604.821E-03
           10516         5.39943
           10517         5.68387
           10518         5.41833
           10519         5.11826
           10520         5.46633
           10521         4.96403
           10522         4.90684
           10523         4.69335
           10524         4.99092
           10525         5.06356
           10526         10.1615
           10527         12.4611
           10528         10.0847
           10529         8.54543
           10530         9.09700
           10531         2.17285
           10532         2.38734
           10533         1.88112
           10534         1.91961
           10535         2.13451
           10536         6.78030
           10537         4.36753
           10538         1.88772
           10539         1.66427
           10540         1.67698
           10541         2.06648
           10542         2.11949
           10543         2.42475
           10544         7.09771
           10545         5.75363
           10546         7.84813
           10547         8.61443
           10548         5.56664
           10549     994.943E-03
           10550     743.598E-03
           10551         1.22290
           10552         1.26519
           10553         2.67633
           10554         2.68317
           10555         2.70426
           10556         2.65463
           10557         2.56854
           10558         2.54303
           10559         2.52740
           10560         2.59832
           10561         2.62967
           10562         2.58607
           10563         3.81533
           10564         3.89425
           10565         3.55681
           10566         3.44595
           10567         3.83458
           10568         4.11330
           10569         5.75778
           10570         3.75724
           10571         5.23867
           10572         5.01742
           10573         2.80060
           10574         2.99266
           10575         5.10472
           10576         5.26249
           10577         5.15923
           10578         5.07259
           10579         5.01647
           10580         2.60629
           10581         2.61928
           10582         2.60382
           10583         2.59134
           10584     807.643E-03
           10585     699.554E-03
           10586     598.195E-03
           10587     886.099E-03
           10588     915.834E-03
           10589     737.055E-03
           10590         3.63207
           10591         3.72919
           10592         3.52822
           10593         3.72385
           10594         2.10009
           10595     694.953E-03
           10596     815.265E-03
           10597     770.748E-03
           10598     847.933E-03
           10599     640.559E-03
           10600         6.03831
           10601         6.48916
           10602         6.54624
           10603         6.05282
           10604         5.27427
           10605         5.35281
           10606         5.26456
           10607         5.36883
           10608         5.29125
           10609         5.16442
           10610         5.14414
           10611         2.22230
           10612         2.55326
           10613         2.60478
           10614         2.55904
           10615         2.49574
           10616         2.56447
           10617         6.00493
           10618         5.75760
           10619         6.12725
           10620         5.86638
           10621         6.24672
           10622         5.00716
           10623         5.29278
           10624         5.12407
           10625         2.58996
           10626         2.60115
           10627         2.58546
           10628         2.61715
           10629         2.56584
           10630         2.62567
           10631         2.53467
           10632         2.48568
           10633         2.38995
           10634         2.59933
           10635         2.68770
           10636         2.25602
           10637         2.21950
           10638         1.97837
           10639         1.94939
           10640         2.29250
           10641         2.59577
           10642         2.60139
           10643         2.57656
           10644         2.61359
           10645         2.59041
           10646         2.56986
           10647         2.55455
           10648         2.55700
           10649         6.97711
           10650         7.47862
           10651         7.40036
           10652         6.99415
           10653         2.32504
           10654         6.85811
           10655         1.26653
           10656         1.35182
           10657         1.44188
           10658         1.44873
           10659         1.68555
           10660         1.52009
           10661         1.53349
           10662         1.67219
           10663         6.17466
           10664         6.03223
           10665         5.80073
           10666         6.26269
           10667         2.70987
           10668         2.70792
           10669         2.69692
           10670         2.70823
           10671         2.71866
           10672         2.72792
           10673         6.13247
           10674         6.01928
           10675         6.28471
           10676         6.01216
           10677         5.88939
           10678         6.55923
           10679     784.638E-03
           10680         1.18122
           10681     868.606E-03
           10682     627.290E-03
           10683         3.80415
           10684         4.08653
           10685         4.04773
           10686         3.54528
           10687         5.60328
           10688         5.53921
           10689         5.64171
           10690         5.69737
           10691         5.63947
           10692         5.52899
           10693         5.58614
           10694         5.85341
           10695         5.58128
           10696         6.09149
           10697         6.11256
           10698         5.67394
           10699         3.34768
           10700         3.33820
           10701         3.48902
           10702         3.48604
           10703         3.34489
           10704         3.23440
           10705         2.61480
           10706         1.96977
           10707         1.82694
           10708         2.10209
           10709         2.04725
           10710         2.69254
           10711         2.73922
           10712         2.78491
           10713         2.85774
           10714         2.64669
           10715         2.43606
           10716         2.47193
           10717         2.49394
           10718         2.32708
           10719         4.51705
           10720     522.922E-03
           10721     384.234E-03
           10722     780.810E-03
           10723     243.811E-03
           10724     440.394E-03
           10725         3.35377
           10726         3.43039
           10727         3.27776
           10728         2.65069
           10729         2.66685
           10730         2.67162
           10731         2.64890
           10732         2.65302
           10733         2.38915
           10734         2.63701
           10735     364.900E-03
           10736     449.879E-03
           10737     278.691E-03
           10738     526.007E-03
           10739     247.926E-03
           10740         5.03277
           10741         4.79021
           10742         4.78911
           10743         5.00302
           10744         5.31212
           10745         5.26881
           10746         5.27252
           10747         5.38645
           10748         5.36071
           10749         5.18265
           10750         11.1098
           10751         2.49924
           10752         2.47118
           10753         2.47343
           10754         2.06889
           10755         2.01776
           10756         2.03403
           10757         2.12510
           10758         5.56552
           10759         5.48684
           10760         4.48854
           10761         6.86850
           10762         5.90881
           10763         2.62564
           10764         2.68560
           10765         2.51628
           10766         2.60011
           10767         2.42927
           10768         2.51977
           10769         2.32109
           10770         2.19551
           10771         2.33334
           10772         2.39928
           10773         2.54341
           10774         3.02173
           10775         2.39953
           10776         4.07303
           10777         3.80901
           10778         3.67314
           10779         3.83019
           10780         4.00942
           10781         3.72873
           10782         5.87193
           10783         6.54794
           10784         2.42875
           10785         2.45991
           10786         2.48053
           10787         6.35647
           10788         6.12108
           10789         6.51023
           10790         6.21022
           10791         2.49284
           10792         2.65639
           10793         1.12140
           10794         1.21672
           10795         1.02466
           10796         2.64818
           10797         2.63967
           10798         2.64927
           10799         2.65514
           10800         2.65199
           10801         2.63406
           10802         2.48185
           10803         2.46543
           10804         2.51542
           10805         2.39685
           10806         2.78786
           10807         2.78888
           10808         2.81623
           10809         2.84810
           10810         2.72458
           10811         2.50489
           10812         2.45237
           10813         2.51860
           10814         2.51722
           10815         3.26835
           10816         3.30310
           10817         3.22916
           10818         3.45073
           10819         3.38147
           10820         5.34667
           10821         5.38561
           10822         5.46511
           10823         5.53490
           10824         5.44575
           10825         2.96499
           10826         2.94240
           10827         3.17021
           10828         3.01300
           10829         3.18207
           10830         2.78379
           10831         2.82080
           10832         1.57107
           10833         1.56113
           10834         1.45930
           10835         1.59096
           10836         1.48876
           10837         1.70755
           10838         4.41165
           10839         4.48655
           10840         4.24373
           10841         3.99943
           10842         4.92420
           10843         1.13746
           10844         1.10060
           10845         1.17110
           10846         1.02037
           10847     921.489E-03
           10848     688.468E-03
           10849         7.28326
           10850         7.82659
           10851         7.50287
           10852         7.04474
           10853         7.46103
           10854         2.31604
           10855         2.39958
           10856         2.43654
           10857         2.43758
           10858         2.35872
           10859         2.41078
           10860         1.82564
           10861         1.74676
           10862         1.92166
           10863         1.68212
           10864         2.76052
           10865         2.70624
           10866         1.78388
           10867         9.34763
           10868         10.3492
           10869         9.07959
           10870         8.55085
           10871         6.26106
           10872         6.05644
           10873         5.90650
           10874         6.13521
           10875         6.37781
           10876         9.77950
           10877         9.07850
           10878         10.8808
           10879         8.84390
           10880         10.2019
           10881         5.98411
           10882         6.24817
           10883         6.48930
           10884         5.72778
           10885         5.68492
           10886         5.91613
           10887         5.73378
           10888         5.74465
           10889         5.69155
           10890         5.71284
           10891         5.76359
           10892         4.89632
           10893     547.652E-03
           10894         2.81924
           10895         2.68776
           10896         2.70689
           10897         2.69143
           10898         2.84412
           10899         2.82865
           10900         2.80863
           10901         2.87939
           10902         2.96965
           10903     80.4763E-03
           10904         5.03983
           10905         4.82230
           10906         4.61663
           10907         4.90250
           10908         4.75128
           10909         1.06501
           10910     775.945E-03
           10911     889.387E-03
           10912     947.061E-03
           10913         5.76204
           10914         7.22227
           10915         6.59684
           10916         7.66705
           10917         6.97672
           10918         5.76533
           10919         7.88830
           10920         6.48949
           10921         5.73409
           10922         5.00389
           10923         5.10407
           10924         5.19927
           10925     88.2897E-03
           10926     168.023E-03
           10927     109.249E-03
           10928     109.801E-03
           10929         5.41910
           10930         5.25880
           10931         14.9377
           10932         2.85220
           10933         2.77198
           10934         2.83000
           10935         2.80562
           10936         2.94851
           10937         1.02454
           10938     920.738E-03
           10939         3.51932
           10940         3.44516
           10941     194.658E-03
           10942         3.83334
           10943         4.14367
           10944         3.91912
           10945         6.23634
           10946         6.12722
           10947         5.79825
           10948         6.15999
           10949     448.721E-03
           10950     754.767E-03
           10951     309.364E-03
           10952     551.500E-03
           10953         3.37457
           10954         3.35015
           10955         2.60891
           10956         2.60472
           10957         2.59804
           10958         2.61048
           10959         2.60905
           10960         2.60671
           10961         2.59636
           10962         3.63038
           10963         3.87763
           10964         3.41862
           10965         3.22773
           10966     341.553E-03
           10967         2.54005
           10968         2.50520
           10969         2.56721
           10970         2.54635
           10971         2.51065
           10972         7.24911
           10973         7.74594
           10974         7.76451
           10975         7.70684
           10976         7.32585
           10977         8.22556
           10978         2.90781
           10979         3.09739
           10980         3.10251
           10981         2.74472
           10982         2.84731
           10983         4.50052
           10984         4.48078
           10985         4.72225
           10986         4.74226
           10987         5.64531
           10988         5.84979
           10989         5.68130
           10990         2.62888
           10991         2.58885
           10992         2.62945
           10993         2.12814
           10994         2.20589
           10995         2.12579
           10996         2.10409
           10997         2.66686
           10998     36.9399E-03
           10999         2.65977
           11000         2.67428
           11001     177.243E-03
           11002     216.400E-03
           11003     329.005E-03
           11004     138.542E-03
           11005     65.0586E-03
           11006     617.601E-03
           11007         2.10047
           11008         1.92760
           11009         1.74789
           11010         2.13153
           11011     154.875E-03
           11012         1.69875
           11013         1.49316
           11014         1.88954
           11015         2.83743
           11016         2.79676
           11017         2.90482
           11018         2.88688
           11019         1.57393
           11020         2.06190
           11021         1.28522
           11022         6.35642
           11023         6.56989
           11024         6.26063
           11025         6.17315
           11026         2.85448
           11027         2.92987
           11028         2.86518
           11029         2.79292
           11030         2.43765
           11031         2.48307
           11032         10.4329
           11033         8.84584
           11034     29.3734E-03
           11035         7.87693
           11036         2.61134
           11037         2.66789
           11038         2.29027
           11039     294.165E-03
           11040     294.646E-03
           11041     318.690E-03
           11042         4.62024
           11043         4.69649
           11044         4.89109
           11045         4.41365
           11046         4.35525
           11047         4.86214
           11048         2.16635
           11049         2.21924
           11050         6.06252
           11051         6.36113
           11052         5.76621
           11053         6.30598
           11054         5.19435
           11055         2.69847
           11056         2.63412
           11057         2.71808
           11058         3.27522
           11059         3.27705
           11060         3.30238
           11061         3.15890
           11062         3.41533
           11063         2.06023
           11064         2.06524
           11065         1.94044
           11066         1.93833
           11067         2.65170
           11068         2.64348
           11069         2.65497
           11070         2.64405
           11071     308.700E-03
           11072         7.17408
           11073         7.29294
           11074         6.64162
           11075         6.87545
           11076         2.56789
           11077         2.57427
           11078         2.52641
           11079         3.62327
           11080         3.67671
           11081     497.964E-03
           11082     426.483E-03
           11083     573.746E-03
           11084     801.671E-03
           11085     323.397E-03
           11086     349.888E-03
           11087     521.922E-03
           11088     545.376E-03
           11089     470.010E-03
           11090         1.00539
           11091         6.88580
           11092         7.22412
           11093         6.50522
           11094         6.56050
           11095         2.82308
           11096         2.81478
           11097         2.91208
           11098         2.77232
           11099         6.79957
           11100         6.87560
           11101         6.93235
           11102         6.41760
           11103         7.18378
           11104         2.73160
           11105     289.532E-03
           11106     139.185E-03
           11107         8.50454
           11108         10.0703
           11109         8.85145
           11110         7.35984
           11111         7.26710
           11112         2.13783
           11113         2.15903
           11114         2.05363
           11115         2.20907
           11116         1.99171
           11117         5.71442
           11118         5.83268
           11119         5.82470
           11120         5.71103
           11121     517.099E-03
           11122         2.31728
           11123         2.14933
           11124         2.07447
           11125         2.60292
           11126         2.87322
           11127         2.64790
           11128         2.58088
           11129         2.55484
           11130         2.57708
           11131         6.68425
           11132         7.54783
           11133         5.86560
           11134         3.17229
           11135         6.52382
           11136         2.17949
           11137         2.14351
           11138         2.64578
           11139         2.65843
           11140         2.63567
           11141         2.66172
           11142         2.71555
           11143         2.68591
           11144         3.33698
           11145         3.22307
           11146         3.61949
           11147         3.14616
           11148         5.78262
           11149         5.77079
           11150         1.13087
           11151         1.47575
           11152         6.22588
           11153         5.49229
           11154         5.23987
           11155         2.25467
           11156         2.27018
           11157         2.30967
           11158         2.19024
           11159         6.04767
           11160         5.78519
           11161         5.44232
           11162         6.86140
           11163         6.14488
           11164         2.54520
           11165         2.56007
           11166         2.57214
           11167         5.98072
           11168         5.52299
           11169         5.73118
           11170         5.50627
           11171         5.13017
           11172         5.41374
           11173         5.19874
           11174         5.11079
           11175         7.03727
           11176         6.93065
           11177         7.47119
           11178         1.85561
           11179         1.74955
           11180         1.82246
           11181         2.63797
           11182         2.60743
           11183         2.60463
           11184         2.67622
           11185         2.65464
           11186     212.636E-03
           11187     158.945E-03
           11188     111.712E-03
           11189     237.436E-03
           11190     158.218E-03
           11191         2.84645
           11192         2.83666
           11193     896.639E-03
           11194         1.25745
           11195         4.91011
           11196         5.03316
           11197         5.10214
           11198         4.70564
           11199         4.42872
           11200         4.19867
           11201         4.26720
           11202         4.75675
           11203         4.71170
           11204         3.81544
           11205         4.20163
           11206         3.69399
           11207         3.95015
           11208         2.61517
           11209         2.60425
           11210         2.56448
           11211         2.72680
           11212         2.67277
           11213         2.76760
           11214     793.503E-03
           11215         2.62793
           11216         2.53842
           11217         2.70771
           11218         2.62748
           11219         2.66453
           11220         2.64098
           11221         2.59647
           11222         3.25950
           11223         3.40145
           11224         2.52751
           11225         2.96500
           11226         3.10935
           11227         3.04109
           11228         3.12582
           11229         3.17483
           11230         3.39615
           11231     659.110E-03
           11232         2.89843
           11233     867.052E-03
           11234         5.86076
           11235         5.90550
           11236         5.63364
           11237         5.59579
           11238         2.76307
           11239         2.75006
           11240         2.75937
           11241         2.70572
           11242         2.73713
           11243         2.75543
           11244         2.79094
           11245         2.74544
           11246         2.15493
           11247         2.16179
           11248         2.22892
           11249         3.88755
           11250         3.77209
           11251         4.02081
           11252         3.72552
           11253         2.38068
           11254         2.83041
           11255         3.49368
           11256         2.16279
           11257         2.64191
           11258         2.63446
           11259         2.61984
           11260         5.38167
           11261         5.50406
           11262     945.192E-03
           11263     596.418E-03
           11264     707.106E-03
           11265         1.62990
           11266         4.15534
           11267         4.35262
           11268         4.12377
           11269         3.94049
           11270         4.19929
           11271         8.10115
           11272         8.78278
           11273         7.17616
           11274         6.94154
           11275         5.28874
           11276         1.11191
           11277     31.1641E-03
           11278         6.46398
           11279         6.18974
           11280         5.97768
           11281         5.90687
           11282         2.87705
           11283         2.63750
           11284         2.59210
           11285         2.55849
           11286         2.62397
           11287         2.63468
           11288         2.56492
           11289         5.04712
           11290         5.00464
           11291         4.51909
           11292     137.999E-03
           11293         5.51089
           11294         5.39901
           11295         5.50037
           11296         5.60760
           11297         5.62234
           11298         5.24557
           11299         4.75209
           11300     47.6759E-03
           11301         4.75726
           11302         5.15870
           11303         3.61346
           11304         3.66818
           11305         1.04657
           11306     898.578E-03
           11307         1.20501
           11308         1.01475
           11309         5.60394
           11310         5.54098
           11311     53.3408E-03
           11312         5.51314
           11313     442.306E-03
           11314         2.97183
           11315         3.26429
           11316         3.03089
           11317         2.64968
           11318         2.65848
           11319         2.64832
           11320         2.64051
           11321         1.79467
           11322         1.85338
           11323         1.65292
           11324     16.9417E-03
           11325     20.7846E-03
           11326     18.2553E-03
           11327     8.72562E-03
           11328     16.6386E-03
           11329         3.42296
           11330         3.25026
           11331         3.31058
           11332         7.09913
           11333     968.208E-03
           11334     945.024E-03
           11335         1.10394
           11336     931.108E-03
           11337         1.10409
           11338         13.0992
           11339         11.5947
           11340         18.5776
           11341         9.25750
           11342         10.4287
           11343         10.3071
           11344         4.84734
           11345         5.19053
           11346         2.28956
           11347         5.00773
           11348         7.42617
           11349         7.11494
           11350         7.45730
           11351         6.74528
           11352     35.0580E-03
           11353         2.45324
           11354     946.130E-03
           11355         1.16653
           11356         4.00899
           11357         4.06744
           11358         4.39671
           11359         2.62335
           11360         2.63433
           11361         6.89589
           11362         6.74564
           11363         6.70564
           11364         7.11763
           11365         7.34242
           11366         2.40640
           11367         6.61464
           11368         6.86984
           11369         6.27644
           11370         6.54593
           11371         6.02874
           11372         5.89560
           11373         6.31533
           11374         6.59297
           11375         6.08103
           11376         2.63888
           11377         2.62703
           11378         2.62462
           11379         2.66841
           11380     392.987E-03
           11381     417.724E-03
           11382     516.017E-03
           11383     318.639E-03
           11384     48.1387E-03
           11385     572.163E-03
           11386     470.195E-03
           11387     366.100E-03
           11388     411.465E-03
           11389     606.125E-03
           11390         3.92898
           11391         3.73217
           11392         2.67451
           11393         2.65516
           11394         2.72974
           11395         3.16477
           11396         3.07682
           11397         3.06276
           11398         3.24050
           11399     422.867E-03
           11400         3.22366
           11401     927.291E-03
           11402         7.32946
           11403         7.83407
           11404         8.57541
           11405         7.14179
           11406         6.71545
           11407         6.29791
           11408         6.10665
           11409         7.46655
           11410         6.89464
           11411         2.73427
           11412         2.74255
           11413         2.83394
           11414         2.73667
           11415         2.60803
           11416         2.61242
           11417         2.59691
           11418         6.40603
           11419         6.45993
           11420         6.24953
           11421         2.86881
           11422         2.83024
           11423         2.92967
           11424         2.78007
           11425         2.84491
           11426         2.18064
           11427         3.01955
           11428         2.10594
           11429         1.27887
           11430         5.86400
           11431         5.79953
           11432         5.93695
           11433         6.00118
           11434         2.36396
           11435         2.28168
           11436         2.10182
           11437         2.41165
           11438         5.24687
           11439         5.20835
           11440         5.06449
           11441         5.43913
           11442         5.32302
           11443         1.29131
           11444         1.09183
           11445         1.49787
           11446         1.51449
           11447         5.96945
           11448         2.14686
           11449         3.60720
           11450         1.27112
           11451         1.14715
           11452         12.4215
           11453         2.60293
           11454         2.59348
           11455         2.59584
           11456         2.60634
           11457     478.835E-03
           11458     711.090E-03
           11459     787.955E-03
           11460         2.12035
           11461         1.90590
           11462     266.036E-03
           11463     423.556E-03
           11464     267.995E-03
           11465     79.3991E-03
           11466         1.98218
           11467     523.409E-03
           11468         1.38829
           11469         2.03974
           11470         1.90704
           11471         2.01738
           11472         2.68019
           11473         2.68699
           11474         2.67859
           11475         3.48857
           11476         3.65464
           11477         3.68482
           11478         5.76927
           11479         5.71618
           11480         5.74798
           11481         5.70448
           11482         2.49481
           11483         2.53972
           11484         5.75122
           11485         5.39943
           11486         1.29086
           11487         5.75369
           11488     469.390E-03
           11489         2.31185
           11490         2.18390
           11491         1.05468
           11492         1.28589
           11493         1.25803
           11494         6.72272
           11495         6.43207
           11496         3.47478
           11497         3.54182
           11498         3.50524
           11499         3.22398
           11500         2.36997
           11501         2.46298
           11502         2.33003
           11503         2.40242
           11504         2.62796
           11505         2.61849
           11506         2.61593
           11507         2.64040
           11508         2.61941
           11509         2.35896
           11510         1.24260
           11511         1.66368
           11512         4.42106
           11513         1.38359
           11514         5.48646
           11515         5.45783
           11516         5.54443
           11517         5.59309
           11518         6.41925
           11519         6.30421
           11520         6.09498
           11521         5.34369
           11522         5.36348
           11523         6.31400
           11524         7.12319
           11525         6.16958
           11526         5.29898
           11527         7.30582
           11528         2.76512
           11529         2.78853
           11530         2.75069
           11531         2.73950
           11532         2.24902
           11533     630.363E-03
           11534     455.527E-03
           11535     843.704E-03
           11536     715.039E-03
           11537     613.427E-03
           11538         2.43634
           11539         2.19743
           11540         2.67275
           11541         1.98772
           11542         1.81752
           11543         2.18914
           11544         2.66188
           11545         2.66040
           11546         2.67437
           11547         2.64103
           11548         2.68917
           11549         2.42118
           11550         2.73604
           11551         2.61792
           11552         2.64559
           11553         2.62176
           11554         2.15680
           11555         2.08029
           11556         2.13276
           11557         2.18747
           11558     82.4570E-03
           11559         3.82180
           11560         4.00556
           11561         3.80044
           11562         3.60812
           11563         2.24190
           11564         2.29992
           11565         2.31276
           11566         2.35675
           11567         2.37382
           11568         6.96819
           11569         7.72107
           11570         8.02325
           11571         7.64290
           11572         4.36162
           11573         4.17483
           11574         4.50277
           11575         4.35673
           11576         2.41054
           11577         4.63782
           11578         4.43855
           11579         4.69145
           11580         4.42671
           11581         7.12663
           11582         7.15376
           11583         6.61367
           11584         6.64287
           11585         7.68468
           11586         7.64614
           11587         5.01603
           11588         7.78787
           11589     739.698E-03
           11590         2.60623
           11591         2.61152
           11592         2.61702
           11593         2.61045
           11594         2.61366
           11595         2.60018
           11596         1.00673
           11597         1.17292
           11598         1.09141
           11599     850.086E-03
           11600     908.188E-03
           11601     519.189E-03
           11602     689.110E-03
           11603     890.229E-03
           11604     918.894E-03
           11605     708.923E-03
           11606         1.15464
           11607         2.67352
           11608         2.67077
           11609         2.66464
           11610         2.68526
           11611     825.152E-03
           11612         1.13241
           11613         1.06082
           11614         2.86453
           11615         3.13339
           11616         2.91050
           11617         3.05807
           11618         5.31130
           11619         5.20612
           11620         5.06843
           11621         5.16458
           11622         2.53735
           11623         2.55023
           11624         2.52140
           11625         2.56836
           11626         2.62553
           11627         2.61896
           11628         2.61768
           11629         2.62400
           11630         2.63953
           11631         4.38422
           11632         4.59715
           11633         1.24767
           11634         1.22073
           11635         1.30517
           11636     607.195E-03
           11637     593.681E-03
           11638     387.996E-03
           11639     370.888E-03
           11640     631.878E-03
           11641     35.1451E-03
           11642         5.34934
           11643         5.55033
           11644         1.67484
           11645         1.22806
           11646         1.21644
           11647     856.704E-03
           11648         1.07845
           11649         1.44314
           11650         5.77605
           11651         5.78508
           11652         5.64370
           11653         5.59630
           11654         5.60453
           11655         3.25594
           11656         3.46594
           11657         3.42889
           11658         3.71225
           11659         3.53922
           11660         3.94313
           11661         1.90415
           11662         2.04669
           11663         1.96976
           11664         1.77648
           11665         7.15864
           11666         6.64937
           11667         6.95494
           11668         6.40937
           11669         2.66058
           11670         2.49102
           11671         2.32238
           11672         2.37492
           11673         4.30306
           11674         4.58268
           11675         4.15513
           11676         2.75178
           11677         2.44715
           11678         2.27232
           11679         2.71823
           11680         2.42925
           11681         1.88114
           11682     295.517E-03
           11683     166.484E-03
           11684     161.949E-03
           11685     279.337E-03
           11686         3.03381
           11687         3.15256
           11688         2.87665
           11689         1.61442
           11690         1.98115
           11691         3.92274
           11692         4.00957
           11693         4.68146
           11694         3.55296
           11695         4.17650
           11696         5.00387
           11697         4.91080
           11698         5.10871
           11699         5.83162
           11700         5.73729
           11701         5.76678
           11702         4.17273
           11703         3.96561
           11704         3.42481
           11705         3.57015
           11706         3.48514
           11707         3.30309
           11708         5.27092
           11709         5.46883
           11710         5.62222
           11711         5.10537
           11712         3.41150
           11713         3.88469
           11714         3.34433
           11715         3.78947
           11716         3.08253
           11717         1.14611
           11718         1.50494
           11719         1.13739
           11720     272.399E-03
           11721         3.17410
           11722         1.74592
           11723         3.11615
           11724         5.76644
           11725         2.10628
           11726         8.11607
           11727         8.88661
           11728         8.42505
           11729         4.21313
           11730         2.52432
           11731         2.66054
           11732         2.44578
           11733         2.82231
           11734         5.34483
           11735         5.22531
           11736         2.45957
           11737         1.76324
           11738         2.08005
           11739         3.41776
           11740         4.16755
           11741         1.84764
           11742         1.99706
           11743         2.16207
           11744         1.92175
           11745         2.13203
           11746         6.52352
           11747         6.10302
           11748     530.854E-03
           11749     534.887E-03
           11750     365.594E-03
           11751     698.808E-03
           11752         6.41197
           11753         6.83507
           11754         6.59674
           11755         2.37787
           11756         2.08742
           11757         2.37783
           11758     488.425E-03
           11759     322.390E-03
           11760         7.74693
           11761         2.08334
           11762         2.15010
           11763         4.90977
           11764         5.19691
           11765         4.99557
           11766         5.07070
           11767         4.82007
           11768         5.16241
           11769         5.10471
           11770         5.08313
           11771         5.02600
           11772         3.35589
           11773         3.68203
           11774         3.41556
           11775         4.04933
           11776     584.692E-03
           11777     466.525E-03
           11778         1.89204
           11779         2.26282
           11780         1.75436
           11781         1.46154
           11782     192.436E-03
           11783         5.68176
           11784         5.77463
           11785         5.88547
           11786         5.76562
           11787         5.63369
           11788         4.18618
           11789     280.287E-03
           11790     384.385E-03
           11791         1.45789
           11792         1.48700
           11793         1.44183
           11794         1.30083
           11795         1.31450
           11796         5.96818
           11797         5.82974
           11798         5.95055
           11799         5.93430
           11800         5.80053
           11801         2.84486
           11802         2.74036
           11803         2.74868
           11804         2.93430
           11805         1.62871
           11806         1.72693
           11807         1.55177
           11808         1.40693
           11809         1.46516
           11810         1.64341
           11811         3.19984
           11812         3.72803
           11813         3.71270
           11814     442.837E-03
           11815     442.613E-03
           11816     359.116E-03
           11817     596.395E-03
           11818     456.805E-03
           11819         10.1262
           11820         9.59373
           11821         8.79753
           11822         11.3337
           11823         5.93398
           11824         5.84672
           11825         5.71029
           11826     774.722E-03
           11827         1.47473
           11828     502.234E-03
           11829     912.565E-03
           11830         2.36944
           11831         2.35777
           11832         2.40024
           11833         3.10364
           11834         3.16015
           11835         3.08401
           11836         2.97604
           11837         3.32048
           11838         3.18188
           11839         3.43622
           11840         3.66236
           11841         3.51259
           11842         3.80134
           11843         7.85660
           11844         5.63519
           11845         5.82643
           11846         4.95280
           11847         2.62186
           11848         2.73654
           11849         2.57842
           11850         4.19584
           11851         4.28145
           11852         2.18415
           11853         2.02175
           11854         2.64806
           11855         2.63705
           11856         3.55604
           11857         4.22685
           11858         2.61320
           11859         2.63935
           11860         2.62794
           11861         2.60795
           11862         4.09072
           11863         4.10700
           11864         3.84041
           11865         2.90149
           11866         2.97644
           11867         2.80108
           11868         2.86840
           11869         2.95291
           11870         2.16770
           11871         2.19901
           11872         2.67964
           11873         2.67307
           11874         2.65348
           11875         2.69287
           11876         2.65296
           11877         2.77194
           11878         2.72042
           11879         2.57864
           11880         2.65305
           11881         2.60853
           11882         5.93440
           11883         5.62688
           11884         2.59330
           11885         2.48146
           11886         6.70973
           11887         7.08526
           11888         6.92876
           11889         6.38792
           11890         6.19943
           11891         6.77114
           11892         6.55146
           11893         1.28656
           11894         1.23035
           11895         1.32199
           11896         1.34661
           11897         1.08215
           11898         1.18331
           11899         2.40200
           11900         2.41350
           11901         2.44121
           11902         2.42949
           11903         2.22259
           11904     746.477E-03
           11905         2.61089
           11906         2.59798
           11907         6.01681
           11908         6.22991
           11909         6.43190
           11910         6.61391
           11911         6.21736
           11912         6.17551
           11913         5.29759
           11914         4.83589
           11915         4.75468
           11916         2.70349
           11917         2.82361
           11918         5.68532
           11919         5.40179
           11920         1.52206
           11921         1.42558
           11922         1.63541
           11923         1.59850
           11924         20.7501
           11925         5.30219
           11926         14.1762
           11927         22.6159
           11928         2.65602
           11929     566.267E-03
           11930     566.831E-03
           11931     592.227E-03
           11932     382.575E-03
           11933     744.564E-03
           11934     756.484E-03
           11935         3.64062
           11936         3.91497
           11937         3.29137
           11938         3.59779
           11939         3.35303
           11940         5.33287
           11941         5.08861
           11942         5.01559
           11943         3.96057
           11944         4.12933
           11945         3.72586
           11946         3.85232
           11947         1.92938
           11948         5.85363
           11949         5.85064
           11950         5.63171
           11951         5.81208
           11952         6.04182
           11953         5.83530
           11954         6.09503
           11955         5.54164
           11956         6.17484
           11957         5.01116
           11958         6.82233
           11959         6.41763
           11960         6.09854
           11961     832.537E-03
           11962     527.268E-03
           11963     641.852E-03
           11964         1.01783
           11965     839.481E-03
           11966         2.20043
           11967         2.28995
           11968         2.16342
           11969         2.09465
           11970         1.53795
           11971         1.40051
           11972         1.42481
           11973         5.17948
           11974         5.25634
           11975         5.08289
           11976         2.14898
           11977         2.09551
           11978         5.89390
           11979         5.91169
           11980         4.28275
           11981         4.22423
           11982         3.97317
           11983         4.62381
           11984         5.38722
           11985         5.64855
           11986         8.02207
           11987         8.82201
           11988         8.61514
           11989         6.50908
           11990         6.35516
           11991         6.19721
           11992         2.99563
           11993         3.11192
           11994         3.05665
           11995         2.56249
           11996         2.54263
           11997         2.54608
           11998         2.57895
           11999         3.79060
           12000         5.59611
           12001         5.82353
           12002         1.19544
           12003     847.697E-03
           12004         1.04016
           12005         1.60081
           12006         1.65323
           12007         4.66718
           12008         6.27256
           12009         3.45889
           12010         4.20711
           12011         2.71301
           12012         2.67094
           12013         2.67132
           12014         2.71730
           12015         2.75888
           12016         2.68193
           12017         2.62369
           12018         2.62585
           12019         2.62259
           12020         4.88701
           12021         9.92425
           12022         12.2305
           12023         9.79326
           12024         2.61720
           12025         2.64308
           12026         2.59883
           12027         2.50557
           12028         2.51557
           12029     252.359E-03
           12030     236.338E-03
           12031     346.869E-03
           12032     308.101E-03
           12033         5.27718
           12034         5.43382
           12035         5.16805
           12036         5.47043
           12037         5.57233
           12038         7.42163
           12039         7.76954
           12040     352.209E-03
           12041         2.58032
           12042         2.67272
           12043         5.36027
           12044         5.09975
           12045         5.04045
           12046         5.03910
           12047         3.08405
           12048         3.15498
           12049         3.14150
           12050         5.37738
           12051         5.26724
           12052         5.44262
           12053         2.93239
           12054         2.89693
           12055         2.87153
           12056         2.82988
           12057         5.39930
           12058         5.39695
           12059         5.48057
           12060         2.63081
           12061         3.23647
           12062         2.77554
           12063         4.56028
           12064         4.49213
           12065         4.37839
           12066         4.24603
           12067         4.44576
           12068         3.15455
           12069         3.53660
           12070         3.43480
           12071         3.32347
           12072         2.02904
           12073         2.02184
           12074         2.57292
           12075         2.56240
           12076         3.97227
           12077         2.58165
           12078         2.57802
           12079         2.35238
           12080         2.22774
           12081         2.31133
           12082         2.12477
           12083         2.20301
           12084         2.09043
           12085         3.22150
           12086         3.12984
           12087         3.00427
           12088         2.93071
           12089         3.14317
           12090         3.11254
           12091     406.284E-03
           12092     287.796E-03
           12093         6.07891
           12094         6.25924
           12095         6.60447
           12096         5.98810
           12097         2.63978
           12098         2.64390
           12099         2.21194
           12100         1.99775
           12101         1.93617
           12102         4.32392
           12103     246.625E-03
           12104     213.206E-03
           12105     288.560E-03
           12106     204.404E-03
           12107         3.66468
           12108     107.933E-03
           12109     153.198E-03
           12110     48.0238E-03
           12111     110.916E-03
           12112     50.5969E-03
           12113         3.79806
           12114         4.02983
           12115     575.276E-03
           12116     458.077E-03
           12117     462.814E-03
           12118     582.563E-03
           12119         3.90209
           12120         3.77690
           12121         3.72103
           12122         4.12585
           12123         3.98690
           12124         1.65338
           12125         1.82330
           12126         1.90011
           12127         1.76437
           12128         4.75007
           12129         4.06980
           12130         4.99546
           12131         5.79958
           12132         5.12024
           12133         5.04625
           12134         5.04199
           12135         5.11627
           12136         5.20313
           12137         2.31670
           12138         2.46081
           12139         2.48233
           12140         2.42639
           12141         3.62059
           12142         3.85707
           12143         3.54951
           12144     35.3412E-03
           12145     23.1839E-03
           12146         2.33281
           12147         2.24638
           12148     773.906E-03
           12149     786.187E-03
           12150         1.07665
           12151     878.440E-03
           12152         2.23404
           12153         2.30946
           12154         2.18995
           12155         2.25822
           12156         7.54971
           12157         2.15458
           12158     876.882E-03
           12159     712.832E-03
           12160         3.10157
           12161         3.05403
           12162         2.96392
           12163         2.72820
           12164         2.22896
           12165         2.22437
           12166         2.13726
           12167         2.32559
           12168         7.46067
           12169         7.57700
           12170         7.86419
           12171         2.15859
           12172         2.18214
           12173         2.10555
           12174         3.61946
           12175         3.33538
           12176         7.47229
           12177         10.7738
           12178         7.33818
           12179         8.17718
           12180         4.42760
           12181         4.64928
           12182         4.99094
           12183         5.38252
           12184         5.16661
           12185         5.27976
           12186         4.76198
           12187         4.68959
           12188         7.53712
           12189         7.58847
           12190         2.62232
           12191         2.60153
           12192         2.26545
           12193         2.17898
           12194         1.78920
           12195         2.13629
           12196         1.44973
           12197         2.59137
           12198         2.57652
           12199         2.55954
           12200     20.7930E-03
           12201     18.3031E-03
           12202     22.4737E-03
           12203     16.6397E-03
           12204     586.277E-03
           12205     751.408E-03
           12206         1.18444
           12207     994.612E-03
           12208         3.95158
           12209         4.06288
           12210         3.97392
           12211         3.75968
           12212         3.85771
           12213         1.71655
           12214         1.65748
           12215         1.84922
           12216         1.69936
           12217         4.91482
           12218         5.19238
           12219         5.33277
           12220         5.06482
           12221         4.30967
           12222         4.59329
           12223         4.41308
           12224         2.64071
           12225         2.62122
           12226         2.65936
           12227         2.78924
           12228         2.65137
           12229         2.84755
           12230         2.36018
           12231         2.24625
           12232         2.38768
           12233         2.23787
           12234         2.38649
           12235         3.74127
           12236         3.61608
           12237         3.60335
           12238         3.76480
           12239         2.39960
           12240         2.81626
           12241         2.63465
           12242         2.46079
           12243         2.49654
           12244         2.47934
           12245         2.47742
           12246         2.43264
           12247         4.89143
           12248         4.59558
           12249         4.78873
           12250         5.37129
           12251         2.32078
           12252         2.29994
           12253         6.00010
           12254         6.10720
           12255         5.91807
           12256         3.86297
           12257         3.88256
           12258         2.62477
           12259         2.63303
           12260         2.64866
           12261         1.22353
           12262         1.28437
           12263         1.51831
           12264         1.27322
           12265         2.75960
           12266         2.73250
           12267         2.76148
           12268         2.72645
           12269         2.73162
           12270         2.77298
           12271         3.24300
           12272         2.47692
           12273         2.43067
           12274         2.52465
           12275         2.43506
           12276         2.63560
           12277         2.85480
           12278         2.84058
           12279         1.87805
           12280         3.76752
           12281         3.59030
           12282         4.02025
           12283         4.21364
           12284         3.75589
           12285         4.08212
           12286         2.69842
           12287         2.70591
           12288         2.68933
           12289         1.26450
           12290         1.52676
           12291         1.34508
           12292         1.61787
           12293         3.32782
           12294         3.14268
           12295         3.37192
           12296         3.21949
           12297         3.52860
           12298         2.57472
           12299         2.87602
           12300         2.64933
           12301         2.76074
           12302     148.088E-03
           12303     99.2556E-03
           12304         4.05302
           12305         3.58235
           12306         3.89186
           12307         1.19115
           12308         1.32464
           12309         1.35267
           12310         5.21143
           12311         5.55501
           12312         5.79620
           12313         5.72893
           12314         5.77577
           12315         5.91743
           12316         4.20890
           12317         4.54581
           12318         4.32241
           12319         1.75925
           12320         1.04000
           12321         2.51854
           12322         1.74758
           12323     25.2289E-03
           12324     20.7523E-03
           12325         2.61351
           12326         5.37823
           12327         5.26334
           12328         5.28437
           12329         5.40876
           12330         5.46035
           12331     283.123E-03
           12332     303.220E-03
           12333     514.188E-03
           12334         5.68382
           12335         5.76037
           12336         5.71569
           12337         8.74701
           12338         8.60224
           12339         8.24303
           12340         2.34937
           12341         2.59212
           12342         8.27670
           12343         9.37620
           12344         9.71311
           12345         7.92086
           12346         8.26833
           12347         7.35489
           12348     20.2135E-03
           12349     15.1469E-03
           12350     36.2674E-03
           12351     7.85769E-03
           12352     307.907E-03
           12353     410.569E-03
           12354     389.013E-03
           12355         3.01176
           12356         2.91772
           12357         2.97953
           12358         2.93643
           12359         2.89506
           12360         3.13890
           12361         3.84634
           12362         3.63657
           12363         3.67700
           12364         3.97709
           12365         5.16866
           12366         5.51438
           12367         6.27429
           12368         6.16666
           12369         6.13449
           12370         5.89228
           12371         5.89620
           12372         5.39258
           12373         5.53616
           12374         5.50931
           12375         5.22839
           12376         5.30734
           12377         4.37097
           12378         3.97458
           12379         4.48242
           12380     636.175E-03
           12381     541.146E-03
           12382         4.56888
           12383         2.24269
           12384         3.27275
           12385         3.05677
           12386         6.15469
           12387         5.95316
           12388         6.88575
           12389         4.15017
           12390         4.04957
           12391         1.74436
           12392         1.89306
           12393     989.064E-03
           12394         4.23990
           12395         4.00628
           12396         5.33102
           12397         5.17970
           12398         1.11525
           12399     759.981E-03
           12400     805.625E-03
           12401     129.556E-03
           12402     72.6966E-03
           12403         7.85021
           12404         2.96870
           12405         3.10488
           12406         2.65889
           12407         2.68604
           12408         5.96569
           12409         5.71633
           12410         6.60097
           12411         6.82192
           12412         6.31462
           12413         2.61133
           12414         3.97504
           12415         3.67412
           12416         3.74084
           12417         3.57696
           12418         3.43525
           12419         3.80455
           12420         3.77732
           12421         3.58385
           12422         3.00160
           12423     10.2943E-03
           12424     14.3691E-03
           12425     25.0614E-03
           12426         8.18467
           12427         7.99512
           12428         7.90526
           12429         8.37293
           12430         4.41087
           12431         4.14334
           12432         4.63863
           12433         4.59785
           12434         2.37674
           12435         2.22588
           12436         2.31318
           12437         2.50269
           12438         2.91496
           12439         2.87180
           12440         2.67474
           12441         3.60295
           12442         4.04449
           12443         3.14012
           12444         5.46242
           12445         5.62266
           12446         3.23782
           12447     595.705E-03
           12448     536.940E-03
           12449         5.76267
           12450         5.68610
           12451         5.68870
           12452     19.4421E-03
           12453     49.6476E-03
           12454     41.4813E-03
           12455     39.6096E-03
           12456     16.8398E-03
           12457     33.2738E-03
           12458     79.4133E-03
           12459     81.4082E-03
           12460     90.4984E-03
           12461     21.8550E-03
           12462     53.4861E-03
           12463     133.812E-03
           12464     65.8663E-03
           12465         3.02233
           12466         2.23526
           12467         2.13405
           12468         6.04765
           12469         5.97469
           12470         6.08526
           12471         8.27703
           12472         6.75830
           12473         2.45395
           12474         2.47461
           12475         2.39885
           12476         4.55333
           12477         4.77708
           12478         4.37293
           12479         6.99547
           12480         6.69513
           12481         7.10958
           12482         6.78362
           12483         5.60106
           12484         5.89775
           12485         5.63313
           12486         5.52419
           12487         2.78447
           12488         2.64705
           12489         2.99561
           12490         1.49715
           12491         3.04053
           12492         3.15086
           12493         2.95538
           12494         2.88624
           12495         2.68776
           12496         3.90419
           12497         2.97692
           12498         3.66881
           12499     36.3942E-03
           12500         4.00414
           12501         3.42810
           12502         3.47426
           12503         4.11175
           12504         3.78162
           12505         5.70353
           12506         5.76933
           12507         4.27250
           12508     61.6080E-03
           12509     23.5448E-03
           12510     38.8838E-03
           12511     113.937E-03
           12512     14.9180E-03
           12513     16.8840E-03
           12514         2.01193
           12515         2.74180
           12516         5.08003
           12517         2.99140
           12518         8.85987
           12519         8.71834
           12520         8.36721
           12521         1.62085
           12522         3.20940
           12523         4.10645
           12524         3.92106
           12525         4.04694
           12526         4.28967
           12527         3.88194
           12528         4.58083
           12529         4.28207
           12530         4.60369
           12531         5.25071
           12532         5.47773
           12533         2.68352
           12534     278.508E-03
           12535         2.73288
           12536         1.90368
           12537         2.00494
           12538         6.04320
           12539         6.40243
           12540         2.63269
           12541         5.25120
           12542         5.31842
           12543         5.25232
           12544         5.16930
           12545     113.600E-03
           12546     27.7424E-03
           12547         3.56170
           12548         3.38732
           12549         7.97078
           12550         7.73220
           12551         4.85625
           12552         4.93629
           12553         8.21266
           12554         6.80361
           12555     764.176E-03
           12556         2.39559
           12557         2.44114
           12558         2.25490
           12559         7.29239
           12560         6.30645
           12561         6.42353
           12562         2.79591
           12563         2.85337
           12564         2.77763
           12565         2.73438
           12566     226.014E-03
           12567     132.328E-03
           12568     354.308E-03
           12569     350.171E-03
           12570     265.848E-03
           12571         2.38308
           12572         2.41978
           12573         2.41374
           12574         2.25262
           12575     180.709E-03
           12576     262.477E-03
           12577     97.9862E-03
           12578     11.1556E-03
           12579     27.5794E-03
           12580         3.48869
           12581         2.60490
           12582         5.20092
           12583         5.09481
           12584         5.27062
           12585         5.44058
           12586         3.25500
           12587         3.29539
           12588         3.12340
           12589         4.75492
           12590         4.56502
           12591         6.04529
           12592         5.91536
           12593         6.51669
           12594         6.19561
           12595         3.75600
           12596         3.57358
           12597         5.39403
           12598         5.45891
           12599         5.34142
           12600         5.55512
           12601         5.52697
           12602         5.23156
           12603         5.30146
           12604         5.18729
           12605         5.34390
           12606         5.38230
           12607         1.60779
           12608         1.77618
           12609         4.85457
           12610         8.51680
           12611         8.66178
           12612         8.16377
           12613         3.56505
           12614         3.73969
           12615         3.58372
           12616         3.52364
           12617         3.39553
           12618         3.67852
           12619     19.1385E-03
           12620         2.62937
           12621         2.63652
           12622         1.57953
           12623         1.68275
           12624         2.77821
           12625         2.70948
           12626         2.73274
           12627     737.058E-03
           12628     492.819E-03
           12629         2.25646
           12630         1.67677
           12631         6.64998
           12632         5.83187
           12633         5.76570
           12634         9.04657
           12635         8.89890
           12636         8.10206
           12637         5.09999
           12638         5.14323
           12639         5.65426
           12640         5.66382
           12641         7.75549
           12642         7.44931
           12643         8.09103
           12644         4.46278
           12645         2.66106
           12646         2.66253
           12647         2.66203
           12648     17.9939E-03
           12649         2.67790
           12650         2.67748
           12651         2.67162
           12652         5.82570
           12653         5.74434
           12654         5.69486
           12655         5.78120
           12656         4.94009
           12657         4.67102
           12658         4.81948
           12659     763.191E-03
           12660     668.726E-03
           12661     828.203E-03
           12662         4.99714
           12663         2.55311
           12664         2.53080
           12665         5.59538
           12666         5.56411
           12667         2.65727
           12668         2.80604
           12669         2.64963
           12670         4.40615
           12671         4.60387
           12672         7.28557
           12673         7.81213
           12674         2.59181
           12675         2.99586
           12676         5.88652
           12677         5.75097
           12678         2.43960
           12679         2.35538
           12680         2.79853
           12681         3.65888
           12682         3.90130
           12683         3.00491
           12684     233.026E-03
           12685         2.18622
           12686         3.03198
           12687         3.03079
           12688         3.17257
           12689         5.50137
           12690         5.48741
           12691         5.48903
           12692         5.03931
           12693         5.01295
           12694         5.07387
           12695         2.67153
           12696         2.69568
           12697         1.95673
           12698         2.14098
           12699         2.12701
           12700         2.31898
           12701         1.98743
           12702         2.66112
           12703         2.35029
           12704         2.80950
           12705         7.51444
           12706         7.78559
           12707         8.20820
           12708         2.90945
           12709         2.91245
           12710         3.06384
           12711     404.395E-03
           12712         6.21769
           12713         6.07357
           12714         6.53737
           12715         11.3926
           12716         9.30196
           12717         3.51592
           12718         3.41096
           12719         9.04818
           12720         2.16684
           12721         2.49388
           12722         2.41945
           12723         2.52145
           12724         2.43574
           12725         2.51642
           12726         4.24791
           12727         4.35249
           12728         4.44393
           12729         4.51154
           12730         5.42867
           12731         5.55416
           12732         2.63370
           12733         1.29926
           12734         4.82273
           12735         3.24609
           12736         3.84518
           12737         1.87097
           12738         2.17751
           12739         5.38325
           12740         5.57760
           12741         5.22081
           12742         5.66313
           12743         5.70451
           12744         5.68071
           12745         3.28665
           12746         3.22945
           12747         3.40271
           12748         3.48208
           12749         3.27233
           12750     257.762E-03
           12751     437.810E-03
           12752     235.319E-03
           12753         1.08929
           12754         1.31886
           12755         4.60969
           12756         4.84789
           12757         4.42516
           12758         1.35527
           12759         9.16562
           12760         8.69351
           12761         2.57747
           12762         2.57053
           12763     970.345E-03
           12764     788.096E-03
           12765         1.08526
           12766         3.15932
           12767         3.26388
           12768         3.14156
           12769     239.017E-03
           12770         4.27440
           12771         4.07924
           12772         4.35286
           12773         4.04366
           12774         4.23243
           12775         4.59738
           12776         4.51774
           12777         3.24704
           12778         3.13289
           12779         3.08765
           12780         2.46626
           12781         2.48718
           12782         5.16922
           12783         1.19181
           12784         1.32721
           12785         1.34752
           12786         1.41416
           12787         1.26581
           12788         3.01463
           12789         2.73662
           12790         2.74788
           12791         2.67501
           12792         2.72804
           12793         3.52578
           12794         3.07765
           12795         3.43543
           12796         4.57535
           12797         3.39664
           12798         3.33449
           12799         2.63840
           12800         5.42512
           12801         5.49117
           12802         5.56787
           12803         1.78968
           12804         1.78404
           12805         1.66521
           12806         1.80035
           12807     120.226E-03
           12808         3.09472
           12809         3.39809
           12810         2.80006
           12811         2.63608
           12812         3.10405
           12813         2.85659
           12814         2.65748
           12815         3.75281
           12816         3.33471
           12817         3.99286
           12818         3.51824
           12819         4.10640
           12820         2.16633
           12821         2.10174
           12822     238.668E-03
           12823     153.351E-03
           12824         5.79743
           12825         5.66462
           12826         7.50919
           12827         8.21078
           12828         7.31682
           12829         1.88691
           12830         1.90715
           12831         1.92691
           12832         1.91208
           12833         1.87701
           12834         8.20794
           12835         9.67526
           12836         7.64064
           12837         5.68067
           12838         2.56489
           12839         2.02899
           12840         1.92144
           12841         2.02135
           12842     114.970E-03
           12843     127.449E-03
           12844     205.016E-03
           12845     106.021E-03
           12846         1.26471
           12847         1.09413
           12848         6.68231
           12849         6.12881
           12850         7.45725
           12851         3.31376
           12852         3.18607
           12853         2.58831
           12854         2.57640
           12855         2.41446
           12856         3.57942
           12857         3.49279
           12858         3.40631
           12859         2.50858
           12860         2.41460
           12861         2.52983
           12862         2.43301
           12863         1.13562
           12864         1.29278
           12865         1.01042
           12866         3.70496
           12867         3.62361
           12868         3.48154
           12869         3.79956
           12870         1.31889
           12871         1.38610
           12872         1.46711
           12873         5.74722
           12874         6.44026
           12875         2.61472
           12876         2.66239
           12877         6.92329
           12878         6.50923
           12879         1.18668
           12880         2.62678
           12881         2.60381
           12882     381.643E-03
           12883         1.81925
           12884         1.66426
           12885         1.44679
           12886         3.95197
           12887         1.45096
           12888         4.35918
           12889         2.42241
           12890         8.00162
           12891         8.32350
           12892         8.73941
           12893         5.88217
           12894         6.40580
           12895         5.62805
           12896         4.45269
           12897         6.78367
           12898         7.23583
           12899         6.38499
           12900         2.52743
           12901         2.53275
           12902         2.49124
           12903         4.39071
           12904         4.13915
           12905         4.45751
           12906         2.56004
           12907         2.50903
           12908         2.46171
           12909         2.03830
           12910         4.13521
           12911     187.681E-03
           12912         2.16788
           12913         2.32012
           12914         2.69566
           12915         1.80376
           12916     757.765E-03
           12917         2.34373
           12918         3.38935
           12919         5.33543
           12920         2.59313
           12921         5.75442
           12922         2.64569
           12923         2.60045
           12924         2.65107
           12925         2.57128
           12926         2.58935
           12927         2.62652
           12928         4.92982
           12929         5.15898
           12930         4.77889
           12931         1.78878
           12932         1.86377
           12933     35.7944E-03
           12934         1.64373
           12935         2.59159
           12936         2.56924
           12937         2.61575
           12938     786.396E-03
           12939     859.828E-03
           12940         2.45421
           12941     931.824E-03
           12942     874.602E-03
           12943     904.660E-03
           12944         1.01783
           12945         1.32092
           12946     519.398E-03
           12947         4.63999
           12948         4.63500
           12949         6.19068
           12950         6.41700
           12951         5.70456
           12952         3.33901
           12953         3.47250
           12954         3.97985
           12955         3.74447
           12956         3.62024
           12957         3.66541
           12958         2.59132
           12959         2.57427
           12960         2.58315
           12961         5.72589
           12962         4.40490
           12963     210.768E-03
           12964     173.174E-03
           12965         6.82980
           12966         6.93803
           12967     43.7853E-03
           12968         3.83730
           12969         3.34704
           12970         4.10985
           12971         2.64660
           12972         2.65691
           12973         2.52166
           12974         2.57599
           12975         2.54771
           12976         1.37812
           12977         1.09445
           12978         2.72489
           12979         2.70063
           12980         2.76225
           12981         2.32495
           12982         2.83551
           12983         2.91497
           12984         2.85548
           12985         2.61071
           12986         2.59225
           12987         2.62908
           12988         2.61693
           12989         2.23032
           12990         4.10906
           12991         1.37145
           12992         1.48688
           12993         1.53393
           12994         1.46871
           12995     531.564E-03
           12996     800.045E-03
           12997     287.065E-03
           12998     405.469E-03
           12999     159.749E-03
           13000         5.44484
           13001         1.21612
           13002         1.04445
           13003         1.37524
           13004         1.07784
           13005         2.24174
           13006         2.20592
           13007         5.89018
           13008         5.52562
           13009     531.852E-03
           13010         5.89177
           13011     943.018E-03
           13012         1.10587
           13013     35.9548E-03
           13014     70.4192E-03
           13015     18.9124E-03
           13016         5.72652
           13017         2.35719
           13018         2.24732
           13019         2.36795
           13020         2.48003
           13021         5.64758
           13022         5.57288
           13023         5.46628
           13024         2.69943
           13025         2.84622
           13026         3.10215
           13027         3.03342
           13028         3.00220
           13029         3.16558
           13030         4.88660
           13031         10.3384
           13032         5.77554
           13033         3.09291
           13034         3.07306
           13035         1.40955
           13036         1.45902
           13037         9.23114
           13038         9.27152
           13039         8.39597
           13040         6.18834
           13041         7.71557
           13042         7.47178
           13043         8.07986
           13044         7.15168
           13045     43.5653E-03
           13046         2.54826
           13047         2.27871
           13048         3.36338
           13049         2.45354
           13050         2.39797
           13051         2.49390
           13052         4.09513
           13053         4.40896
           13054         4.23282
           13055         5.89405
           13056         5.71346
           13057         6.02993
           13058         5.68706
           13059         5.91802
           13060         5.76831
           13061         6.09595
           13062         1.89200
           13063         1.98623
           13064         1.76316
           13065         1.73172
           13066         2.05341
           13067     22.9376E-03
           13068         2.09729
           13069         2.14339
           13070     668.038E-03
           13071         5.79647
           13072         3.83357
           13073         3.23436
           13074         3.24464
           13075         3.39373
           13076         3.52872
           13077         3.16115
           13078         3.64994
           13079         2.93868
           13080         3.09394
           13081         2.92298
           13082     83.0672E-03
           13083         2.61081
           13084     782.895E-03
           13085         1.13968
           13086     221.008E-03
           13087         1.54647
           13088         2.58155
           13089         2.54041
           13090         2.59539
           13091         4.48899
           13092         5.01643
           13093         2.75616
           13094         2.79583
           13095         2.65798
           13096         2.68158
           13097         5.93551
           13098         6.00944
           13099         7.07377
           13100         7.19706
           13101         7.73268
           13102         6.69056
           13103         7.47420
           13104         1.37360
           13105     425.825E-03
           13106         2.49181
           13107         2.51797
           13108         1.94080
           13109         1.76103
           13110         4.93521
           13111         4.71412
           13112         5.05080
           13113         4.12846
           13114     257.782E-03
           13115         1.73826
           13116         1.62537
           13117         1.84846
           13118         1.86719
           13119         1.76730
           13120         2.65907
           13121         2.66494
           13122     979.163E-03
           13123     963.231E-03
           13124     868.102E-03
           13125         1.09772
           13126     841.431E-03
           13127     715.180E-03
           13128         2.50542
           13129         2.64297
           13130         3.16966
           13131         3.22586
           13132         3.08828
           13133         6.03285
           13134         6.80015
           13135         5.95917
           13136         6.36676
           13137     133.498E-03
           13138     235.968E-03
           13139         5.68578
           13140         5.63174
           13141         5.80093
           13142         1.19095
           13143     343.052E-03
           13144         3.19781
           13145         2.77508
           13146         2.89507
           13147         4.35962
           13148         2.08771
           13149         2.02476
           13150         2.12173
           13151         2.07329
           13152         3.04506
           13153         2.93031
           13154         2.93658
           13155         2.03229
           13156         5.54592
           13157         6.93724
           13158         4.82142
           13159         3.77680
           13160         8.09983
           13161         3.51787
           13162         3.32059
           13163         3.54358
           13164         2.76995
           13165         2.79949
           13166         2.81695
           13167         2.26453
           13168         2.31111
           13169         4.51239
           13170         3.90519
           13171         3.25349
           13172         2.88842
           13173         2.67656
           13174         2.68121
           13175         2.67070
           13176         4.72507
           13177         4.97949
           13178     4.37230E-03
           13179     49.3488E-03
           13180         1.70913
           13181         1.89997
           13182         1.71873
           13183         4.27924
           13184         3.63440
           13185     713.014E-03
           13186     581.162E-03
           13187         5.57185
           13188         5.53826
           13189         2.60165
           13190         2.60091
           13191         2.66049
           13192         2.66053
           13193         2.65842
           13194         1.22738
           13195         1.65349
           13196         5.37483
           13197         1.83054
           13198         5.23494
           13199         5.46956
           13200         5.29294
           13201         2.70545
           13202         2.82569
           13203         2.73725
           13204         2.50509
           13205         2.60372
           13206         2.63794
           13207         7.97172
           13208         7.61977
           13209         3.44989
           13210         3.71891
           13211         3.33283
           13212         3.04477
           13213     925.647E-03
           13214         1.64471
           13215         1.72511
           13216     934.187E-03
           13217         5.55171
           13218         5.44436
           13219         5.63180
           13220         2.56789
           13221         2.55131
           13222         2.54368
           13223         2.56479
           13224         4.79589
           13225         6.22391
           13226         11.3742
           13227         6.53855
           13228         3.34554
           13229         3.97483
           13230         4.42944
           13231         2.37531
           13232         2.29463
           13233         2.35912
           13234         2.32222
           13235         1.96022
           13236         2.87829
           13237         1.70488
           13238         1.58755
           13239         5.70581
           13240         5.64256
           13241         5.66082
           13242         5.82715
           13243         1.94178
           13244         6.35933
           13245         7.03359
           13246         2.65169
           13247     805.771E-03
           13248     922.507E-03
           13249         2.46088
           13250         2.42921
           13251         2.40167
           13252         2.35604
           13253         2.44389
           13254         2.35668
           13255         5.92300
           13256         5.98761
           13257         6.40784
           13258         5.36706
           13259         2.75590
           13260         4.76313
           13261         6.01306
           13262         5.99723
           13263         6.13445
           13264         5.82786
           13265     106.412E-03
           13266     264.615E-03
           13267     176.696E-03
           13268     71.2123E-03
           13269         9.45167
           13270         7.11853
           13271         5.30395
           13272         4.99532
           13273         5.64523
           13274         5.57293
           13275         5.65689
           13276         5.65293
           13277         4.45333
           13278         4.05333
           13279         6.28991
           13280     882.799E-03
           13281         5.29164
           13282         5.51061
           13283     653.085E-03
           13284         5.01804
           13285         1.93417
           13286         1.92688
           13287         1.93183
           13288         2.55829
           13289         7.07568
           13290         3.15937
           13291         2.98568
           13292         3.34426
           13293         2.02967
           13294         5.70077
           13295         5.64933
           13296         5.70584
           13297         5.75980
           13298         5.44536
           13299         5.77531
           13300         2.71340
           13301         2.66675
           13302         2.66414
           13303         8.44325
           13304         8.57568
           13305         3.27308
           13306         3.36598
           13307         1.63015
           13308         1.60234
           13309         1.30874
           13310         2.05984
           13311         1.80566
           13312         10.3937
           13313         11.4250
           13314         15.6302
           13315         3.11382
           13316         2.46054
           13317         3.23006
           13318     34.1656E-03
           13319         3.85010
           13320         4.10197
           13321         3.85540
           13322         4.62355
           13323         4.79585
           13324         4.45403
           13325         4.80184
           13326         2.55288
           13327         2.88787
           13328         2.87944
           13329         3.09665
           13330         3.10297
           13331         2.82497
           13332         2.72024
           13333         3.01597
           13334         2.35449
           13335         2.27753
           13336         2.24910
           13337         2.66740
           13338         5.86731
           13339         6.48517
           13340         5.98905
           13341         2.64345
           13342         2.64361
           13343         1.15189
           13344         5.74341
           13345         5.45612
           13346     938.764E-03
           13347     845.559E-03
           13348         6.45229
           13349         6.92998
           13350         2.92228
           13351         1.37003
           13352         1.67319
           13353         1.75913
           13354         3.84819
           13355         5.27951
           13356         6.27296
           13357         4.75738
           13358         4.84518
           13359         5.57315
           13360         1.42792
           13361         1.25604
           13362         2.73983
           13363         2.75743
           13364         2.72632
           13365         8.73643
           13366     78.6330E-03
           13367         6.15465
           13368         1.91265
           13369         2.02316
           13370         1.80872
           13371         2.48353
           13372         2.49331
           13373         2.46196
           13374         5.03320
           13375     28.1841E-03
           13376         2.21644
           13377         2.51837
           13378         2.64953
           13379         5.22127
           13380         3.10256
           13381         3.75180
           13382         5.02453
           13383         6.96829
           13384         7.73041
           13385         7.20704
           13386         6.96512
           13387         6.59244
           13388         1.20564
           13389         1.36476
           13390         1.62816
           13391         1.18968
           13392         2.65759
           13393         5.26626
           13394     658.053E-03
           13395     812.494E-03
           13396     80.9777E-03
           13397     184.522E-03
           13398     45.6064E-03
           13399         6.09121
           13400         5.93792
           13401         2.91619
           13402         8.14887
           13403         1.45100
           13404         1.57632
           13405         1.75907
           13406         1.85111
           13407         3.86599
           13408         3.89064
           13409         4.19314
           13410         4.25284
           13411         4.15751
           13412     168.080E-03
           13413     82.8694E-03
           13414     152.385E-03
           13415         2.81673
           13416         2.95210
           13417         2.78464
           13418     429.153E-03
           13419     559.084E-03
           13420         5.09226
           13421         4.93413
           13422     19.8225E-03
           13423     763.575E-03
           13424     728.110E-03
           13425         2.69896
           13426         5.47385
           13427         5.41778
           13428         5.28145
           13429         5.32508
           13430         3.19541
           13431     56.9948E-03
           13432     112.964E-03
           13433     733.901E-03
           13434         5.50493
           13435         4.78987
           13436         4.93156
           13437         1.51767
           13438         1.39016
           13439         1.65346
           13440         2.41760
           13441         3.19142
           13442         5.73273
           13443         1.35008
           13444         5.54784
           13445         5.51587
           13446         6.71534
           13447         7.04705
           13448         2.62572
           13449         2.63197
           13450         2.64820
           13451         2.63954
           13452         2.32320
           13453         2.25650
           13454         3.79008
           13455         3.75259
           13456         5.64300
           13457         5.63113
           13458         5.55165
           13459         5.55060
           13460         4.28112
           13461         8.74792
           13462         4.96630
           13463         5.42993
           13464         5.38236
           13465         3.73850
           13466         3.42635
           13467         3.28062
           13468         3.08286
           13469         2.97312
           13470         3.05383
           13471         2.79704
           13472         2.54965
           13473         2.60013
           13474         2.54051
           13475         5.51382
           13476         4.79053
           13477         6.71841
           13478         6.16110
           13479         6.62224
           13480         7.27769
           13481         5.71905
           13482         5.53359
           13483         5.69635
           13484         5.63394
           13485         3.07373
           13486         3.55767
           13487         3.98959
           13488         4.16618
           13489         4.07536
           13490         2.37087
           13491         1.81049
           13492         4.76027
           13493         5.11737
           13494         5.29862
           13495         4.49666
           13496         2.98206
           13497         2.84183
           13498         2.95416
           13499         2.87382
           13500         2.62498
           13501         2.61653
           13502         2.62044
           13503         5.29538
           13504         5.19512
           13505         2.99072
           13506         6.07824
           13507         6.43694
           13508         7.12759
           13509         6.17322
           13510         6.07339
           13511         6.53569
           13512     379.411E-03
           13513     629.237E-03
           13514         2.10583
           13515         3.37336
           13516     762.670E-03
           13517         2.28021
           13518         2.26861
           13519         3.12891
           13520     538.344E-03
           13521     272.412E-03
           13522         2.52270
           13523         2.51264
           13524         5.75459
           13525         5.80743
           13526         2.71573
           13527         2.79996
           13528         1.57798
           13529         1.43753
           13530         2.70614
           13531         2.73371
           13532         1.53585
           13533         3.08632
           13534         2.23225
           13535         2.11503
           13536         2.09345
           13537         2.78782
           13538         5.84815
           13539         5.41677
           13540         5.77662
           13541         1.19441
           13542         1.30083
           13543         2.03140
           13544     993.938E-03
           13545     611.712E-03
           13546     397.624E-03
           13547         2.51951
           13548         2.53851
           13549         14.8988
           13550         13.1426
           13551         2.63881
           13552         2.64681
           13553         2.64196
           13554         2.65676
           13555         2.71215
           13556         2.70606
           13557         2.76866
           13558         3.13342
           13559         6.83042
           13560         6.27608
           13561         6.29384
           13562         2.84386
           13563         2.66953
           13564         1.33646
           13565         13.8597
           13566         1.06305
           13567         2.50605
           13568         5.67176
           13569         2.63733
           13570         2.20919
           13571         3.16261
           13572         2.57881
           13573         2.30419
           13574         2.22616
           13575     163.808E-03
           13576     248.655E-03
           13577         6.45553
           13578     282.105E-03
           13579         5.41991
           13580         5.45762
           13581         1.93888
           13582         1.95587
           13583         7.62094
           13584         8.05733
           13585         6.88402
           13586         3.69855
           13587         4.85191
           13588         13.3978
           13589         13.2356
           13590         2.81433
           13591         4.68641
           13592         4.83486
           13593         2.53789
           13594         2.26968
           13595         2.47986
           13596         4.38769
           13597         2.69017
           13598         2.69304
           13599         4.43084
           13600         1.09365
           13601     963.615E-03
           13602         2.61300
           13603         2.71789
           13604         2.51768
           13605         2.54250
           13606         5.44384
           13607         5.44344
           13608         3.56435
           13609         2.69720
           13610         2.72958
           13611         2.74532
           13612         2.75631
           13613         1.33378
           13614         1.97523
           13615         1.02461
           13616         4.61479
           13617         4.59442
           13618         2.16947
           13619         2.07648
           13620         2.34889
           13621         2.37055
           13622         2.92870
           13623         2.83219
           13624         1.42884
           13625         2.07741
           13626         1.85654
           13627         1.62696
           13628         1.04952
           13629         2.82274
           13630         2.03588
           13631         5.03887
           13632         5.29814
           13633         2.55290
           13634     795.844E-03
           13635     864.769E-03
           13636     606.583E-03
           13637         2.51800
           13638         2.54277
           13639     748.365E-03
           13640     982.662E-03
           13641     700.893E-03
           13642         2.47402
           13643         2.47749
           13644         2.44271
           13645         2.43300
           13646         5.23593
           13647         5.07945
           13648         5.34193
           13649         5.44140
           13650         5.54743
           13651         5.50250
           13652         2.75480
           13653         2.42589
           13654         2.45164
           13655         2.37440
           13656     100.751E-03
           13657     146.570E-03
           13658         9.65510
           13659         4.52888
           13660         2.06002
           13661         2.69301
           13662         2.67770
           13663         2.91159
           13664         2.89884
           13665         4.34087
           13666         4.65203
           13667     397.400E-03
           13668     670.870E-03
           13669     596.679E-03
           13670         2.65594
           13671         1.88376
           13672         1.92839
           13673         5.46638
           13674         5.50227
           13675         2.52738
           13676         2.51163
           13677         2.54357
           13678         2.51794
           13679         2.27940
           13680         4.79702
           13681         4.77710
           13682         5.34983
           13683         5.06815
           13684         2.39456
           13685         2.40496
           13686         5.04526
           13687         4.65238
           13688         5.67273
           13689     194.135E-03
           13690         1.44469
           13691         4.51584
           13692         3.21560
           13693         4.06920
           13694         2.22447
           13695         3.40120
           13696         2.55802
           13697         3.23918
           13698         3.21592
           13699         3.78980
           13700         3.24932
           13701         2.83936
           13702         3.03753
           13703         5.38626
           13704         4.99085
           13705         1.87973
           13706         1.96232
           13707         1.93991
           13708         1.93449
           13709         3.97110
           13710         5.52558
           13711         5.49918
           13712         5.18127
           13713         2.97171
           13714         5.75313
           13715         2.48752
           13716         2.53988
           13717     90.6807E-03
           13718     314.540E-03
           13719     466.006E-03
           13720         2.23139
           13721         2.25296
           13722         4.77993
           13723         4.93282
           13724         4.74681
           13725         2.64060
           13726         4.89509
           13727         5.56160
           13728         5.57173
           13729         3.24695
           13730         3.33688
           13731         4.83689
           13732     890.708E-03
           13733         1.72049
           13734         4.96641
           13735         4.67559
           13736         4.41205
           13737     722.408E-03
           13738         5.60580
           13739         5.71218
           13740         5.25711
           13741         2.46582
           13742         6.10407
           13743         5.96104
           13744         2.94044
           13745         6.05179
           13746         6.16107
           13747         6.18284
           13748         1.30805
           13749         2.05175
           13750         2.41573
           13751         1.32886
           13752         1.07665
           13753         5.58678
           13754         5.69030
           13755     23.3383E-03
           13756     21.7189E-03
           13757         5.36006
           13758         2.78633
           13759         5.50147
           13760         5.18475
           13761         1.91002
           13762         5.80902
           13763         2.66079
           13764         5.65048
           13765         5.60931
           13766         5.40661
           13767         5.33023
           13768         5.74804
           13769         2.66731
           13770         2.67004
           13771         2.65511
           13772         4.03666
           13773         5.37863
           13774         4.52880
           13775         2.70309
           13776         7.19635
           13777         2.63049
           13778         4.75763
           13779         4.85699
           13780     314.646E-03
           13781     364.708E-03
           13782     118.195E-03
           13783         4.39738
           13784         3.36251
           13785         2.70391
           13786         5.24084
           13787         2.80861
           13788         7.50671
           13789         7.02300
           13790         7.58302
           13791         3.38831
           13792         3.70127
           13793         3.01000
           13794         6.16231
           13795         6.06199
           13796         3.09025
           13797         3.47821
           13798         3.63593
           13799         3.34162
           13800         2.52613
           13801         2.87777
           13802         3.16285
           13803         2.97613
           13804         4.18189
           13805         4.44425
           13806         6.48980
           13807         5.99775
           13808         6.03186
           13809         2.42626
           13810     750.407E-03
           13811         1.14828
           13812         7.08821
           13813         4.35703
           13814         4.47039
           13815         1.70795
           13816         1.46001
           13817         3.57538
           13818         2.59607
           13819         2.71791
           13820         7.60093
           13821         2.69930
           13822         2.55389
           13823         4.87996
           13824         4.88926
           13825         2.38935
           13826         4.99988
           13827         4.62618
           13828         2.58647
           13829         2.60167
           13830         2.60332
           13831         2.66208
           13832         2.71525
           13833         5.41812
           13834         5.46111
           13835         6.17753
           13836         6.26178
           13837     45.3149E-03
           13838         2.78208
           13839         2.62312
           13840     33.5151E-03
           13841         2.75453
           13842         2.71594
           13843         6.57848
           13844         6.89886
           13845         6.86573
           13846         6.24265
           13847         1.19777
           13848         1.00331
           13849     675.052E-03
           13850         2.67988
           13851         2.68635
           13852         2.68852
           13853         2.75636
           13854         6.10888
           13855         1.97972
           13856         5.82640
           13857         4.48506
           13858         2.36931
           13859         2.42940
           13860         2.34767
           13861         2.32507
           13862     529.359E-03
           13863         2.01165
           13864         1.99622
           13865         3.48394
           13866         2.69558
           13867         2.76665
           13868         2.62622
           13869         6.53504
           13870         2.58623
           13871         2.58125
           13872         7.88549
           13873         11.7617
           13874         4.69839
           13875         1.76322
           13876         4.74283
           13877         2.22464
           13878         2.24241
           13879         5.76781
           13880         1.52147
           13881         4.89602
           13882         5.51712
           13883     927.849E-03
           13884         4.38202
           13885         7.10386
           13886         2.67419
           13887         2.79788
           13888     6.88190E-03
           13889         2.28985
           13890         2.42928
           13891         2.52415
           13892         2.49852
           13893         1.97347
           13894         1.99078
           13895         2.67164
           13896         1.46072
           13897         1.69224
           13898         3.58187
           13899         1.99037
           13900         1.87765
           13901         2.03544
           13902         1.00879
           13903         7.08156
           13904         6.27174
           13905         6.45526
           13906         6.27040
           13907         2.44220
           13908         2.73790
           13909         2.77747
           13910     603.314E-03
           13911     745.521E-03
           13912     664.716E-03
           13913         3.99934
           13914         4.19043
           13915         2.53822
           13916         4.70171
           13917         4.81444
           13918         5.00946
           13919         2.66628
           13920         2.46628
           13921         5.64381
           13922         5.55050
           13923         5.76028
           13924         4.33645
           13925         5.28868
           13926         4.75132
           13927         2.12827
           13928         2.27381
           13929         2.09304
           13930         1.78039
           13931         1.80152
           13932         2.65521
           13933         3.03641
           13934         3.26658
           13935         2.68825
           13936         2.70408
           13937         2.68311
           13938         2.69604
           13939         5.08134
           13940         4.79929
           13941         2.66921
           13942         2.47493
           13943         2.31919
           13944         2.57529
           13945     462.381E-03
           13946         2.63637
           13947         5.87935
           13948         4.43972
           13949         2.50783
           13950         5.04791
           13951     245.493E-03
           13952     161.388E-03
           13953         4.88964
           13954         5.01169
           13955         5.38381
           13956         6.98722
           13957         3.03394
           13958         1.48596
           13959         2.66252
           13960         2.62013
           13961         4.48541
           13962         5.70227
           13963         5.75147
           13964         3.38074
           13965         6.57834
           13966         5.60059
           13967         12.6908
           13968         9.03758
           13969         6.08908
           13970         2.36588
           13971         2.33082
           13972         2.16017
           13973         3.79361
           13974         3.80596
           13975         3.10888
           13976         2.08470
           13977         5.58436
           13978         5.61544
           13979         3.56433
           13980         5.51668
           13981         3.83018
           13982         2.80245
           13983         2.80465
           13984     34.8658E-03
           13985         4.60991
           13986         2.67351
           13987         4.13349
           13988         4.76945
           13989         4.40326
           13990         4.12831
           13991     599.062E-03
           13992     837.354E-03
           13993         2.58118
           13994         2.68669
           13995         5.85455
           13996         2.46804
           13997         3.11878
           13998     884.885E-03
           13999     938.156E-03
           14000         2.76163
           14001         2.61500
           14002         5.43760
           14003         5.40647
           14004         5.47989
           14005         6.16065
           14006         3.64415
           14007         3.51526
           14008         2.61111
           14009         4.96514
           14010         3.36257
           14011         6.37480
           14012     372.478E-03
           14013     137.991E-03
           14014     475.327E-03
           14015         5.44816
           14016         4.81612
           14017         5.68706
           14018         5.64120
           14019         3.77345
           14020         2.72353
           14021         2.71240
           14022         2.74244
           14023         3.25350
           14024     71.0885E-03
           14025     48.6851E-03
           14026         2.86592
           14027         4.23826
           14028         5.10171
           14029         5.24270
           14030         2.67162
           14031         2.36816
           14032         2.27370
           14033         3.67714
           14034         3.37477
           14035     19.3312E-03
           14036         6.20796
           14037         4.90280
           14038         2.80666
           14039         4.00359
           14040         2.88325
           14041         2.70723
           14042     12.7199E-03
           14043     16.8908E-03
           14044         2.52545
           14045         5.39986
           14046     41.1304E-03
           14047         2.48551
           14048         4.05697
           14049         8.28291
           14050         5.87977
           14051         4.81243
           14052         5.53522
           14053         5.61152
           14054         5.97853
           14055         2.58210
           14056         4.30559
           14057         9.70439
           14058         9.88963
           14059         7.96344
           14060         2.65325
           14061         2.65624
           14062         1.28142
           14063         5.78606
           14064         2.64586
           14065         2.29949
           14066         5.66258
           14067         2.22114
           14068         2.64823
           14069         5.50140
           14070         7.99832
           14071         5.76864
           14072         3.10409
           14073         2.98840
           14074         6.43721
           14075         2.82353
           14076     908.867E-03
           14077         2.97905
           14078         4.85811
           14079         4.85925
           14080         5.07372
           14081         5.49650
           14082         2.89672
           14083         2.86205
           14084         2.90591
           14085         2.92464
           14086         2.87573
           14087         5.80392
           14088         5.93185
           14089         5.79585
           14090         2.93591
           14091         5.74274
           14092         5.69550
           14093     19.9824E-03
           14094     21.7197E-03
           14095     11.3627E-03
           14096         2.58752
           14097         2.57726
           14098         2.57535
           14099         2.58981
           14100     246.141E-03
           14101         3.41994
           14102         3.48253
           14103     13.1955E-03
           14104         2.05530
           14105         5.48899
           14106         3.02250
           14107         2.61253
           14108         3.06884
           14109         3.51609
           14110         2.42918
           14111         5.93383
           14112         6.04217
           14113         5.50318
           14114         5.58225
           14115         5.77582
           14116         1.18466
           14117         5.16796
           14118         1.04549
           14119         8.54361
           14120         7.72521
           14121         4.22842
           14122         4.67184
           14123     849.718E-03
           14124         2.81352
           14125         4.44292
           14126         5.70779
           14127         5.73483
           14128         5.35667
           14129         3.72935
           14130         5.35666
           14131         5.49856
           14132         2.56931
           14133     281.379E-03
           14134         4.00913
           14135         5.13381
           14136         5.15747
           14137         5.00230
           14138     889.244E-03
           14139         2.37024
           14140         2.26577
           14141         4.71701
           14142         7.34280
           14143         1.14713
           14144     12.2071E-03
           14145         2.43493
           14146         6.29993
           14147         6.48997
           14148         5.91281
           14149         5.95983
           14150         2.62584
           14151         5.43033
           14152         2.43188
           14153         2.41307
           14154         2.99430
           14155         5.52128
           14156         2.25668
           14157         2.27830
           14158         2.35972
           14159         2.65179
           14160         5.46737
           14161         5.25657
           14162         1.32046
           14163         6.80932
           14164         3.38576
           14165         2.92828
           14166         2.90148
           14167         9.68918
           14168         5.82220
           14169         2.11459
           14170         4.52042
           14171         2.96820
           14172         5.59153
           14173         1.61419
           14174         6.22925
           14175         5.44237
           14176         1.53224
           14177         1.95292
           14178         1.97758
           14179         2.07970
           14180         2.31147
           14181         2.31357
           14182         6.01438
           14183         6.15187
           14184         6.21881
           14185         2.06151
           14186         2.14650
           14187         2.04230
           14188         5.43556
           14189         2.20483
           14190         2.96745
           14191         2.01574
           14192         1.57183
           14193         1.35563
           14194         5.09219
           14195         8.08845
           14196         8.45733
           14197         5.66259
           14198         5.74820
           14199         8.04678
           14200         6.11148
           14201         2.53919
           14202         2.54844
           14203         4.81418
           14204         3.20748
           14205         5.80627
           14206         1.20034
           14207         2.69115
           14208         5.00388
           14209         8.41678
           14210         4.04830
           14211         3.21692
           14212         4.06517
           14213         2.13736
           14214         5.96174
           14215     283.589E-03
           14216         3.32614
           14217         2.15023
           14218         6.88638
           14219         3.65067
           14220         5.59306
           14221         2.04486
           14222         2.44329
           14223         5.90787
           14224         3.17516
           14225         5.48068
           14226         5.43074
           14227         1.86309
           14228         13.1676
           14229         6.34010
           14230         12.8998
           14231         2.30532
           14232         1.84793
           14233         3.80296
           14234         2.55464
           14235         2.54084
           14236         3.31894
           14237         3.13491
           14238         1.95510
           14239         2.05403
           14240         2.69505
           14241         5.67234
           14242         2.82648
           14243         1.17092
           14244         2.68637
           14245         1.38028
           14246         1.75941
           14247         2.56305
           14248         3.87903
           14249         5.98677
           14250         2.95145
           14251         5.67963
           14252     203.111E-03
           14253         1.32311
           14254         3.46368
           14255         5.72458
           14256         3.37741
           14257         2.35863
           14258         3.15375
           14259         8.66893
           14260         2.08098
           14261         7.04445
           14262         6.29919
           14263         7.71197
           14264         6.46224
           14265         3.47295
           14266         3.47388
           14267         5.70804
           14268         5.00181
           14269         2.61429
           14270         2.37497
           14271         2.55844
           14272         2.50343
           14273         2.50263
           14274         3.99004
           14275         3.78310
           14276         3.82024
           14277         5.00398
           14278         4.04908
           14279         5.49394
           14280         2.52170
           14281         2.50666
           14282         4.78642
           14283         2.87493
           14284     13.8422E-03
           14285         8.26254
           14286         2.66589
           14287         2.46549
           14288         2.49987
           14289         5.93678
           14290         3.08668
           14291         3.62151
           14292         2.56966
           14293         2.66991
           14294         2.65968
           14295     215.348E-03
           14296         5.85267
           14297         7.96443
           14298         5.53844
           14299         2.83928
           14300         2.80294
           14301         3.81866
           14302         5.26083
           14303         2.67530
           14304         9.14239
           14305         2.61000
           14306         2.36091
           14307         2.06139
           14308         2.17040
           14309         3.00299
           14310         2.02736
           14311     18.3885E-03
           14312     74.3290E-03
           14313         9.98552
           14314         2.90589
           14315     616.926E-03
           14316         2.99004
           14317         5.64990
           14318         6.10379
           14319         7.37354
           14320         2.43418
           14321         7.81921
           14322         3.29635
           14323         6.33482
           14324         8.67198
           14325         8.17459
           14326         2.37776
           14327         6.28701
           14328         4.06267
           14329         3.52704
           14330     646.291E-03
           14331         2.59498
           14332         2.53731
           14333         10.3574
           14334         11.5262
           14335         9.05505
           14336         3.62704
           14337         1.46614
           14338         1.22839
           14339         7.23950
           14340     185.635E-03
           14341     897.041E-03
           14342         2.63042
           14343         4.01040
           14344         2.71918
           14345         5.52242
           14346         2.08634
           14347         3.07746
           14348         1.28505
           14349         2.61450
           14350         2.55342
           14351     941.868E-03
           14352         3.11418
           14353     671.374E-03
           14354         2.54820
           14355         2.61495
           14356         5.27009
           14357         3.38943
           14358         2.70608
           14359         8.62846
           14360         2.66012
           14361         2.86011
           14362         2.81861
           14363         2.17461
           14364         2.20661
           14365         2.23720
           14366         2.62332
           14367         2.41279
           14368         1.10282
           14369         2.78471
           14370         2.66776
           14371     252.933E-03
           14372         2.77548
           14373         4.38324
           14374         1.13173
           14375         2.18497
           14376         3.01872
           14377         2.70045
           14378         5.27844
           14379         5.33113
           14380         4.44165
           14381         2.25463
           14382         2.36369
           14383         3.13939
           14384         4.67483
           14385         2.32234
           14386     998.613E-03
           14387         1.07262
           14388     929.014E-03
           14389         1.20500
           14390         1.12785
           14391         1.27909
           14392     660.268E-03
           14393     612.538E-03
           14394     803.637E-03
           14395     674.032E-03
           14396     718.232E-03
           14397     541.852E-03
           14398         1.09335
           14399         1.01601
           14400         1.30256
           14401     954.516E-03
           14402         1.12019
           14403     962.753E-03
           14404     907.425E-03
           14405         2.35596
           14406         2.38311
           14407         2.37858
           14408         2.41915
           14409         2.39275
           14410         2.39645
           14411         2.31666
           14412         2.33947
           14413         2.33918
           14414         2.32414
           14415         2.30156
           14416         2.30196
           14417     884.338E-03
           14418     442.849E-03
           14419     280.990E-03
           14420     209.828E-03
           14421     653.887E-03
           14422     801.566E-03
           14423         2.37524
           14424         2.37985
           14425         2.41629
           14426         2.37145
           14427         2.39713
           14428         2.37211
           14429         2.39012
           14430         2.41469
           14431         2.34816
           14432         2.31643
           14433         2.31954
           14434         2.27888
           14435         2.31156
           14436         2.30826
           14437         2.33109
           14438         2.29861
           14439         2.31904
           14440         2.27898
           14441         2.29055
           14442         2.61060
           14443         2.61108
           14444         2.61071
           14445         2.61107
           14446         2.61041
           14447         2.61154
           14448         2.60996
           14449         2.60924
           14450         2.61018
           14451         2.60248
           14452         2.60777
           14453         2.60633
           14454         2.61025
           14455         2.60495
           14456         2.60645
           14457         5.14881
           14458         5.13522
           14459         5.12603
           14460         5.16304
           14461         5.17533
           14462         5.18474
           14463         2.59840
           14464         2.59681
           14465         2.59121
           14466         2.59454
           14467         2.59604
           14468         2.59652
           14469         2.59118
           14470         2.59535
           14471         2.59823
           14472         2.60385
           14473         2.59940
           14474         2.59034
           14475         2.58929
           14476         7.51003
           14477         7.67914
           14478         7.63733
           14479         7.86018
           14480         7.68554
           14481         7.72887
           14482         7.46389
           14483         7.68004
           14484         7.79909
           14485         7.57977
           14486         7.57507
           14487         5.01155
           14488         5.02962
           14489         4.95043
           14490         4.86460
           14491         4.84603
           14492         4.92491
           14493         4.91376
           14494         4.82460
           14495         4.84293
           14496         4.89078
           14497         4.98126
           14498         4.96371
           14499         4.89269
           14500         4.91108
           14501         5.02944
           14502         5.01114
           14503         4.97075
           14504         4.72599
           14505         4.76473
           14506         4.78252
           14507         4.74694
           14508         4.67764
           14509         5.21903
           14510         5.14823
           14511         5.11389
           14512         5.12433
           14513         5.19202
           14514         5.22960
           14515         4.77943
           14516         4.74035
           14517         4.84208
           14518         4.87980
           14519         4.91806
           14520         4.81441
           14521         4.98500
           14522         4.84701
           14523         4.81430
           14524         4.91601
           14525         4.95010
           14526         4.75697
           14527         4.89327
           14528         4.92489
           14529         4.79100
           14530         4.75645
           14531         4.65873
           14532         2.01169
           14533         2.00565
           14534         2.03315
           14535         1.99252
           14536         2.00012
           14537         1.97330
           14538         2.04994
           14539         2.04560
           14540         2.02283
           14541         2.04811
           14542         2.07465
           14543         2.06572
           14544         2.04299
           14545         2.01676
           14546         2.02672
           14547         6.07018
           14548         6.13567
           14549         6.03109
           14550         5.93762
           14551         5.87280
           14552         5.97660
           14553         5.89130
           14554         5.77947
           14555         5.85175
           14556         5.85646
           14557         5.97016
           14558         5.89614
           14559         5.82247
           14560         5.88600
           14561         5.91664
           14562         5.71021
           14563         5.74939
           14564         3.04664
           14565         3.13353
           14566         3.04875
           14567         3.12190
           14568         3.03621
           14569         3.11851
           14570         2.91001
           14571         2.98447
           14572         3.00020
           14573         2.92659
           14574         2.87748
           14575         2.91886
           14576         2.99222
           14577         2.87010
           14578         2.92129
           14579         3.00355
           14580         3.00992
           14581         2.92732
           14582         2.88842
           14583         7.30062
           14584         7.09097
           14585         6.89324
           14586         7.06784
           14587         7.28631
           14588         7.50140
           14589         2.82646
           14590         2.86708
           14591         2.83303
           14592         2.88233
           14593         2.59913
           14594         2.59888
           14595         2.60191
           14596         2.60521
           14597         2.60496
           14598         2.60200
           14599         2.60989
           14600         2.60630
           14601         2.61011
           14602         2.60558
           14603         2.60900
           14604         2.59594
           14605         2.59612
           14606         2.59282
           14607         2.59586
           14608         2.59502
           14609         2.59820
           14610         2.60014
           14611         2.59768
           14612         2.60026
           14613         2.59474
           14614         2.59885
           14615         2.60163
           14616         2.59726
           14617         2.60429
           14618         2.60817
           14619         2.61154
           14620         2.60621
           14621         2.60825
           14622         6.26144
           14623         6.37201
           14624         6.39214
           14625         6.39213
           14626         6.27272
           14627         6.25597
           14628         3.00573
           14629         2.96577
           14630         2.92745
           14631         2.92480
           14632         2.96324
           14633         3.00292
           14634         2.88095
           14635         2.91644
           14636         2.88121
           14637         2.92627
           14638         2.89058
           14639         2.92614
           14640         2.96487
           14641         2.91528
           14642         2.99350
           14643         3.05460
           14644         3.02348
           14645         2.99302
           14646         2.93594
           14647         2.96388
           14648         3.00517
           14649         4.91370
           14650         5.02800
           14651         5.04142
           14652         5.10687
           14653         4.99410
           14654         4.98004
           14655         5.09384
           14656         4.98167
           14657         4.96798
           14658         4.84041
           14659         4.85453
           14660         4.94268
           14661         4.86615
           14662         4.92808
           14663         2.82938
           14664         2.82797
           14665         2.80859
           14666         2.84231
           14667         2.84419
           14668         2.86601
           14669         2.35595
           14670         2.39472
           14671         2.36584
           14672         2.37277
           14673         2.33214
           14674         2.36222
           14675         5.20861
           14676         5.16565
           14677         5.23255
           14678         5.13020
           14679         5.17420
           14680         5.01016
           14681         5.02518
           14682         5.07470
           14683         5.00812
           14684         5.07933
           14685         5.01435
           14686         5.06506
           14687         1.77445
           14688         1.78447
           14689         1.80713
           14690         1.75788
           14691         1.74893
           14692         1.72471
           14693         1.80903
           14694         1.85417
           14695         1.84416
           14696         1.88594
           14697         1.84141
           14698         1.85107
           14699         2.83534
           14700         2.80441
           14701         2.85854
           14702         2.80453
           14703         2.83550
           14704         2.78442
           14705         2.88405
           14706         2.90764
           14707         2.91029
           14708         2.96344
           14709         2.93846
           14710         2.93505
           14711         2.86413
           14712         2.87510
           14713         2.89837
           14714         2.93555
           14715         2.92649
           14716         2.90101
           14717         2.97668
           14718         2.94661
           14719         2.91196
           14720         2.88880
           14721         2.93957
           14722         4.48844
           14723         4.51627
           14724         4.45976
           14725         4.36818
           14726         4.34194
           14727         4.39721
           14728         4.35199
           14729         4.26164
           14730         4.23720
           14731         4.32583
           14732         4.24642
           14733         4.40436
           14734         4.39059
           14735         4.28639
           14736         4.28057
           14737         4.29376
           14738         4.39897
           14739         4.47345
           14740         4.36030
           14741         4.52425
           14742         4.57270
           14743         4.48163
           14744         4.52011
           14745         4.56325
           14746         4.53854
           14747         4.58091
           14748         4.29685
           14749         4.38458
           14750         4.28873
           14751         4.35126
           14752         4.26964
           14753         4.36462
           14754         4.24549
           14755         4.32982
           14756         4.28453
           14757         4.38101
           14758         4.33926
           14759         4.18194
           14760         4.13733
           14761         4.09602
           14762         4.16070
           14763         4.20318
           14764         4.22398
           14765         4.12671
           14766         4.11015
           14767         4.07497
           14768         4.17141
           14769         4.19022
           14770         6.18924
           14771         6.26695
           14772         6.08635
           14773         6.23403
           14774         6.16554
           14775         6.35041
           14776         6.23907
           14777         6.16159
           14778         6.08996
           14779         6.42859
           14780         6.51697
           14781         6.42880
           14782         5.48605
           14783         5.53906
           14784         5.51889
           14785         5.56251
           14786         5.50559
           14787         5.53032
           14788         5.52583
           14789         5.46660
           14790         5.51111
           14791         5.47846
           14792         5.47212
           14793         5.45568
           14794         5.43350
           14795         5.44011
           14796         5.45718
           14797         5.40922
           14798         5.41048
           14799         5.50011
           14800         5.49590
           14801         5.44454
           14802         5.47887
           14803         5.49954
           14804         5.84723
           14805         5.84856
           14806         5.81876
           14807         5.84038
           14808         5.84032
           14809         5.87173
           14810         5.78723
           14811         5.78171
           14812         5.81270
           14813         5.79000
           14814         5.79466
           14815         5.76172
           14816         5.84092
           14817         5.84147
           14818         5.87984
           14819         5.84557
           14820         5.81234
           14821         5.79639
           14822         5.79562
           14823         5.76626
           14824         5.78750
           14825         5.79114
           14826         5.36293
           14827         5.28879
           14828         5.27033
           14829         5.19846
           14830         5.27278
           14831         5.29013
           14832         5.38454
           14833         5.36599
           14834         5.32544
           14835         5.41255
           14836         5.43116
           14837         5.47264
           14838         4.12232
           14839         4.02553
           14840         3.99773
           14841         3.99476
           14842         4.09185
           14843         4.11948
           14844         4.23069
           14845         4.20147
           14846         4.30451
           14847         4.19318
           14848         4.22237
           14849         3.89945
           14850         3.99171
           14851         3.92742
           14852         4.02739
           14853         3.93371
           14854         4.05011
           14855         4.11679
           14856         4.21744
           14857         4.12588
           14858         4.12375
           14859         4.02734
           14860         3.93142
           14861         4.02462
           14862         4.05439
           14863         3.96013
           14864         3.41221
           14865         3.48858
           14866         3.48804
           14867         3.56810
           14868         3.48775
           14869         3.48816
           14870         3.57818
           14871         3.65967
           14872         3.61712
           14873         3.64979
           14874         3.56798
           14875         3.61009
           14876         3.52041
           14877         3.48912
           14878         3.53005
           14879         3.44830
           14880         3.49315
           14881         3.43235
           14882         3.47285
           14883         3.42860
           14884         3.55255
           14885         3.48519
           14886         3.46923
           14887         3.40905
           14888         3.42494
           14889         3.48593
           14890         3.55346
           14891         3.50574
           14892         2.61802
           14893         2.63570
           14894         2.59539
           14895         2.57852
           14896         2.55922
           14897         2.60041
           14898         2.64329
           14899         2.68296
           14900         2.61863
           14901         2.63581
           14902         2.65791
           14903         2.54296
           14904         2.56361
           14905         2.56808
           14906         2.54822
           14907         2.51867
           14908         2.50759
           14909         2.53788
           14910         2.52295
           14911         2.52908
           14912         2.59074
           14913     425.701E-03
           14914     390.223E-03
           14915     410.598E-03
           14916     361.298E-03
           14917     397.717E-03
           14918     376.848E-03
           14919     502.102E-03
           14920     464.838E-03
           14921     481.044E-03
           14922     510.778E-03
           14923     569.248E-03
           14924     554.553E-03
           14925     496.583E-03
           14926     563.659E-03
           14927     435.232E-03
           14928     490.984E-03
           14929     499.522E-03
           14930     393.278E-03
           14931     438.620E-03
           14932     442.245E-03
           14933     471.290E-03
           14934     425.398E-03
           14935     421.678E-03
           14936     446.337E-03
           14937     401.195E-03
           14938     429.304E-03
           14939     416.553E-03
           14940     462.053E-03
           14941     445.636E-03
           14942     400.140E-03
           14943     419.647E-03
           14944     420.711E-03
           14945     322.858E-03
           14946     369.875E-03
           14947     357.639E-03
           14948     353.629E-03
           14949     365.636E-03
           14950         2.97801
           14951         2.96591
           14952         2.96896
           14953         2.99571
           14954         3.00867
           14955         3.00508
           14956         2.98904
           14957         2.97293
           14958         2.96535
           14959         2.98704
           14960         3.00335
           14961         3.01205
           14962         2.96084
           14963         2.95351
           14964         2.93871
           14965         3.03390
           14966         3.01006
           14967         3.01870
           14968         3.01418
           14969         2.98535
           14970         3.01256
           14971         3.00806
           14972         3.03886
           14973         3.01671
           14974         3.57579
           14975         3.61184
           14976         3.54183
           14977         3.58031
           14978         3.54493
           14979         3.61466
           14980         3.45148
           14981         3.43789
           14982         3.49310
           14983         3.46242
           14984         3.47603
           14985         3.42136
           14986         3.40453
           14987         3.45855
           14988         3.44012
           14989         3.48754
           14990         3.43269
           14991         3.48704
           14992         3.43788
           14993         3.43120
           14994         3.60406
           14995         3.53436
           14996         3.51338
           14997         3.55426
           14998         3.50582
           14999         3.52645
           15000         3.46941
           15001         5.68304
           15002         5.67501
           15003         5.68855
           15004         5.70191
           15005         5.70840
           15006         5.69259
           15007         5.67733
           15008         5.69423
           15009         5.71262
           15010         5.71527
           15011         5.69574
           15012         5.68172
           15013         5.72285
           15014         5.74458
           15015         5.72803
           15016         5.74299
           15017         5.73786
           15018         5.71814
           15019         5.71871
           15020         5.67523
           15021         5.68592
           15022         5.67782
           15023         1.61700
           15024         1.64529
           15025         1.67639
           15026         1.68755
           15027         1.65885
           15028         1.62800
           15029         2.61688
           15030         2.70977
           15031         2.47764
           15032         2.53868
           15033         2.44599
           15034         2.67550
           15035         5.18477
           15036         5.20023
           15037         5.23549
           15038         5.30672
           15039         5.28377
           15040         5.25069
           15041         2.35947
           15042         2.26763
           15043         2.32568
           15044         2.23744
           15045         2.16309
           15046         2.31508
           15047         2.34467
           15048         2.41723
           15049         2.26443
           15050         5.73174
           15051         5.69787
           15052         5.71984
           15053         5.67693
           15054         5.70982
           15055         5.68923
           15056         5.79692
           15057         5.82956
           15058         5.78171
           15059         5.78975
           15060         5.75600
           15061         5.80407
           15062         5.72600
           15063         5.69287
           15064         5.71998
           15065         5.75341
           15066         5.72631
           15067         5.80833
           15068         5.76624
           15069         5.79265
           15070         5.76526
           15071         5.79425
           15072         5.79463
           15073         5.84226
           15074         5.80813
           15075         3.69316
           15076         3.85259
           15077         3.76955
           15078         3.75749
           15079         3.59671
           15080         3.67567
           15081         3.55397
           15082         3.51747
           15083         3.66826
           15084         3.68458
           15085         3.60565
           15086         3.52119
           15087         3.55838
           15088         3.61792
           15089         3.41932
           15090         3.49438
           15091         3.29403
           15092         3.43482
           15093         3.35596
           15094         3.63619
           15095         3.71085
           15096         3.58349
           15097         3.40939
           15098         4.52504
           15099         4.58833
           15100         4.48646
           15101         4.51679
           15102         4.45835
           15103         4.55769
           15104         4.32985
           15105         4.25618
           15106         4.34892
           15107         4.32950
           15108         4.41090
           15109         4.31263
           15110         4.33938
           15111         4.43891
           15112         4.36002
           15113         4.54109
           15114         4.50405
           15115         3.73530
           15116         3.73688
           15117         3.63984
           15118         3.44209
           15119         3.44248
           15120         3.53609
           15121         3.48417
           15122         3.52589
           15123         3.68391
           15124         3.52349
           15125         3.47698
           15126         3.32280
           15127         3.53790
           15128         3.49502
           15129         3.33455
           15130         3.33993
           15131         3.28331
           15132         3.29435
           15133         3.10335
           15134         3.15546
           15135         3.14428
           15136         3.84805
           15137         3.81134
           15138         3.66246
           15139         3.26492
           15140         3.21377
           15141         3.44291
           15142         3.41336
           15143         3.49095
           15144         3.64295
           15145     74.7599E-03
           15146     43.4915E-03
           15147     71.3349E-03
           15148     62.4578E-03
           15149     95.4370E-03
           15150     65.9561E-03
           15151     105.889E-03
           15152     82.9609E-03
           15153     82.9821E-03
           15154     75.2366E-03
           15155     97.0671E-03
           15156     96.7825E-03
           15157     137.392E-03
           15158     137.426E-03
           15159     130.668E-03
           15160     99.2359E-03
           15161     98.9448E-03
           15162     76.8186E-03
           15163     65.1650E-03
           15164     50.9585E-03
           15165     127.561E-03
           15166     117.655E-03
           15167     123.476E-03
           15168     133.476E-03
           15169     157.534E-03
           15170     166.898E-03
           15171     127.161E-03
           15172         6.81379
           15173         6.97743
           15174         6.87185
           15175         7.00637
           15176         6.84140
           15177         6.94619
           15178         6.66070
           15179         6.81829
           15180         6.86233
           15181         6.70403
           15182         6.65379
           15183         6.57199
           15184         6.43091
           15185         6.56154
           15186         6.51680
           15187         6.66368
           15188         6.52760
           15189         6.64725
           15190         6.50941
           15191         6.60300
           15192         6.84534
           15193         7.01007
           15194         6.94998
           15195         2.34642
           15196         2.35596
           15197         2.36095
           15198         2.34493
           15199         2.33629
           15200         2.32979
           15201         2.37346
           15202         2.38372
           15203         2.36323
           15204         2.37134
           15205         2.38238
           15206         2.33420
           15207         2.31551
           15208         2.33409
           15209         2.33806
           15210         2.35606
           15211         2.33832
           15212         2.35795
           15213         2.34012
           15214         2.34518
           15215         2.36903
           15216         2.36225
           15217         5.47550
           15218         5.46924
           15219         5.46203
           15220         5.46001
           15221         5.46363
           15222         5.47427
           15223         2.37824
           15224         7.09270
           15225         7.30640
           15226         7.21067
           15227         7.25534
           15228         7.03987
           15229         7.11987
           15230         6.84584
           15231         6.68849
           15232         6.84668
           15233         6.68599
           15234         6.83860
           15235         6.68130
           15236         7.23640
           15237         7.03078
           15238         7.07729
           15239         6.87275
           15240         6.87280
           15241         2.57452
           15242         2.58091
           15243         2.58181
           15244         2.58828
           15245         2.58170
           15246         2.58089
           15247         2.57265
           15248         2.56583
           15249         2.56895
           15250         2.56602
           15251         2.57232
           15252         2.56927
           15253         2.57889
           15254         2.57267
           15255         2.56975
           15256         2.57892
           15257         2.56568
           15258         2.57180
           15259         2.56764
           15260         1.19289
           15261         1.14568
           15262         1.18711
           15263         1.11351
           15264         1.16114
           15265         1.11963
           15266     733.060E-03
           15267     629.893E-03
           15268     765.469E-03
           15269     777.640E-03
           15270     902.186E-03
           15271     752.847E-03
           15272         1.04446
           15273     996.935E-03
           15274     999.085E-03
           15275         1.05122
           15276         1.09924
           15277         1.09652
           15278     971.887E-03
           15279     953.791E-03
           15280         1.02906
           15281     995.196E-03
           15282         1.01273
           15283     937.132E-03
           15284     969.244E-03
           15285     924.364E-03
           15286         1.03364
           15287     958.307E-03
           15288     999.740E-03
           15289         2.24476
           15290         2.25241
           15291         2.19069
           15292         2.22658
           15293         2.21785
           15294         2.31333
           15295         2.32169
           15296         2.29449
           15297         2.26882
           15298         2.26047
           15299         2.28771
           15300         2.26453
           15301         3.81430
           15302         3.73836
           15303         3.81471
           15304         3.78655
           15305         3.86427
           15306         3.78623
           15307         3.76445
           15308         3.84113
           15309         3.79971
           15310         3.85012
           15311         3.77349
           15312         3.94424
           15313         3.98578
           15314         3.93429
           15315         4.04865
           15316         4.00690
           15317         4.05916
           15318         4.00495
           15319         3.95307
           15320         3.90937
           15321         3.90039
           15322         3.85389
           15323         3.90477
           15324         3.77340
           15325         6.72030
           15326         6.88169
           15327         6.81801
           15328         6.78744
           15329         6.62731
           15330         6.69156
           15331         2.40317
           15332         2.36813
           15333         2.37422
           15334         2.38376
           15335         2.41842
           15336         2.41250
           15337         6.60859
           15338         6.50445
           15339         6.55269
           15340         6.67887
           15341         6.78677
           15342         6.73703
           15343         6.97335
           15344         6.90637
           15345         7.07974
           15346         7.09261
           15347         6.94843
           15348         7.11159
           15349         7.06973
           15350         7.21661
           15351         7.05050
           15352         6.27945
           15353         6.66570
           15354         6.60455
           15355         7.02567
           15356         6.62166
           15357         6.69407
           15358         6.80616
           15359         6.87517
           15360         6.67749
           15361         6.61712
           15362         6.76410
           15363         3.35789
           15364         3.40597
           15365         3.30274
           15366         3.34300
           15367         3.29735
           15368         3.40263
           15369         3.53368
           15370         3.42644
           15371         3.47697
           15372         3.39368
           15373         3.29122
           15374         3.46555
           15375         3.34185
           15376         3.29656
           15377         3.40102
           15378         3.32988
           15379         2.49701
           15380         2.48014
           15381         2.48549
           15382         2.47750
           15383         2.49456
           15384         2.48940
           15385         2.52069
           15386         2.53400
           15387         2.51517
           15388         2.51846
           15389         2.50573
           15390         2.52402
           15391         2.50031
           15392         2.50761
           15393         2.52580
           15394         2.51883
           15395         2.51180
           15396         2.50389
           15397         2.50726
           15398         2.51239
           15399         2.50244
           15400         2.52677
           15401         2.53778
           15402         2.95791
           15403         2.93069
           15404         2.90032
           15405         2.91947
           15406         2.94600
           15407         2.97782
           15408         3.01609
           15409         2.99558
           15410         3.02905
           15411         3.03930
           15412         2.96901
           15413         2.98275
           15414         2.94007
           15415         3.00990
           15416         2.90189
           15417         2.91936
           15418         2.94414
           15419         2.99115
           15420         2.97366
           15421         2.94777
           15422         3.04423
           15423         3.01283
           15424         3.76241
           15425         4.09426
           15426         3.88271
           15427         3.97894
           15428         3.64876
           15429         3.86165
           15430         3.67678
           15431         4.01151
           15432         3.97239
           15433         3.63302
           15434         3.76498
           15435         3.34075
           15436         3.17713
           15437         3.38257
           15438         3.25611
           15439         3.42371
           15440         3.21725
           15441         3.33442
           15442         3.53579
           15443         3.37389
           15444         3.43457
           15445         3.56515
           15446         3.63886
           15447         3.77616
           15448         3.66254
           15449         3.04734
           15450         3.09614
           15451         3.14142
           15452         3.17526
           15453         3.12542
           15454         3.08002
           15455         2.97215
           15456         3.01480
           15457         2.94870
           15458         3.02284
           15459         2.97987
           15460         2.97457
           15461         3.04273
           15462         3.04275
           15463         3.09156
           15464         3.02162
           15465         3.09078
           15466         3.14044
           15467         3.14038
           15468         2.68674
           15469         2.70824
           15470         2.71929
           15471         2.73639
           15472         2.71132
           15473         2.70032
           15474     773.278E-03
           15475     737.986E-03
           15476     706.419E-03
           15477     669.915E-03
           15478     706.509E-03
           15479     738.499E-03
           15480         2.32143
           15481         2.30052
           15482         2.34357
           15483         2.30358
           15484         2.32506
           15485         2.27998
           15486         2.38026
           15487         2.35808
           15488         2.33650
           15489         2.34549
           15490         2.35494
           15491         2.35654
           15492         2.37733
           15493         2.36836
           15494         2.36645
           15495         2.39686
           15496         2.38961
           15497         2.40109
           15498         2.36647
           15499         2.35379
           15500         3.02987
           15501         3.08259
           15502         3.06893
           15503         3.12696
           15504         3.07183
           15505         3.08510
           15506     980.571E-03
           15507     646.500E-03
           15508     741.477E-03
           15509     537.753E-03
           15510     834.284E-03
           15511     734.158E-03
           15512         4.71199
           15513         4.70643
           15514         4.76536
           15515         4.69752
           15516         4.70320
           15517         4.64477
           15518     726.427E-03
           15519     943.422E-03
           15520     971.062E-03
           15521         1.09062
           15522     846.377E-03
           15523         1.40021
           15524         1.53452
           15525         1.20674
           15526         1.19760
           15527         1.08312
           15528         1.39813
           15529         1.55246
           15530         1.77476
           15531         1.41419
           15532         2.60998
           15533         2.61761
           15534         2.60665
           15535         2.59987
           15536         2.59140
           15537         2.60316
           15538         2.59579
           15539         2.60950
           15540         2.61198
           15541         2.61389
           15542         2.60010
           15543         2.59882
           15544         2.59550
           15545         2.58695
           15546         2.58032
           15547         2.57420
           15548         2.58666
           15549         2.57885
           15550         2.57585
           15551         2.58808
           15552         2.58484
           15553         2.58506
           15554         5.84556
           15555         5.84984
           15556         5.86469
           15557         5.90048
           15558         5.89825
           15559         5.88127
           15560         5.95857
           15561         5.92147
           15562         5.97008
           15563         5.91290
           15564         5.94877
           15565         5.85050
           15566         5.82286
           15567         5.82921
           15568         5.78259
           15569         5.81110
           15570         5.90330
           15571         5.88510
           15572         5.92401
           15573         5.88584
           15574         5.89825
           15575         5.86511
           15576         5.46397
           15577         5.61179
           15578         5.60460
           15579         5.69004
           15580         5.53981
           15581         5.54679
           15582         5.42310
           15583         5.29367
           15584         5.32568
           15585         5.25067
           15586         5.37966
           15587         5.34761
           15588         5.33333
           15589         5.38714
           15590         5.46205
           15591         4.56483
           15592         4.66487
           15593         4.57623
           15594         4.67993
           15595         4.57971
           15596         4.66825
           15597         4.47191
           15598         4.57371
           15599         4.56223
           15600         4.46133
           15601         4.45575
           15602     522.718E-03
           15603     563.161E-03
           15604     538.946E-03
           15605     519.573E-03
           15606     479.144E-03
           15607     503.060E-03
           15608     613.451E-03
           15609     572.666E-03
           15610     577.419E-03
           15611     503.257E-03
           15612     543.725E-03
           15613     446.963E-03
           15614     426.484E-03
           15615     375.919E-03
           15616     379.638E-03
           15617     451.144E-03
           15618     430.468E-03
           15619     447.891E-03
           15620     443.998E-03
           15621     372.916E-03
           15622     626.055E-03
           15623     551.449E-03
           15624     573.891E-03
           15625     520.763E-03
           15626     594.780E-03
           15627         5.40500
           15628         5.54396
           15629         5.53172
           15630         5.61009
           15631         5.47276
           15632         5.47506
           15633         5.24801
           15634         5.20614
           15635         5.34634
           15636         5.21252
           15637         5.25840
           15638         5.12633
           15639         5.42677
           15640         5.54038
           15641         5.50809
           15642         5.45288
           15643         5.37873
           15644         4.89075
           15645         4.86206
           15646         4.93024
           15647         4.97758
           15648         5.00836
           15649         4.93449
           15650         4.75436
           15651         4.81940
           15652         4.78702
           15653         5.01070
           15654         5.02256
           15655         4.96744
           15656         4.92221
           15657         4.90516
           15658         4.95555
           15659         4.83640
           15660         4.77354
           15661         4.94727
           15662         4.99680
           15663         5.06032
           15664         5.01501
           15665         4.99575
           15666         4.96157
           15667         11.1468
           15668         10.5891
           15669         10.6454
           15670         11.1695
           15671         12.0853
           15672         11.7300
           15673         10.0572
           15674         9.48233
           15675         9.53061
           15676         8.76350
           15677         9.31335
           15678         9.28197
           15679         10.6157
           15680         10.5964
           15681         9.54776
           15682         9.59324
           15683         10.1283
           15684         10.3784
           15685         9.51263
           15686         8.82256
           15687         9.57333
           15688         9.83233
           15689         11.6313
           15690         10.9952
           15691         8.79570
           15692         2.27920
           15693         2.35851
           15694         2.25280
           15695         2.25728
           15696         2.17807
           15697         2.28654
           15698         2.02661
           15699         2.09041
           15700         2.23709
           15701         2.09049
           15702         2.02598
           15703         1.88166
           15704         2.05214
           15705         2.04109
           15706         2.02674
           15707         2.14745
           15708         2.16008
           15709         2.25677
           15710         1.89954
           15711         1.89571
           15712         4.55674
           15713         5.38600
           15714         5.67772
           15715         6.07495
           15716         5.12881
           15717         4.89700
           15718         1.77932
           15719         1.66731
           15720         1.77504
           15721         1.66949
           15722         1.78167
           15723         1.67418
           15724         2.03328
           15725         1.97657
           15726         1.94529
           15727         2.00299
           15728         2.06124
           15729         2.09055
           15730         2.24326
           15731         2.26901
           15732         2.21147
           15733         1.89663
           15734         2.08092
           15735         1.96571
           15736         1.85877
           15737         7.38720
           15738         6.65287
           15739         6.37095
           15740         7.18741
           15741         8.18218
           15742         8.55728
           15743         6.69452
           15744         7.61854
           15745         7.99827
           15746         7.87122
           15747         6.91416
           15748         6.61724
           15749         7.98150
           15750         8.21947
           15751         9.12547
           15752         6.20301
           15753         5.65974
           15754         6.07349
           15755         6.74657
           15756         5.96739
           15757     856.246E-03
           15758     741.948E-03
           15759     859.864E-03
           15760     895.735E-03
           15761         1.02870
           15762     892.746E-03
           15763         1.07554
           15764         1.18307
           15765         1.10109
           15766         1.13271
           15767         1.01454
           15768         1.10062
           15769     889.881E-03
           15770     778.883E-03
           15771     927.903E-03
           15772         1.01471
           15773         1.12094
           15774         1.20954
           15775     964.462E-03
           15776         1.13530
           15777         1.23745
           15778         1.16208
           15779         2.68791
           15780         2.69209
           15781         2.67954
           15782         2.69385
           15783         2.68961
           15784         2.70274
           15785         2.68851
           15786         2.67579
           15787         2.68697
           15788         2.66468
           15789         2.65922
           15790         2.67060
           15791         2.67340
           15792         2.66697
           15793         2.66489
           15794         2.67623
           15795         2.67076
           15796         2.66450
           15797         2.67529
           15798         2.55565
           15799         2.55094
           15800         2.56344
           15801         2.54235
           15802         2.54579
           15803         2.53380
           15804         2.58227
           15805         2.59747
           15806         2.58352
           15807         2.57801
           15808         2.57663
           15809         2.58174
           15810         2.59697
           15811         2.61210
           15812         2.59668
           15813         2.61209
           15814         2.59147
           15815         2.57613
           15816         2.60762
           15817         2.61260
           15818         2.56515
           15819         2.55238
           15820         2.55050
           15821         2.56304
           15822         2.55959
           15823         2.57377
           15824         2.56298
           15825         3.75150
           15826         3.78836
           15827         3.85049
           15828         3.72482
           15829         3.68473
           15830         3.62085
           15831         3.82078
           15832         3.63805
           15833         3.63269
           15834         3.55501
           15835         3.74142
           15836         3.74405
           15837         3.87397
           15838         3.86037
           15839         4.01217
           15840         3.96315
           15841         3.97393
           15842         3.86660
           15843         4.01696
           15844         4.06559
           15845         3.91591
           15846         3.96683
           15847         3.95654
           15848         4.00082
           15849         5.74090
           15850         5.74843
           15851         5.76057
           15852         5.75734
           15853         5.75495
           15854         5.73618
           15855         4.28497
           15856         5.05611
           15857         4.44520
           15858         5.10111
           15859         4.35619
           15860         4.94650
           15861         3.26458
           15862         2.78947
           15863         3.24119
           15864         3.35597
           15865         3.87329
           15866         3.35016
           15867         3.34572
           15868         3.31915
           15869         3.70718
           15870         3.20412
           15871         2.87913
           15872         4.49401
           15873         4.40681
           15874         5.15528
           15875         5.23237
           15876         5.18243
           15877         5.18707
           15878         5.11040
           15879         5.15889
           15880         5.21053
           15881         5.13423
           15882         5.17295
           15883         5.14805
           15884         5.22257
           15885         5.05473
           15886         5.04146
           15887         5.08865
           15888         5.08312
           15889         5.10475
           15890         5.05255
           15891         5.09057
           15892         5.11132
           15893         2.61217
           15894         2.61712
           15895         2.61031
           15896         2.61195
           15897         2.60732
           15898         2.61390
           15899         2.60289
           15900         2.60155
           15901         2.60473
           15902         2.60699
           15903         2.60830
           15904         2.60505
           15905         2.59990
           15906         2.59209
           15907         2.59804
           15908         2.59496
           15909         2.59668
           15910         2.59720
           15911         2.59527
           15912         2.60332
           15913         2.60195
           15914         2.60081
           15915         2.60375
           15916     752.960E-03
           15917     695.676E-03
           15918     750.002E-03
           15919     645.241E-03
           15920     701.068E-03
           15921     646.887E-03
           15922     842.796E-03
           15923     787.710E-03
           15924     792.487E-03
           15925     845.416E-03
           15926     881.301E-03
           15927     824.201E-03
           15928     878.888E-03
           15929     861.170E-03
           15930     825.277E-03
           15931     770.875E-03
           15932     789.194E-03
           15933     896.380E-03
           15934     858.689E-03
           15935         3.60746
           15936         3.56372
           15937         3.58784
           15938         3.55720
           15939         3.60042
           15940         3.57613
           15941         3.61290
           15942         3.66028
           15943         3.68028
           15944         3.62540
           15945         3.57941
           15946         3.56106
           15947         3.53663
           15948         3.54884
           15949         3.67730
           15950         3.65209
           15951         3.65205
           15952         3.67730
           15953         3.72372
           15954         2.18920
           15955         2.13330
           15956         2.15598
           15957         2.12418
           15958         2.18011
           15959         2.15761
           15960         3.66950
           15961         3.68927
           15962         3.73905
           15963         3.73641
           15964         3.68172
           15965         3.62458
           15966         3.66971
           15967     705.343E-03
           15968     756.235E-03
           15969     726.710E-03
           15970     838.849E-03
           15971     738.287E-03
           15972     772.781E-03
           15973     705.007E-03
           15974     786.130E-03
           15975     728.268E-03
           15976     741.701E-03
           15977     685.611E-03
           15978     721.533E-03
           15979     832.013E-03
           15980     732.482E-03
           15981     848.760E-03
           15982     698.537E-03
           15983     663.940E-03
           15984     668.084E-03
           15985     687.606E-03
           15986     736.254E-03
           15987     661.263E-03
           15988     664.024E-03
           15989     692.467E-03
           15990         6.26940
           15991         6.50628
           15992         6.25446
           15993         6.30599
           15994         6.08845
           15995         6.33435
           15996         6.38068
           15997         6.15519
           15998         6.16146
           15999         6.04196
           16000         6.25467
           16001         6.13432
           16002         6.13928
           16003         5.86072
           16004         5.85508
           16005         5.94678
           16006         6.35623
           16007         6.18370
           16008         5.31392
           16009         5.33472
           16010         5.29440
           16011         5.29020
           16012         5.26789
           16013         5.31026
           16014         5.30920
           16015         5.35731
           16016         5.32206
           16017         5.33137
           16018         5.28039
           16019         5.31888
           16020         5.24967
           16021         5.24343
           16022         5.28079
           16023         5.24331
           16024         5.23718
           16025         5.21495
           16026         5.21994
           16027         5.18707
           16028         5.21803
           16029         5.21043
           16030         5.17796
           16031         2.22912
           16032         2.25270
           16033         2.24624
           16034         2.21938
           16035         2.19503
           16036         2.20244
           16037         2.56660
           16038         2.59203
           16039         2.57926
           16040         2.58043
           16041         2.55495
           16042         2.56916
           16043         2.55367
           16044         2.52531
           16045         2.52409
           16046         2.50335
           16047         2.53247
           16048         2.53214
           16049         2.52919
           16050         2.55764
           16051         2.56513
           16052         2.55918
           16053         2.53065
           16054         2.58367
           16055         2.58515
           16056         6.06635
           16057         5.93848
           16058         5.87697
           16059         5.83130
           16060         5.95441
           16061         6.01585
           16062         6.08952
           16063         6.15138
           16064         6.19050
           16065         6.12883
           16066         6.21414
           16067         5.93456
           16068         5.95629
           16069         6.02595
           16070         6.14686
           16071         6.12338
           16072         6.05294
           16073         5.86956
           16074         5.94005
           16075         5.95808
           16076         5.14748
           16077         5.27401
           16078         5.12977
           16079         5.14184
           16080         5.01962
           16081         5.16079
           16082         4.90491
           16083         4.87630
           16084         4.97690
           16085         4.85713
           16086         4.88675
           16087         4.78644
           16088         4.89613
           16089         4.79604
           16090         4.85058
           16091         4.95187
           16092         4.84225
           16093         4.83166
           16094         4.96164
           16095         5.06502
           16096         5.03529
           16097         5.02464
           16098         5.08021
           16099         5.22313
           16100         5.09102
           16101         2.59784
           16102         2.60378
           16103         2.59543
           16104         2.58918
           16105         2.58392
           16106         2.59187
           16107         2.58402
           16108         2.58184
           16109         2.58773
           16110         2.59494
           16111         2.59733
           16112         2.59118
           16113         2.60094
           16114         2.60329
           16115         2.61083
           16116         2.58198
           16117         2.57962
           16118         2.57538
           16119         2.57795
           16120         2.56990
           16121         2.59906
           16122         2.58408
           16123         2.60437
           16124         2.61053
           16125         2.58948
           16126         2.61347
           16127         2.60743
           16128         2.62262
           16129         2.61142
           16130         2.62131
           16131         2.61578
           16132         2.50956
           16133         2.52479
           16134         2.54888
           16135         2.48522
           16136         2.47015
           16137         2.44669
           16138         2.50946
           16139         2.43670
           16140         2.46141
           16141         2.49084
           16142         2.56599
           16143         2.54100
           16144         2.41480
           16145         2.48643
           16146         2.46273
           16147         2.43629
           16148         2.63843
           16149         2.60611
           16150         2.68354
           16151         2.60952
           16152         2.64126
           16153         2.58335
           16154         2.54662
           16155         2.57208
           16156         2.64855
           16157         2.23525
           16158         2.15998
           16159         2.17946
           16160         2.23384
           16161         2.30954
           16162         2.29329
           16163         2.18150
           16164         2.16133
           16165         2.29163
           16166         2.30781
           16167         2.23381
           16168         2.09708
           16169         1.95987
           16170         2.11605
           16171         2.04097
           16172         2.02290
           16173         2.13120
           16174         2.27156
           16175         2.19335
           16176         2.08316
           16177         2.59325
           16178         2.59630
           16179         2.59739
           16180         2.58789
           16181         2.58622
           16182         2.58359
           16183         2.59299
           16184         2.59532
           16185         2.60830
           16186         2.60442
           16187         2.60230
           16188         2.59220
           16189         2.60070
           16190         2.60478
           16191         2.61224
           16192         2.60332
           16193         2.59910
           16194         2.58570
           16195         2.58740
           16196         2.59244
           16197         2.60107
           16198         2.59709
           16199         2.56269
           16200         2.55479
           16201         2.56239
           16202         2.55756
           16203         2.56519
           16204         2.55785
           16205         2.56232
           16206         2.56891
           16207         2.56319
           16208         2.56378
           16209         2.55706
           16210         7.18697
           16211         7.44073
           16212         7.22375
           16213         7.35873
           16214         7.10843
           16215         7.32143
           16216         7.07931
           16217         7.08661
           16218         6.98835
           16219         6.87334
           16220         6.86334
           16221         6.96273
           16222         2.28657
           16223         2.27980
           16224         2.24258
           16225         2.28114
           16226         2.28767
           16227         2.32413
           16228         6.91837
           16229         6.80071
           16230         6.85885
           16231         6.98807
           16232         7.04800
           16233         7.29001
           16234         7.19556
           16235         1.24966
           16236         1.29640
           16237         1.28024
           16238         1.33891
           16239         1.29325
           16240         1.30828
           16241         1.28372
           16242         1.34202
           16243         1.38732
           16244         1.39552
           16245         1.33724
           16246         1.45220
           16247         1.40804
           16248         1.48913
           16249         1.43309
           16250         1.47749
           16251         1.40006
           16252         1.35691
           16253         1.38750
           16254         1.48100
           16255         1.42002
           16256         1.65443
           16257         1.57131
           16258         1.60244
           16259         1.52502
           16260         1.61008
           16261         1.57804
           16262         1.72468
           16263         1.79121
           16264         1.75167
           16265         1.69108
           16266         1.73162
           16267         1.65109
           16268         1.56785
           16269         1.60981
           16270         1.65717
           16271         1.67802
           16272         1.64308
           16273         1.67957
           16274         1.71402
           16275         1.70769
           16276         5.98460
           16277         5.91500
           16278         6.10303
           16279         6.01345
           16280         6.08451
           16281         5.89759
           16282         6.18843
           16283         6.11720
           16284         5.98985
           16285         6.06067
           16286         6.07394
           16287         6.28820
           16288         6.33222
           16289         6.21775
           16290         6.31941
           16291         6.27534
           16292         6.38959
           16293     11.6482E-03
           16294     10.0092E-03
           16295     12.7573E-03
           16296     17.9459E-03
           16297     12.7751E-03
           16298     11.9522E-03
           16299         6.23307
           16300         6.14693
           16301         2.70198
           16302         2.70202
           16303         2.70853
           16304         2.70301
           16305         2.70366
           16306         2.69662
           16307         2.69950
           16308         2.70474
           16309         2.70382
           16310         2.69656
           16311         2.69948
           16312         2.70463
           16313         2.70764
           16314         2.71217
           16315         2.71110
           16316         2.70220
           16317         2.70867
           16318         2.71426
           16319         2.71461
           16320         2.70821
           16321         2.71427
           16322         2.71701
           16323         2.71261
           16324         2.71151
           16325         2.71333
           16326         2.71824
           16327         2.71838
           16328         2.72424
           16329         2.71650
           16330         2.72035
           16331         2.72211
           16332         6.20446
           16333         6.14270
           16334         6.07879
           16335         6.09007
           16336         6.15525
           16337         6.22706
           16338         6.21219
           16339         6.35683
           16340         6.32577
           16341         6.29830
           16342         6.15615
           16343         6.18183
           16344         6.19277
           16345         6.27108
           16346         6.21771
           16347         6.12403
           16348         6.08058
           16349         5.95289
           16350         6.01252
           16351         6.05366
           16352         5.92157
           16353         5.98293
           16354         6.04650
           16355         6.33292
           16356         6.41853
           16357         6.39939
           16358         6.51989
           16359         6.39278
           16360     949.780E-03
           16361         1.28186
           16362         1.01396
           16363         1.43649
           16364         1.03380
           16365         1.30674
           16366     686.181E-03
           16367     720.326E-03
           16368     767.859E-03
           16369     779.959E-03
           16370     754.323E-03
           16371     684.277E-03
           16372     959.150E-03
           16373     765.446E-03
           16374     740.999E-03
           16375     791.843E-03
           16376         1.15137
           16377     683.398E-03
           16378     641.092E-03
           16379         3.81307
           16380         3.95458
           16381         3.93986
           16382         4.06101
           16383         3.92545
           16384         3.93518
           16385         3.71241
           16386         3.70900
           16387         3.79248
           16388         3.87846
           16389         3.88206
           16390         3.79632
           16391         3.58216
           16392         3.67469
           16393         3.66323
           16394         3.88492
           16395         4.00672
           16396         4.00403
           16397         3.96587
           16398         3.89204
           16399         5.58011
           16400         5.54881
           16401         5.56819
           16402         5.59007
           16403         5.61943
           16404         5.59944
           16405         5.61347
           16406         5.66069
           16407         5.64935
           16408         5.64777
           16409         5.60298
           16410         5.62278
           16411         5.56683
           16412         5.56455
           16413         5.55186
           16414         5.59023
           16415         5.59775
           16416         5.64859
           16417         5.62994
           16418         5.60949
           16419         5.66612
           16420         5.67680
           16421         5.82266
           16422         5.77881
           16423         5.80970
           16424         5.67303
           16425         5.71698
           16426         5.68628
           16427         5.98355
           16428         6.10428
           16429         5.97117
           16430         6.10305
           16431         5.98181
           16432         6.11533
           16433         5.88933
           16434         5.76371
           16435         5.69776
           16436         5.78743
           16437         5.91399
           16438         6.12715
           16439         5.99520
           16440         5.95996
           16441         5.81893
           16442         5.94620
           16443         3.38259
           16444         3.37814
           16445         3.34320
           16446         3.41147
           16447         3.41593
           16448         3.45275
           16449         3.37706
           16450         3.38160
           16451         3.45163
           16452         3.45196
           16453         3.41577
           16454         3.41404
           16455         3.34621
           16456         3.38096
           16457         3.45092
           16458         3.37988
           16459         3.31601
           16460         3.25958
           16461         3.28973
           16462         3.25874
           16463         3.31483
           16464         3.28441
           16465         3.31130
           16466         3.34941
           16467         2.62103
           16468         2.61506
           16469         2.61626
           16470         2.61261
           16471         2.61839
           16472         2.61757
           16473         1.99957
           16474         1.92899
           16475         1.89770
           16476         1.82004
           16477         1.89269
           16478         1.92284
           16479         1.97777
           16480         2.04508
           16481         2.03625
           16482         2.14843
           16483         2.08461
           16484         2.09179
           16485         1.93557
           16486         2.00541
           16487         2.06167
           16488         2.02260
           16489         1.95154
           16490         2.12203
           16491         2.03909
           16492         2.11435
           16493         2.08817
           16494         2.13691
           16495         2.71497
           16496         2.77826
           16497         2.75192
           16498         2.71043
           16499         2.65181
           16500         2.67178
           16501         2.76309
           16502         2.79058
           16503         2.67644
           16504         2.65609
           16505         2.72650
           16506         2.73894
           16507         2.75314
           16508         2.70626
           16509         2.78688
           16510         2.77578
           16511         2.82049
           16512         2.80031
           16513         2.84937
           16514         2.75808
           16515         2.71110
           16516         2.68894
           16517         2.66789
           16518         2.71534
           16519         2.45428
           16520         2.48069
           16521         2.46305
           16522         2.49165
           16523         2.46385
           16524         2.48191
           16525         2.42034
           16526         2.39595
           16527         2.41232
           16528         2.40232
           16529         2.42512
           16530         2.40983
           16531         2.45413
           16532         2.42609
           16533         2.45547
           16534         2.40093
           16535         2.35888
           16536         2.38315
           16537         2.37140
           16538         2.36579
           16539         4.56914
           16540         4.54438
           16541         4.60144
           16542         4.48565
           16543         4.50574
           16544         4.45227
           16545         2.41005
           16546         2.44893
           16547     427.847E-03
           16548     360.459E-03
           16549     450.609E-03
           16550     484.473E-03
           16551     557.596E-03
           16552     459.707E-03
           16553     552.478E-03
           16554     680.642E-03
           16555     644.946E-03
           16556     699.794E-03
           16557     573.611E-03
           16558     604.856E-03
           16559     434.270E-03
           16560     366.894E-03
           16561     310.265E-03
           16562     377.261E-03
           16563     297.229E-03
           16564     479.303E-03
           16565     335.942E-03
           16566     290.468E-03
           16567     385.982E-03
           16568     605.890E-03
           16569     513.654E-03
           16570         3.39104
           16571         3.38579
           16572         3.34855
           16573         3.40349
           16574         3.40849
           16575         3.44850
           16576         3.25566
           16577         3.28472
           16578         3.24831
           16579         3.31016
           16580         3.27998
           16581         3.31665
           16582         3.32170
           16583         3.31505
           16584         3.34338
           16585         3.37602
           16586         3.39882
           16587         3.36566
           16588         3.38220
           16589         3.36595
           16590         3.34408
           16591         3.37200
           16592         3.31550
           16593         3.27831
           16594         3.30874
           16595         3.34720
           16596         3.30874
           16597         3.45543
           16598         2.65677
           16599         2.66484
           16600         2.65813
           16601         2.66922
           16602         2.66062
           16603         2.66738
           16604         2.64821
           16605         2.64712
           16606         2.64943
           16607         2.65743
           16608         2.65569
           16609         2.65163
           16610         2.64872
           16611         2.64727
           16612         2.65326
           16613         2.65749
           16614         2.37183
           16615         2.36093
           16616         2.33457
           16617         2.35647
           16618         2.36740
           16619         2.39287
           16620         2.64319
           16621         2.64070
           16622         2.64498
           16623         2.64077
           16624     328.557E-03
           16625     369.858E-03
           16626     406.734E-03
           16627     363.533E-03
           16628     321.392E-03
           16629     285.398E-03
           16630     345.711E-03
           16631     304.734E-03
           16632     262.814E-03
           16633     419.614E-03
           16634     499.610E-03
           16635     445.013E-03
           16636     487.335E-03
           16637     461.911E-03
           16638     453.636E-03
           16639     374.186E-03
           16640     379.562E-03
           16641     369.069E-03
           16642     448.483E-03
           16643     310.193E-03
           16644     306.343E-03
           16645     247.927E-03
           16646     307.365E-03
           16647         4.90994
           16648         4.82343
           16649         4.94242
           16650         4.95099
           16651         5.04945
           16652         4.92071
           16653         4.90826
           16654         4.78535
           16655         4.78422
           16656         4.90985
           16657         4.78448
           16658         4.89483
           16659         5.01193
           16660         4.93068
           16661         5.10579
           16662         5.08686
           16663         5.07890
           16664         5.09735
           16665         5.17126
           16666         5.09800
           16667         5.24417
           16668         5.16955
           16669         5.23244
           16670         5.16093
           16671         4.83795
           16672         4.96566
           16673         4.84465
           16674         5.32717
           16675         5.32570
           16676         5.26412
           16677         5.26196
           16678         5.25981
           16679         5.31993
           16680         5.24981
           16681         5.29631
           16682         5.31325
           16683         5.36746
           16684         5.32323
           16685         5.30594
           16686         5.22230
           16687         5.17530
           16688         5.22323
           16689         5.21954
           16690         5.25964
           16691         5.21379
           16692         5.36967
           16693         5.38016
           16694         13.0128
           16695         11.9108
           16696         9.66074
           16697         8.67107
           16698         9.86903
           16699         11.5875
           16700         2.48496
           16701         2.48197
           16702         2.49548
           16703         2.50031
           16704         2.50378
           16705         2.48976
           16706         2.48769
           16707         2.47381
           16708         2.49245
           16709         2.50157
           16710         2.48869
           16711         2.48636
           16712         2.48740
           16713         2.50039
           16714         2.50280
           16715         2.47477
           16716         2.47177
           16717         2.04289
           16718         1.99254
           16719         2.01846
           16720         2.01430
           16721         2.06363
           16722         2.03878
           16723         1.99871
           16724         2.05008
           16725         2.04287
           16726         2.05999
           16727         2.00941
           16728         2.04487
           16729         2.07344
           16730         2.09649
           16731         2.07975
           16732         2.02688
           16733         5.58470
           16734         5.59346
           16735         5.61274
           16736         5.51866
           16737         5.50974
           16738         5.49191
           16739         5.12556
           16740         4.63770
           16741         4.97152
           16742         4.77126
           16743         5.26515
           16744         4.93497
           16745         5.94374
           16746         6.63111
           16747         6.18477
           16748         6.46130
           16749         5.76288
           16750         6.24899
           16751         6.88632
           16752         6.18093
           16753         6.39954
           16754         5.67577
           16755         6.35076
           16756         2.58417
           16757         2.55991
           16758         2.59940
           16759         2.63035
           16760         2.65538
           16761         2.61500
           16762         2.52854
           16763         2.57059
           16764         2.55836
           16765         2.62327
           16766         2.58131
           16767         2.59310
           16768         2.47302
           16769         2.43513
           16770         2.47863
           16771         2.48976
           16772         2.52895
           16773         2.48537
           16774         2.54434
           16775         2.58656
           16776         2.57392
           16777         2.53221
           16778         2.55895
           16779         2.55851
           16780         2.51679
           16781         2.53375
           16782         2.42958
           16783         2.47335
           16784         2.43635
           16785         2.25636
           16786         2.24482
           16787         2.30762
           16788         2.24521
           16789         2.25790
           16790         2.19321
           16791         2.26199
           16792         2.21431
           16793         2.14881
           16794         2.21115
           16795         2.25807
           16796         2.32612
           16797         2.42471
           16798         2.46045
           16799         2.43413
           16800         2.39743
           16801         2.36133
           16802         2.38777
           16803         2.43218
           16804         2.49373
           16805         2.37882
           16806         2.44752
           16807         2.49517
           16808         2.44174
           16809         2.38864
           16810         2.97790
           16811         2.66307
           16812         2.70282
           16813         2.62988
           16814         2.93595
           16815         2.89885
           16816         3.88086
           16817         3.93869
           16818         4.01382
           16819         3.86831
           16820         3.81154
           16821         3.73917
           16822         3.89208
           16823         3.98091
           16824         3.91815
           16825         4.04000
           16826         3.95015
           16827         3.77764
           16828         3.80694
           16829         3.85746
           16830         3.76775
           16831         3.74149
           16832         3.69060
           16833         3.80184
           16834         3.66356
           16835         3.75161
           16836         5.82192
           16837         5.80675
           16838         5.79609
           16839         6.14826
           16840         6.16854
           16841         6.19158
           16842         3.91894
           16843         3.94778
           16844         2.44864
           16845         2.44129
           16846         2.46095
           16847         2.44847
           16848         2.45592
           16849         2.43631
           16850         2.44368
           16851         2.46288
           16852         2.44837
           16853         2.45227
           16854         2.43292
           16855         2.45188
           16856         2.46575
           16857         2.47248
           16858         2.47700
           16859         2.48827
           16860         2.47619
           16861         2.47141
           16862         2.49798
           16863         2.49051
           16864         2.48135
           16865         2.49325
           16866         2.49869
           16867         2.48291
           16868         6.23468
           16869         6.21399
           16870         6.33303
           16871         6.40696
           16872         6.42911
           16873         6.30631
           16874         6.47776
           16875         6.56015
           16876         6.45597
           16877         6.41037
           16878         6.33284
           16879         6.28266
           16880         6.19382
           16881         6.26430
           16882         6.32013
           16883         2.51237
           16884         2.49937
           16885         2.47902
           16886         2.48208
           16887         2.49539
           16888         2.51491
           16889         6.55100
           16890         6.52969
           16891         6.48082
           16892         6.35261
           16893         6.39503
           16894         2.65906
           16895         2.65928
           16896         2.65622
           16897         2.65415
           16898         2.65415
           16899         2.65741
           16900         1.16618
           16901         1.11643
           16902         1.06865
           16903         1.16535
           16904         1.21717
           16905         1.26510
           16906         1.03064
           16907     982.508E-03
           16908         1.07140
           16909         1.07762
           16910         1.12743
           16911         1.03728
           16912         2.64378
           16913         2.64145
           16914         2.64578
           16915         2.64501
           16916         2.64722
           16917         2.64284
           16918         2.64639
           16919         2.64686
           16920         2.64858
           16921         2.64422
           16922         2.64202
           16923         2.65035
           16924         2.65137
           16925         2.65340
           16926         2.64979
           16927         2.64894
           16928         2.65070
           16929         2.64757
           16930         2.64925
           16931         2.63964
           16932         2.64060
           16933         2.63660
           16934         2.63994
           16935         2.64313
           16936         2.48469
           16937         2.47737
           16938         2.47265
           16939         2.49048
           16940         2.49789
           16941         2.50246
           16942         2.46079
           16943         2.46750
           16944         2.48748
           16945         2.50633
           16946         2.49944
           16947         2.47919
           16948         2.48806
           16949         2.47916
           16950         2.49526
           16951         2.49723
           16952         2.45909
           16953         2.45928
           16954         2.45003
           16955         2.46226
           16956         2.43994
           16957         2.43780
           16958         2.41859
           16959         2.45605
           16960         2.41652
           16961         2.76140
           16962         2.76119
           16963         2.78799
           16964         2.77930
           16965         2.77913
           16966         2.75246
           16967         2.77341
           16968         2.78842
           16969         2.80183
           16970         2.82675
           16971         2.81278
           16972         2.79800
           16973         2.81698
           16974         2.84275
           16975         2.83069
           16976         2.74285
           16977         2.75486
           16978         2.74155
           16979         2.77190
           16980         2.75971
           16981         2.74565
           16982         2.76288
           16983         2.48633
           16984         2.45989
           16985         2.47880
           16986         2.47138
           16987         2.49708
           16988         2.47848
           16989         2.51043
           16990         2.53420
           16991         2.52730
           16992         2.51587
           16993         2.49281
           16994         2.49879
           16995         2.49171
           16996         2.50850
           16997         2.52657
           16998         2.53315
           16999         2.49008
           17000         2.49603
           17001         2.51004
           17002         2.50437
           17003         2.50313
           17004         5.18013
           17005         5.19934
           17006         5.26603
           17007         5.14553
           17008         5.13611
           17009         2.53157
           17010         2.53095
           17011         2.54949
           17012         3.28524
           17013         3.32521
           17014         3.30784
           17015         3.28441
           17016         3.24579
           17017         3.26290
           17018         3.21690
           17019         3.19728
           17020         3.24827
           17021         3.28443
           17022         3.30448
           17023         3.25215
           17024         3.39862
           17025         3.35739
           17026         3.41554
           17027         3.32409
           17028         3.36493
           17029         3.30364
           17030         3.36130
           17031         3.39534
           17032         3.37497
           17033         3.32196
           17034         5.27920
           17035         5.31760
           17036         5.31174
           17037         5.38597
           17038         5.34865
           17039         5.35884
           17040         5.33820
           17041         5.36654
           17042         5.40607
           17043         5.42575
           17044         5.40595
           17045         5.44564
           17046         5.47886
           17047         5.45959
           17048         5.49891
           17049         5.41443
           17050         5.47181
           17051         5.43939
           17052         5.38975
           17053         5.36515
           17054         5.49280
           17055         5.51683
           17056         3.03898
           17057         3.02689
           17058         2.95362
           17059         3.05330
           17060         3.06556
           17061         3.14262
           17062         3.02810
           17063         3.05181
           17064         2.98904
           17065         3.09584
           17066         3.07036
           17067         3.13724
           17068         2.90777
           17069         2.89698
           17070         2.86113
           17071         2.87149
           17072         2.81765
           17073         2.93793
           17074         2.84661
           17075         2.80080
           17076         2.88956
           17077         2.86518
           17078         2.85166
           17079         2.94397
           17080         2.87134
           17081         3.06309
           17082         2.96804
           17083         3.01777
           17084         1.53771
           17085         1.53273
           17086         1.56461
           17087         1.50881
           17088         1.51539
           17089         1.48182
           17090         1.55848
           17091         1.56990
           17092         1.57924
           17093         1.53940
           17094         1.52766
           17095         1.51869
           17096         1.60457
           17097         1.61149
           17098         1.64574
           17099         1.63954
           17100         1.67368
           17101         1.63492
           17102         1.67660
           17103         1.60802
           17104         1.60256
           17105         1.61537
           17106         1.59480
           17107         4.71331
           17108         4.74712
           17109         4.45172
           17110         4.31637
           17111         4.27636
           17112         4.56366
           17113         4.36536
           17114         4.28634
           17115         4.34111
           17116         4.12640
           17117         4.19734
           17118         4.15299
           17119         4.32903
           17120         4.25481
           17121         4.57681
           17122         4.66944
           17123         4.58522
           17124         4.22544
           17125         4.07999
           17126         4.71218
           17127         4.98542
           17128         1.11782
           17129         1.05798
           17130         1.07626
           17131         1.10176
           17132         1.16270
           17133         1.14348
           17134         1.14691
           17135         1.21277
           17136         1.16690
           17137         1.12477
           17138         1.05742
           17139         1.10243
           17140         1.18617
           17141         1.20216
           17142         1.15396
           17143         1.13742
           17144         1.11992
           17145         1.16822
           17146         1.09489
           17147         1.07684
           17148         1.06216
           17149         1.02854
           17150     969.727E-03
           17151         1.04708
           17152         1.10531
           17153     997.298E-03
           17154     935.920E-03
           17155     830.114E-03
           17156     973.919E-03
           17157         1.10571
           17158     635.768E-03
           17159     575.128E-03
           17160     422.950E-03
           17161     482.580E-03
           17162     514.957E-03
           17163     644.892E-03
           17164     769.271E-03
           17165     727.776E-03
           17166     706.968E-03
           17167     581.052E-03
           17168     626.474E-03
           17169     839.682E-03
           17170     797.491E-03
           17171     929.696E-03
           17172         7.55226
           17173         7.68502
           17174         7.41360
           17175         7.52425
           17176         7.39288
           17177         7.66406
           17178         7.16281
           17179         7.16492
           17180         7.28420
           17181         7.39402
           17182         7.27239
           17183         7.00252
           17184         7.11902
           17185         7.12040
           17186         7.50247
           17187         7.37348
           17188         7.22458
           17189         7.13736
           17190         7.26570
           17191         2.23784
           17192         2.16859
           17193         2.24481
           17194         2.22989
           17195         2.30198
           17196         2.22271
           17197         7.20663
           17198         6.97617
           17199         2.40245
           17200         2.42063
           17201         2.41633
           17202         2.43611
           17203         2.41829
           17204         2.42176
           17205         2.40471
           17206         2.38403
           17207         2.37652
           17208         2.35759
           17209         2.37714
           17210         2.38400
           17211         2.42436
           17212         2.40513
           17213         2.41511
           17214         2.40985
           17215         2.42859
           17216         2.38912
           17217         2.38280
           17218         2.36236
           17219         2.41545
           17220         2.39357
           17221         1.80999
           17222         1.77084
           17223         1.78467
           17224         1.72284
           17225         1.76455
           17226         1.74797
           17227         1.82488
           17228         1.87457
           17229         1.87268
           17230         1.90809
           17231         1.86120
           17232         1.85987
           17233         1.75344
           17234         1.69241
           17235         1.71019
           17236         2.73374
           17237         2.74127
           17238         2.76905
           17239         2.74610
           17240         2.73842
           17241         2.71131
           17242         1.80486
           17243         1.81068
           17244         1.78725
           17245         1.73774
           17246         1.73027
           17247         1.75478
           17248         1.76706
           17249         1.80509
           17250         1.78493
           17251         1.80816
           17252         1.76410
           17253         9.82005
           17254         10.2017
           17255         9.71616
           17256         9.58970
           17257         9.22794
           17258         9.74847
           17259         8.93023
           17260         8.57269
           17261         8.93900
           17262         8.89361
           17263         9.30910
           17264         8.86918
           17265         9.64845
           17266         9.55283
           17267         8.99501
           17268         9.11449
           17269         9.43869
           17270         10.1729
           17271         9.62279
           17272         9.29810
           17273         9.77373
           17274         8.73065
           17275         8.80197
           17276         6.15884
           17277         6.05646
           17278         6.15488
           17279         6.13073
           17280         6.23304
           17281         6.13119
           17282         6.15475
           17283         5.97745
           17284         6.07913
           17285         6.01688
           17286         6.19858
           17287         6.09199
           17288         5.98041
           17289         6.05269
           17290         6.31967
           17291         6.29110
           17292         6.21239
           17293         6.26544
           17294         6.32829
           17295         6.21959
           17296         9.39776
           17297         9.64740
           17298         9.99272
           17299         10.5444
           17300         10.2661
           17301         9.90742
           17302         8.88619
           17303         9.15529
           17304         9.34830
           17305         9.24497
           17306         8.91429
           17307         8.72768
           17308         10.4714
           17309         11.0411
           17310         10.4965
           17311         9.96506
           17312         10.7249
           17313         9.35810
           17314         9.88465
           17315         9.55565
           17316         9.92345
           17317         9.71142
           17318         10.4300
           17319         6.11442
           17320         6.24645
           17321         6.10137
           17322         6.36004
           17323         6.22193
           17324         6.36985
           17325         5.93851
           17326         5.80493
           17327         5.84716
           17328         5.70005
           17329         5.82535
           17330         5.78490
           17331         5.90345
           17332         5.94657
           17333         6.07179
           17334         6.05742
           17335         6.01134
           17336         5.87702
           17337         5.79043
           17338         5.91845
           17339         5.95381
           17340         5.87212
           17341         5.72492
           17342         5.72877
           17343         5.74034
           17344         5.71674
           17345         5.71452
           17346         5.70385
           17347         5.70416
           17348         5.72296
           17349         5.71462
           17350         5.74717
           17351         5.76252
           17352         5.74735
           17353         5.74169
           17354         5.72848
           17355         5.74321
           17356         5.75375
           17357         5.73838
           17358         5.72443
           17359         5.72847
           17360         5.35045
           17361         4.92347
           17362         5.36925
           17363         4.91082
           17364         5.32960
           17365         4.89723
           17366         7.01083
           17367         5.86989
           17368         7.54370
           17369         5.38945
           17370         4.95503
           17371         5.37208
           17372         5.75461
           17373         5.44806
           17374         5.68680
           17375         5.58022
           17376         5.25658
           17377         5.30269
           17378     594.720E-03
           17379     538.959E-03
           17380     493.518E-03
           17381     438.375E-03
           17382     491.359E-03
           17383     538.471E-03
           17384         7.04198
           17385         5.72248
           17386         2.74342
           17387         2.74496
           17388         2.78565
           17389         2.76022
           17390         2.71902
           17391         2.82418
           17392         2.88416
           17393         2.84432
           17394         2.86251
           17395         2.80296
           17396         2.84269
           17397         2.71448
           17398         2.67817
           17399         2.68423
           17400         2.79247
           17401         2.69670
           17402         2.69694
           17403         2.68772
           17404         2.69469
           17405         2.69438
           17406         2.70400
           17407         2.67895
           17408         2.67796
           17409         2.68678
           17410         2.68131
           17411         2.68217
           17412         2.67458
           17413         2.68929
           17414         2.67807
           17415         2.67682
           17416         2.67671
           17417         2.68951
           17418         2.69892
           17419         2.67587
           17420         2.82418
           17421         2.81649
           17422         2.83647
           17423         2.81829
           17424         2.82559
           17425         2.80703
           17426         2.85514
           17427         2.87281
           17428         2.86157
           17429         2.84229
           17430         2.83618
           17431         2.93213
           17432         2.88759
           17433         2.92237
           17434         2.88612
           17435         2.93021
           17436         2.89435
           17437         2.86928
           17438         2.86775
           17439     109.414E-03
           17440     83.0375E-03
           17441     54.9144E-03
           17442     49.2091E-03
           17443     76.4941E-03
           17444     105.832E-03
           17445         2.85987
           17446         2.86122
           17447         4.90391
           17448         4.91799
           17449         4.78580
           17450         4.81090
           17451         4.79725
           17452         4.92952
           17453         4.88765
           17454         4.99729
           17455         4.87587
           17456         4.71861
           17457         4.69362
           17458         4.73744
           17459         4.76222
           17460         4.65893
           17461         4.88317
           17462         4.92391
           17463         4.86136
           17464         4.82605
           17465         4.78674
           17466         4.84779
           17467         4.92832
           17468         4.85222
           17469         4.72644
           17470         4.68261
           17471     818.930E-03
           17472     806.123E-03
           17473     804.057E-03
           17474     754.323E-03
           17475     946.086E-03
           17476     804.690E-03
           17477     815.564E-03
           17478     969.848E-03
           17479         1.07050
           17480     839.208E-03
           17481         1.00160
           17482         1.00649
           17483     919.256E-03
           17484     832.865E-03
           17485     799.815E-03
           17486     840.148E-03
           17487     834.516E-03
           17488         7.13550
           17489         6.47318
           17490         6.37188
           17491         6.17172
           17492         6.82846
           17493         6.90949
           17494         6.80526
           17495         7.34057
           17496         7.09516
           17497         7.78478
           17498         7.24990
           17499         7.47101
           17500         6.24896
           17501         6.73699
           17502         7.26434
           17503         6.74992
           17504         6.16992
           17505         5.82375
           17506         5.83863
           17507         5.75876
           17508         6.15947
           17509         5.82217
           17510         6.46038
           17511         6.37498
           17512         5.75167
           17513         6.28106
           17514         5.81382
           17515         6.39415
           17516         5.98865
           17517         6.48655
           17518         5.87763
           17519         2.32454
           17520         2.34646
           17521         2.31323
           17522         7.33819
           17523         7.75736
           17524         7.22331
           17525         7.95375
           17526         7.71181
           17527         8.04772
           17528         6.68751
           17529         7.01943
           17530         7.18453
           17531         6.49748
           17532         5.86014
           17533         5.36450
           17534         5.92880
           17535         5.51777
           17536         5.49356
           17537         6.86113
           17538         7.14535
           17539         6.69622
           17540         6.24632
           17541         7.56227
           17542         8.38593
           17543         8.02687
           17544         8.17685
           17545         5.76038
           17546         5.75077
           17547         5.78137
           17548         5.75719
           17549         5.74759
           17550         5.74311
           17551         5.75357
           17552         5.73543
           17553         5.77254
           17554         5.05162
           17555         5.15538
           17556         5.10667
           17557         5.09802
           17558         4.99674
           17559         5.04625
           17560         4.92000
           17561         4.97761
           17562         5.03826
           17563         5.06453
           17564         4.97850
           17565         5.20508
           17566         5.09761
           17567         5.07316
           17568         5.07959
           17569         5.16172
           17570         5.14564
           17571         5.11259
           17572     127.015E-03
           17573     159.854E-03
           17574     119.116E-03
           17575     138.811E-03
           17576     107.007E-03
           17577     146.926E-03
           17578     180.855E-03
           17579     158.759E-03
           17580     88.9199E-03
           17581     94.4044E-03
           17582     115.092E-03
           17583     186.703E-03
           17584     87.1886E-03
           17585     150.359E-03
           17586     117.781E-03
           17587     116.301E-03
           17588     158.690E-03
           17589     99.2273E-03
           17590     128.972E-03
           17591     138.289E-03
           17592     109.869E-03
           17593     99.0404E-03
           17594     83.2103E-03
           17595     72.7539E-03
           17596     83.5077E-03
           17597     81.6137E-03
           17598     60.9214E-03
           17599     67.2210E-03
           17600     48.3957E-03
           17601     67.9598E-03
           17602     61.1985E-03
           17603     111.890E-03
           17604     99.3974E-03
           17605         5.37564
           17606         5.41073
           17607         5.38472
           17608         5.39402
           17609         5.35779
           17610         5.38558
           17611         5.28424
           17612         5.28801
           17613         5.32782
           17614         5.35888
           17615         5.39173
           17616         5.38225
           17617         5.34673
           17618         5.30298
           17619         5.32235
           17620         5.29861
           17621         5.29239
           17622         5.24314
           17623         5.30456
           17624         5.31242
           17625         5.29991
           17626         5.25920
           17627         18.9681
           17628         18.2494
           17629         14.2714
           17630         12.5117
           17631         13.0252
           17632         15.8729
           17633         2.82483
           17634         2.78525
           17635         2.80964
           17636         2.79195
           17637         2.83227
           17638         2.80664
           17639         2.82176
           17640         2.84097
           17641         2.84898
           17642         2.86059
           17643         2.84016
           17644         2.82846
           17645         2.80234
           17646         2.83437
           17647         2.86227
           17648         2.83776
           17649         2.78168
           17650         2.82094
           17651         2.81212
           17652         2.84223
           17653         2.80095
           17654         2.89782
           17655         2.93353
           17656         2.88482
           17657         2.89827
           17658         2.86414
           17659         2.91147
           17660         2.83942
           17661         2.83202
           17662         2.79866
           17663     896.427E-03
           17664     957.982E-03
           17665     840.041E-03
           17666     876.106E-03
           17667     813.754E-03
           17668     937.516E-03
           17669     776.098E-03
           17670     846.403E-03
           17671     849.342E-03
           17672     973.632E-03
           17673     903.172E-03
           17674     902.500E-03
           17675         2.35101
           17676         2.36455
           17677         2.37504
           17678         2.33227
           17679     768.820E-03
           17680     759.992E-03
           17681     910.422E-03
           17682         3.66580
           17683         3.77405
           17684         3.62420
           17685         3.58854
           17686         3.47986
           17687         3.63053
           17688     165.843E-03
           17689     121.164E-03
           17690     154.355E-03
           17691     92.4607E-03
           17692     135.679E-03
           17693     103.240E-03
           17694         3.68103
           17695         3.48546
           17696         3.63757
           17697         3.59390
           17698         3.79060
           17699         3.63951
           17700         3.94386
           17701         3.98588
           17702         4.07607
           17703         3.92224
           17704         3.87972
           17705         3.68065
           17706         3.73531
           17707         3.88589
           17708         3.84493
           17709         3.91116
           17710         3.95236
           17711         3.82406
           17712         3.96022
           17713         3.78254
           17714         3.86477
           17715         4.00352
           17716         3.82305
           17717         3.77049
           17718         6.01227
           17719         5.96555
           17720         6.17944
           17721         6.14331
           17722         6.19684
           17723         5.97790
           17724         6.20363
           17725         6.27547
           17726         6.31050
           17727         6.15052
           17728         6.07959
           17729         6.03969
           17730     601.070E-03
           17731     736.288E-03
           17732     583.632E-03
           17733     628.690E-03
           17734     493.068E-03
           17735     646.631E-03
           17736     324.700E-03
           17737     253.418E-03
           17738     375.755E-03
           17739     252.337E-03
           17740     324.852E-03
           17741     219.210E-03
           17742     650.075E-03
           17743     496.402E-03
           17744     540.404E-03
           17745     488.758E-03
           17746     641.972E-03
           17747     377.762E-03
           17748     367.438E-03
           17749         3.33129
           17750         3.23889
           17751         3.27975
           17752         3.26856
           17753         3.36264
           17754         3.31962
           17755         3.43245
           17756         3.44503
           17757         3.40156
           17758         2.60686
           17759         2.60438
           17760         2.60595
           17761         2.60617
           17762         2.60796
           17763         2.60700
           17764         2.60347
           17765         2.60075
           17766         2.60072
           17767         2.60181
           17768         2.60507
           17769         2.60632
           17770         2.60949
           17771         2.60774
           17772         2.60937
           17773         2.60638
           17774         2.60751
           17775         2.60027
           17776         2.60102
           17777         2.60473
           17778         2.60617
           17779         2.60510
           17780         2.60103
           17781         2.61032
           17782         2.60745
           17783         2.60972
           17784         2.60737
           17785         2.60720
           17786         2.60818
           17787         3.53510
           17788         3.62510
           17789         3.71714
           17790         3.82344
           17791         3.73533
           17792         3.64237
           17793         3.57838
           17794         3.42985
           17795         3.58597
           17796         3.67990
           17797         3.52585
           17798     165.980E-03
           17799     132.385E-03
           17800     222.157E-03
           17801     193.280E-03
           17802         3.75389
           17803         3.73045
           17804         3.60519
           17805         3.71162
           17806         3.85724
           17807         3.41640
           17808         3.52087
           17809         3.49724
           17810         3.59979
           17811         3.49655
           17812         3.50225
           17813         3.42377
           17814         3.50964
           17815         3.33178
           17816         3.32385
           17817         3.32211
           17818     249.654E-03
           17819     296.097E-03
           17820     293.866E-03
           17821     237.937E-03
           17822     193.994E-03
           17823     195.433E-03
           17824     167.014E-03
           17825     266.635E-03
           17826     219.851E-03
           17827         2.52294
           17828         2.51290
           17829         2.53013
           17830         2.51467
           17831         2.52542
           17832         2.50749
           17833         2.54592
           17834         2.56000
           17835         2.55291
           17836         2.55700
           17837         2.54234
           17838         2.54951
           17839         2.53046
           17840         2.52807
           17841         2.53407
           17842         2.52447
           17843         2.52511
           17844         2.53892
           17845         2.53327
           17846         2.53341
           17847         2.51893
           17848         2.53321
           17849         2.54681
           17850         2.54370
           17851         2.53443
           17852         7.27653
           17853         7.38405
           17854         7.41045
           17855         7.63378
           17856         7.52259
           17857         7.49456
           17858         7.68275
           17859         7.65304
           17860         7.74054
           17861         7.51427
           17862         7.54518
           17863         7.46134
           17864         7.76163
           17865         7.83713
           17866         7.84532
           17867         7.60874
           17868         7.53200
           17869         7.98270
           17870         7.99109
           17871         7.84950
           17872         8.07898
           17873         7.84324
           17874         7.46454
           17875         7.68650
           17876         7.45312
           17877         7.53438
           17878         7.31663
           17879         7.31535
           17880         7.44777
           17881         3.00075
           17882         3.04390
           17883         2.94914
           17884         3.04568
           17885         3.00229
           17886         3.09966
           17887         3.07435
           17888         2.97572
           17889         3.02259
           17890         2.95286
           17891         3.04984
           17892         2.92489
           17893         2.99373
           17894         3.02043
           17895         2.86595
           17896         2.88282
           17897         2.84078
           17898         2.82438
           17899         2.78440
           17900         2.97721
           17901         2.95956
           17902         2.90919
           17903         2.85891
           17904         2.87543
           17905         2.91766
           17906         2.87726
           17907         2.81609
           17908         2.84551
           17909         2.88550
           17910         3.00205
           17911         3.05729
           17912         4.39574
           17913         4.32003
           17914         4.42522
           17915         4.36940
           17916         4.44532
           17917         4.34404
           17918         4.48538
           17919         4.38629
           17920         4.43666
           17921         4.54984
           17922         4.55942
           17923         4.45835
           17924         4.61228
           17925         4.68529
           17926         4.57411
           17927         4.69113
           17928         4.62219
           17929         4.72635
           17930         4.69317
           17931         4.57165
           17932         4.55991
           17933         4.61301
           17934         4.68120
           17935         5.74878
           17936         5.84824
           17937         5.74425
           17938         5.74941
           17939         5.65272
           17940         5.75349
           17941         5.67290
           17942         5.77336
           17943         5.76314
           17944         5.66432
           17945         5.69022
           17946         5.62780
           17947         5.52313
           17948         5.54387
           17949         5.45928
           17950         5.55559
           17951         5.53406
           17952         5.56923
           17953         5.53492
           17954         5.63967
           17955         5.56034
           17956         3.39238
           17957         3.39215
           17958         3.46805
           17959         2.62315
           17960         2.60314
           17961         2.60921
           17962         2.59315
           17963         2.61311
           17964         2.60726
           17965         2.62700
           17966         2.60715
           17967         2.60932
           17968         2.62858
           17969         2.62705
           17970         2.16452
           17971         2.17929
           17972         2.13994
           17973         2.20245
           17974         2.18928
           17975         2.22720
           17976         2.16302
           17977         2.15780
           17978         2.12458
           17979         2.11710
           17980         2.11785
           17981         2.15188
           17982         2.12816
           17983         2.11195
           17984         2.07811
           17985         2.09549
           17986         2.10683
           17987         2.15508
           17988         2.66549
           17989         2.66004
           17990         2.66097
           17991         2.65773
           17992         2.66286
           17993         2.66161
           17994         2.66855
           17995         2.66618
           17996         2.66468
           17997         2.66667
           17998         2.66869
           17999         2.67045
           18000     29.9094E-03
           18001     14.4386E-03
           18002     16.6113E-03
           18003     49.0805E-03
           18004     74.3209E-03
           18005     62.4716E-03
           18006         2.65911
           18007         2.66425
           18008         2.66106
           18009         2.65810
           18010         2.66282
           18011         2.66081
           18012         2.67036
           18013         2.66808
           18014         2.67208
           18015         2.67011
           18016         2.67244
           18017         2.67180
           18018         2.67209
           18019         2.66859
           18020         2.67009
           18021     211.854E-03
           18022     232.247E-03
           18023     196.020E-03
           18024     270.626E-03
           18025     250.651E-03
           18026     289.418E-03
           18027     153.453E-03
           18028     219.326E-03
           18029     241.205E-03
           18030     271.324E-03
           18031     202.977E-03
           18032     185.792E-03
           18033     119.677E-03
           18034     90.5449E-03
           18035     146.742E-03
           18036     93.8550E-03
           18037     123.856E-03
           18038     68.5202E-03
           18039     526.839E-03
           18040     556.940E-03
           18041     647.263E-03
           18042     603.434E-03
           18043     574.292E-03
           18044     484.731E-03
           18045     124.398E-03
           18046     172.161E-03
           18047     318.334E-03
           18048     295.196E-03
           18049     220.554E-03
           18050     286.061E-03
           18051         1.88725
           18052         1.80174
           18053         2.01361
           18054         1.83648
           18055         1.92320
           18056         1.71346
           18057         2.17019
           18058         2.33627
           18059         2.26382
           18060         2.24170
           18061         2.07676
           18062         2.14822
           18063         2.35210
           18064         2.11445
           18065         2.33676
           18066         2.12372
           18067         2.36171
           18068         2.13911
           18069         2.28773
           18070         2.50167
           18071         1.87257
           18072         2.04748
           18073         1.83660
           18074         1.93860
           18075         2.06451
           18076     135.795E-03
           18077     179.430E-03
           18078     201.780E-03
           18079     277.648E-03
           18080     230.049E-03
           18081     207.665E-03
           18082         1.63194
           18083         1.52885
           18084         1.59615
           18085         1.54889
           18086         1.65279
           18087         1.58483
           18088         1.50181
           18089         1.60504
           18090         1.55860
           18091         1.66265
           18092         1.55968
           18093         1.59562
           18094         1.73608
           18095         1.83263
           18096         1.79089
           18097         1.75633
           18098         1.70064
           18099         2.81591
           18100         2.81770
           18101         2.83937
           18102         2.83906
           18103         2.83780
           18104         2.81624
           18105         2.84974
           18106         2.88282
           18107         2.86895
           18108         2.89621
           18109         2.86124
           18110         2.87436
           18111         2.86270
           18112         2.86102
           18113         2.88271
           18114         2.85752
           18115         2.85763
           18116         1.69169
           18117         1.93376
           18118         1.81061
           18119         1.88391
           18120         1.63615
           18121         1.76184
           18122         1.65723
           18123         1.90612
           18124         1.96965
           18125         1.73043
           18126         1.81833
           18127         1.43362
           18128         1.52020
           18129         1.47597
           18130         1.38814
           18131         1.24093
           18132         6.39283
           18133         6.49456
           18134         6.45628
           18135         6.40413
           18136         6.30454
           18137         6.34317
           18138         6.49759
           18139         6.45888
           18140         6.56802
           18141         6.25961
           18142         6.24121
           18143         6.33356
           18144         6.27691
           18145         6.29366
           18146         6.20492
           18147         6.21693
           18148         6.24343
           18149         6.33674
           18150         6.28753
           18151         2.85999
           18152         2.89610
           18153         2.89066
           18154         2.90393
           18155         2.86709
           18156         2.87216
           18157         2.82258
           18158         2.81098
           18159         2.84239
           18160         2.81854
           18161         2.83020
           18162         2.80092
           18163         2.45561
           18164         2.44158
           18165         2.45930
           18166         2.45632
           18167         2.47053
           18168         2.45249
           18169         2.49217
           18170         2.47781
           18171         2.47531
           18172         2.48465
           18173         2.45474
           18174         2.47274
           18175         2.46087
           18176         2.46157
           18177         2.44392
           18178         2.49353
           18179         2.48819
           18180         2.47758
           18181         10.0383
           18182         10.0354
           18183         9.66628
           18184         9.24410
           18185         9.20331
           18186         9.57620
           18187     23.8124E-03
           18188     16.4124E-03
           18189     27.0323E-03
           18190     51.6667E-03
           18191     64.4021E-03
           18192     61.6890E-03
           18193         8.33066
           18194         8.10010
           18195         8.58403
           18196         8.25338
           18197         8.51057
           18198         8.03390
           18199         2.59623
           18200         2.61575
           18201         2.59731
           18202         2.61226
           18203         2.59553
           18204         2.57981
           18205         2.58587
           18206         2.60382
           18207         2.61907
           18208         2.64804
           18209         2.63263
           18210         2.61350
           18211         2.62883
           18212         2.64860
           18213         2.32763
           18214         2.31545
           18215         2.32159
           18216         2.30298
           18217         2.30273
           18218         2.27574
           18219         2.28944
           18220         2.28928
           18221         2.31455
           18222         2.33892
           18223         2.33679
           18224     328.592E-03
           18225     385.010E-03
           18226     346.156E-03
           18227     348.153E-03
           18228     294.125E-03
           18229     330.126E-03
           18230     369.639E-03
           18231     163.068E-03
           18232     228.890E-03
           18233     39.6112E-03
           18234     222.239E-03
           18235     161.113E-03
           18236     353.083E-03
           18237     172.842E-03
           18238     175.882E-03
           18239     224.900E-03
           18240     216.549E-03
           18241     270.786E-03
           18242     303.009E-03
           18243     173.525E-03
           18244     368.200E-03
           18245         4.65790
           18246         4.72019
           18247         4.68169
           18248         4.63235
           18249         4.57145
           18250         4.60913
           18251         4.79290
           18252         4.75391
           18253         4.81737
           18254         4.46905
           18255         4.44653
           18256         4.50185
           18257         4.41720
           18258         4.43975
           18259         4.38514
           18260         4.80313
           18261         4.73937
           18262         4.79124
           18263         4.67025
           18264         4.73331
           18265         4.87659
           18266         4.82823
           18267         4.69220
           18268         4.81375
           18269         4.68486
           18270         4.80592
           18271         4.75851
           18272         4.17634
           18273         4.04022
           18274         4.07405
           18275         3.96867
           18276         3.72131
           18277         3.99768
           18278         4.24193
           18279         3.99370
           18280         4.28473
           18281         4.24830
           18282         4.05604
           18283         4.16373
           18284         4.22050
           18285         4.25715
           18286         4.12001
           18287         4.02987
           18288         4.27298
           18289         4.29874
           18290         2.20475
           18291         2.23014
           18292         2.19142
           18293         2.21393
           18294         2.18803
           18295         2.22639
           18296         2.19460
           18297         2.15628
           18298         2.18446
           18299         5.91535
           18300         6.05207
           18301         6.20288
           18302         6.15428
           18303         6.01132
           18304         5.86213
           18305         6.02099
           18306         5.87794
           18307         5.74916
           18308         5.89792
           18309         5.85342
           18310         6.23965
           18311         6.36504
           18312         6.18912
           18313         6.18471
           18314         6.06568
           18315         6.23927
           18316         5.85922
           18317         5.71117
           18318         5.80720
           18319         5.23724
           18320         5.20027
           18321         5.15606
           18322         5.24757
           18323         5.28231
           18324         5.32495
           18325         2.65061
           18326         2.61824
           18327         2.66412
           18328         2.65492
           18329         2.68656
           18330         2.64005
           18331         2.67645
           18332         2.70806
           18333         2.69706
           18334         2.73643
           18335         2.72709
           18336         2.71554
           18337         3.24183
           18338         3.20868
           18339         3.24062
           18340         3.24156
           18341         3.27622
           18342         3.24279
           18343         3.21611
           18344         3.22794
           18345         3.28989
           18346         3.28671
           18347         3.27407
           18348         3.21306
           18349         3.30270
           18350         3.28994
           18351         3.33950
           18352         3.35313
           18353         3.35276
           18354         3.33685
           18355         3.34426
           18356         3.34309
           18357         3.28969
           18358         3.29025
           18359         3.35822
           18360         3.35809
           18361         3.41034
           18362         3.35783
           18363         2.02729
           18364         2.03083
           18365         2.06085
           18366         2.00268
           18367         2.00047
           18368         1.96799
           18369         2.08604
           18370         2.08736
           18371         2.05429
           18372         2.09154
           18373         2.09002
           18374         2.06540
           18375         2.03439
           18376         2.03741
           18377         1.99896
           18378         1.98742
           18379         2.04689
           18380         2.00879
           18381         2.02062
           18382         1.95969
           18383         1.93791
           18384         1.97477
           18385         2.03494
           18386         1.97423
           18387         2.64759
           18388         2.65002
           18389         2.65424
           18390         2.64953
           18391         2.64710
           18392         2.64299
           18393         2.65503
           18394         2.65080
           18395         2.64317
           18396         2.64731
           18397         2.65052
           18398         2.65257
           18399         2.64844
           18400         2.65700
           18401         2.65608
           18402         2.64929
           18403         2.64552
           18404         2.64721
           18405         2.64973
           18406         2.65428
           18407         2.65182
           18408         2.66346
           18409         2.66445
           18410         2.65840
           18411         2.66000
           18412         4.55492
           18413         4.51178
           18414         4.51967
           18415         4.63251
           18416         4.76208
           18417         4.68934
           18418         4.73323
           18419         4.52262
           18420         4.59530
           18421         4.81278
           18422         4.68287
           18423         4.25621
           18424         4.35261
           18425         4.22887
           18426         4.35781
           18427         4.26134
           18428     208.296E-03
           18429     237.943E-03
           18430     250.963E-03
           18431     220.104E-03
           18432     296.180E-03
           18433         4.38812
           18434         4.36683
           18435         4.44254
           18436         4.31224
           18437         7.00614
           18438         7.05280
           18439         7.23656
           18440         7.39809
           18441         7.33490
           18442         7.16844
           18443         6.87239
           18444         7.04609
           18445         7.09334
           18446         6.75812
           18447         6.82967
           18448         6.95298
           18449         6.94987
           18450         6.87756
           18451         6.75767
           18452         7.01658
           18453         7.02836
           18454         7.18038
           18455         7.02821
           18456         7.02181
           18457         7.16606
           18458         7.30228
           18459         7.36956
           18460         2.57218
           18461         2.57554
           18462         2.56994
           18463         2.55035
           18464         2.54739
           18465         2.55218
           18466         2.54232
           18467         2.52089
           18468         2.54515
           18469         2.56497
           18470         2.53984
           18471         2.58329
           18472         2.58675
           18473         2.58803
           18474         2.56359
           18475         2.56737
           18476         2.57082
           18477         2.58643
           18478         2.58267
           18479         2.57862
           18480         2.59009
           18481         2.58608
           18482         2.60074
           18483         2.56712
           18484         2.56356
           18485         2.58225
           18486         3.67979
           18487         3.71409
           18488         3.68010
           18489         3.70012
           18490         3.67015
           18491         3.70689
           18492         3.65619
           18493         3.68585
           18494         3.64943
           18495         3.64336
           18496         3.62940
           18497     488.346E-03
           18498     454.191E-03
           18499     461.771E-03
           18500     499.157E-03
           18501     530.832E-03
           18502     527.117E-03
           18503     757.350E-03
           18504     700.405E-03
           18505     741.397E-03
           18506     593.373E-03
           18507     645.615E-03
           18508     607.634E-03
           18509     254.649E-03
           18510     183.102E-03
           18511     250.758E-03
           18512     264.199E-03
           18513     337.096E-03
           18514     267.967E-03
           18515     419.208E-03
           18516     432.292E-03
           18517     393.489E-03
           18518     519.704E-03
           18519     552.864E-03
           18520     592.421E-03
           18521     706.424E-03
           18522     649.833E-03
           18523     458.190E-03
           18524     525.252E-03
           18525     509.727E-03
           18526     485.555E-03
           18527     426.576E-03
           18528     436.366E-03
           18529     422.540E-03
           18530     534.243E-03
           18531     844.847E-03
           18532     790.392E-03
           18533     694.354E-03
           18534     438.718E-03
           18535     438.016E-03
           18536     621.893E-03
           18537     447.355E-03
           18538     447.625E-03
           18539     506.847E-03
           18540     452.959E-03
           18541     489.558E-03
           18542     706.265E-03
           18543     545.101E-03
           18544     703.066E-03
           18545     402.243E-03
           18546     352.510E-03
           18547     322.845E-03
           18548     691.947E-03
           18549     739.372E-03
           18550     484.343E-03
           18551         7.02899
           18552         7.19856
           18553         7.04426
           18554         7.09668
           18555         6.92857
           18556         7.08230
           18557         6.81956
           18558         6.94057
           18559         7.22788
           18560         7.00021
           18561         7.09019
           18562         6.53407
           18563         6.67774
           18564         6.64822
           18565         6.77473
           18566         6.62586
           18567         6.66104
           18568         6.84908
           18569         6.98593
           18570         6.71595
           18571         6.59208
           18572         6.75212
           18573         6.69530
           18574         2.87365
           18575         2.86545
           18576         2.81962
           18577         2.79530
           18578         2.79874
           18579         2.84767
           18580         2.91914
           18581         2.87127
           18582         2.86382
           18583         2.91437
           18584         2.86481
           18585         2.88578
           18586         2.84002
           18587         2.88992
           18588         2.83459
           18589         2.81067
           18590         2.79781
           18591         2.84348
           18592         2.87915
           18593         6.84574
           18594         6.77308
           18595         6.72744
           18596         6.86747
           18597         6.93999
           18598         6.97290
           18599         6.87376
           18600         6.62250
           18601         6.56950
           18602         6.63881
           18603         6.87826
           18604         6.94587
           18605         6.59645
           18606         6.42832
           18607         6.61082
           18608         6.54020
           18609         6.53503
           18610         6.62456
           18611         6.40823
           18612         6.38338
           18613         6.45985
           18614         7.06244
           18615         6.98935
           18616         6.91231
           18617         6.98588
           18618         7.10866
           18619         7.13839
           18620         7.06225
           18621     357.420E-03
           18622     370.759E-03
           18623     363.459E-03
           18624     301.423E-03
           18625     289.696E-03
           18626         2.72039
           18627         2.72688
           18628         2.73845
           18629         2.72657
           18630         2.71997
           18631         2.71043
           18632         2.70422
           18633         2.72138
           18634         2.72325
           18635         2.73523
           18636         2.71598
           18637         2.71386
           18638     284.703E-03
           18639     260.182E-03
           18640     264.849E-03
           18641     320.871E-03
           18642     346.192E-03
           18643     340.408E-03
           18644         2.79117
           18645         2.77165
           18646         2.77715
           18647         2.75200
           18648         2.76866
           18649         2.76370
           18650     139.257E-03
           18651     88.9395E-03
           18652     90.7331E-03
           18653     120.929E-03
           18654     170.960E-03
           18655     172.098E-03
           18656     179.769E-03
           18657     220.279E-03
           18658     180.202E-03
           18659     149.727E-03
           18660     111.048E-03
           18661     149.083E-03
           18662         2.73360
           18663         2.74512
           18664         2.71841
           18665         2.73735
           18666         2.73758
           18667         2.74354
           18668         2.72378
           18669         2.76002
           18670         2.75282
           18671         2.75122
           18672         2.72928
           18673         2.75934
           18674         2.76347
           18675         2.75650
           18676         2.78142
           18677         9.27533
           18678         9.90978
           18679         9.10618
           18680         9.40348
           18681         8.81130
           18682         9.60611
           18683         8.30731
           18684         8.51635
           18685         8.70183
           18686         8.10081
           18687         7.90391
           18688         7.77473
           18689         8.45711
           18690         8.27226
           18691         7.69505
           18692         7.94200
           18693         7.35824
           18694         7.84765
           18695         7.45910
           18696         8.05826
           18697         7.54365
           18698         8.75524
           18699         9.54410
           18700         9.43612
           18701         8.93955
           18702         9.00676
           18703         8.56436
           18704         2.09378
           18705         2.10681
           18706         2.14665
           18707         2.15664
           18708         2.14609
           18709         2.10414
           18710     172.949E-03
           18711     205.172E-03
           18712     137.288E-03
           18713     109.347E-03
           18714     141.845E-03
           18715         2.13645
           18716         2.09454
           18717         2.04856
           18718         2.09054
           18719         2.09066
           18720         2.12613
           18721         2.11991
           18722         2.12970
           18723         2.16744
           18724         2.17159
           18725         2.16187
           18726         2.09857
           18727         2.03482
           18728         2.05716
           18729         2.06515
           18730         2.10810
           18731         5.76783
           18732         5.82782
           18733         5.77356
           18734         5.79281
           18735         5.73281
           18736         5.78715
           18737         5.80765
           18738         5.75008
           18739         5.76821
           18740         5.74634
           18741         5.71084
           18742         5.68941
           18743         5.68990
           18744         5.72439
           18745     580.194E-03
           18746     523.293E-03
           18747     463.593E-03
           18748     417.683E-03
           18749     470.276E-03
           18750     532.431E-03
           18751         5.81210
           18752         5.75325
           18753         5.78948
           18754         5.75275
           18755         5.80953
           18756         2.25257
           18757         2.16487
           18758         2.23004
           18759         2.25532
           18760         2.34729
           18761         2.27135
           18762         2.12847
           18763         2.16154
           18764         2.22196
           18765         2.36158
           18766         2.30912
           18767         2.25152
           18768     118.952E-03
           18769     81.8171E-03
           18770     52.1035E-03
           18771     25.7157E-03
           18772     49.3610E-03
           18773     79.0732E-03
           18774         2.28478
           18775         2.41932
           18776         2.45947
           18777         2.48252
           18778         2.31140
           18779         2.42470
           18780         2.69966
           18781         2.58126
           18782         2.73064
           18783         2.56952
           18784         2.61887
           18785         2.60893
           18786         2.58074
           18787         2.57597
           18788         2.58495
           18789         2.61251
           18790         2.56759
           18791         2.57244
           18792         2.56190
           18793         2.55855
           18794         2.54492
           18795         2.55885
           18796         2.55815
           18797         2.57843
           18798         2.57379
           18799         2.57519
           18800         2.55463
           18801         2.54504
           18802         2.54936
           18803         2.55349
           18804         2.54055
           18805         2.56307
           18806     186.376E-03
           18807     153.778E-03
           18808     125.093E-03
           18809     91.3194E-03
           18810         6.50045
           18811         6.91189
           18812         7.08624
           18813         6.65886
           18814         6.24063
           18815         6.08752
           18816         3.20314
           18817         3.25440
           18818         3.12106
           18819         3.01961
           18820         2.97161
           18821         3.10230
           18822         6.36605
           18823         6.27528
           18824         6.59188
           18825         6.77139
           18826         6.83912
           18827         6.54425
           18828         5.93522
           18829         6.19459
           18830         6.23384
           18831         5.79513
           18832         6.21588
           18833         6.60809
           18834         6.15008
           18835         1.97534
           18836         1.91004
           18837         1.97413
           18838         1.94617
           18839         2.09327
           18840         2.15052
           18841         2.12181
           18842         2.16108
           18843         2.10362
           18844         2.13224
           18845         2.09708
           18846         2.15426
           18847         2.14874
           18848         2.12345
           18849         2.11864
           18850         2.14470
           18851         2.11528
           18852         2.64596
           18853         2.65227
           18854         2.65209
           18855         2.64685
           18856         2.64043
           18857         2.64099
           18858         2.66458
           18859         2.65673
           18860         2.65368
           18861         2.65872
           18862         2.66726
           18863         2.67038
           18864         2.69275
           18865         2.69425
           18866         2.67233
           18867         2.67012
           18868         2.69118
           18869         2.66866
           18870         2.68279
           18871         2.65920
           18872         2.67977
           18873         2.64978
           18874         2.66949
           18875         2.66522
           18876         2.68948
           18877         2.67281
           18878         2.65624
           18879         2.67146
           18880         2.64124
           18881         2.64920
           18882         2.65410
           18883         3.28887
           18884         3.31077
           18885         3.37707
           18886         3.26199
           18887         3.23319
           18888         3.18317
           18889         3.50922
           18890         3.46417
           18891         3.53533
           18892         3.38808
           18893         3.43110
           18894         3.51184
           18895         3.37847
           18896         3.42994
           18897         3.39068
           18898         3.53482
           18899         3.31146
           18900         3.41373
           18901         3.23608
           18902         3.15898
           18903         3.25419
           18904         3.19849
           18905         3.27839
           18906         3.18466
           18907         5.77895
           18908         5.86165
           18909         5.87743
           18910         5.98377
           18911         5.90130
           18912         5.88539
           18913         1.24343
           18914         1.41430
           18915         1.30217
           18916         1.40102
           18917         1.22975
           18918         1.34272
           18919         5.99684
           18920         6.01528
           18921         5.80426
           18922         6.10964
           18923         6.09305
           18924         6.32604
           18925         5.59737
           18926         5.45495
           18927         5.63396
           18928         5.72457
           18929         5.87727
           18930         5.67719
           18931         5.24115
           18932         5.35389
           18933         5.36140
           18934         5.46276
           18935         5.32164
           18936         5.32438
           18937         6.09096
           18938         6.07689
           18939         5.85118
           18940         5.94600
           18941         5.42506
           18942         5.57029
           18943         5.58237
           18944         5.65643
           18945         5.42632
           18946         5.40615
           18947         5.29765
           18948         2.23362
           18949         2.24080
           18950         2.24197
           18951         2.25088
           18952         2.24361
           18953         2.24475
           18954         2.24988
           18955         2.25977
           18956         2.25359
           18957         2.24643
           18958         2.23637
           18959         2.28215
           18960         2.27173
           18961         2.26559
           18962         2.28102
           18963         2.29584
           18964         2.26670
           18965         2.28042
           18966         2.26897
           18967         2.29479
           18968         2.23397
           18969         2.21368
           18970         2.21248
           18971         2.21217
           18972         2.30169
           18973         2.29784
           18974         2.27146
           18975         2.28863
           18976         5.90226
           18977         5.77256
           18978         5.91030
           18979         5.70812
           18980         5.84539
           18981         5.71310
           18982         5.54712
           18983         5.73010
           18984         5.53616
           18985         5.84339
           18986         5.65477
           18987         6.23613
           18988         6.63132
           18989         6.43359
           18990         6.47323
           18991         6.08175
           18992         6.27634
           18993         5.91065
           18994         5.85493
           18995         6.04739
           18996         5.75466
           18997         5.55532
           18998         5.89256
           18999         2.55221
           19000         2.55956
           19001         2.55279
           19002         2.54899
           19003         2.54132
           19004         2.54816
           19005         2.55087
           19006         2.56553
           19007         2.55775
           19008         2.56531
           19009         2.55847
           19010         5.84415
           19011         5.62274
           19012         5.74676
           19013         5.67639
           19014         5.90443
           19015         5.78561
           19016         6.00292
           19017         5.76404
           19018         5.63588
           19019         5.89314
           19020         5.86219
           19021         5.81745
           19022         5.67287
           19023         5.82251
           19024         5.60112
           19025         5.59564
           19026         6.25207
           19027         6.50806
           19028         6.22244
           19029         6.41726
           19030         6.16030
           19031         6.44462
           19032         5.75007
           19033         5.50777
           19034         5.59484
           19035         6.18798
           19036         6.03831
           19037         5.26099
           19038         5.36336
           19039         5.21850
           19040         5.25414
           19041         5.15832
           19042         5.29482
           19043         5.00756
           19044         4.89874
           19045         5.00583
           19046         4.97105
           19047         5.09166
           19048         4.99743
           19049         5.11368
           19050         5.00154
           19051         5.19724
           19052         5.18332
           19053         5.15455
           19054         5.17004
           19055         5.23586
           19056         4.94612
           19057         5.05424
           19058         5.04860
           19059         5.18549
           19060         5.09612
           19061         5.12993
           19062         4.98284
           19063         5.02400
           19064         6.98342
           19065         6.74785
           19066         6.79444
           19067         6.85161
           19068         7.09890
           19069         7.04266
           19070         7.07959
           19071         7.02485
           19072         7.19456
           19073         7.25220
           19074         7.29291
           19075         7.49150
           19076         7.26578
           19077         7.30586
           19078         6.80854
           19079         6.76154
           19080         6.84753
           19081         1.82819
           19082         1.77534
           19083         1.80212
           19084         1.75811
           19085         1.81163
           19086         1.78319
           19087         1.84396
           19088         1.79077
           19089         1.78457
           19090         1.83730
           19091         1.82696
           19092         1.80579
           19093         1.81825
           19094         1.76466
           19095         2.62017
           19096         2.60534
           19097         2.62285
           19098         2.60476
           19099         2.61980
           19100         2.60342
           19101         2.65403
           19102         2.67321
           19103         2.65577
           19104         2.66173
           19105         2.64251
           19106         2.65962
           19107         2.63341
           19108         2.61694
           19109         2.61636
           19110         2.64009
           19111         2.64847
           19112         2.64524
           19113         2.66548
           19114         2.65924
           19115         2.67266
           19116         2.65347
           19117         2.65647
           19118     172.940E-03
           19119     145.380E-03
           19120     186.055E-03
           19121     134.301E-03
           19122     161.527E-03
           19123     122.181E-03
           19124     205.609E-03
           19125     218.373E-03
           19126     225.368E-03
           19127     197.762E-03
           19128     184.299E-03
           19129     178.357E-03
           19130     161.479E-03
           19131     211.901E-03
           19132     172.731E-03
           19133     135.008E-03
           19134     184.107E-03
           19135         2.82040
           19136         2.81541
           19137         2.84206
           19138         2.81000
           19139         2.81342
           19140         2.78972
           19141         1.07297
           19142         1.11622
           19143     937.858E-03
           19144     989.633E-03
           19145     947.641E-03
           19146         1.12692
           19147         2.83096
           19148         2.82053
           19149         2.83702
           19150         2.86947
           19151         2.88096
           19152         2.85565
           19153         2.84827
           19154         2.82659
           19155         2.83452
           19156         2.81781
           19157         2.88245
           19158         2.86813
           19159         5.00694
           19160         5.06168
           19161         4.96978
           19162         5.01159
           19163         4.95126
           19164         5.04516
           19165         5.07282
           19166         4.97459
           19167         4.98901
           19168         4.92807
           19169         5.02303
           19170         4.80612
           19171         4.79261
           19172         4.89554
           19173         4.80910
           19174         4.82616
           19175         4.72254
           19176         4.31305
           19177         4.27373
           19178         4.38872
           19179         4.33689
           19180         4.37624
           19181         4.26077
           19182         4.34702
           19183         4.29591
           19184         4.37584
           19185         4.48524
           19186         4.53905
           19187         4.45577
           19188         4.70466
           19189         4.59046
           19190         4.67701
           19191         4.51233
           19192         4.62567
           19193         4.73448
           19194         4.56773
           19195         4.65442
           19196         3.99207
           19197         4.26856
           19198         4.06852
           19199         4.38195
           19200         4.10396
           19201         4.30950
           19202         3.64550
           19203         3.72064
           19204         3.89417
           19205         3.81771
           19206         3.73662
           19207         3.57876
           19208         3.86239
           19209         3.80411
           19210         3.75422
           19211         3.94096
           19212         4.05026
           19213         3.58370
           19214         3.68814
           19215         4.12783
           19216         3.88153
           19217         3.96189
           19218         4.14543
           19219         3.88407
           19220         3.82151
           19221         3.57659
           19222         3.63397
           19223         3.70205
           19224         2.59836
           19225         2.60017
           19226         2.58541
           19227         2.59582
           19228         2.59388
           19229         2.60878
           19230         2.59605
           19231         2.60585
           19232         2.61342
           19233         2.60429
           19234         2.59460
           19235         2.58841
           19236         2.58362
           19237         2.57344
           19238         2.57363
           19239         2.58396
           19240         2.56507
           19241         2.57556
           19242         2.57622
           19243         2.57888
           19244         2.70077
           19245         2.67295
           19246         2.69951
           19247         2.66830
           19248         2.69638
           19249         2.66996
           19250         2.73778
           19251         2.73480
           19252         2.72272
           19253         2.76811
           19254         2.77268
           19255         2.78351
           19256         2.74609
           19257         2.72010
           19258         2.72653
           19259         2.75185
           19260         2.77248
           19261         2.64234
           19262         2.67453
           19263         2.63320
           19264         2.63578
           19265         2.67781
           19266     717.787E-03
           19267     703.461E-03
           19268     779.023E-03
           19269     883.108E-03
           19270     898.005E-03
           19271     820.405E-03
           19272         2.76600
           19273         2.74538
           19274         2.73612
           19275         2.71630
           19276         2.73712
           19277         2.70159
           19278         2.70416
           19279         2.69357
           19280     670.243E-03
           19281     745.200E-03
           19282     731.645E-03
           19283         2.62947
           19284         2.62088
           19285         2.61830
           19286         2.57490
           19287         2.58186
           19288         2.58474
           19289         2.67098
           19290         2.71055
           19291         2.66599
           19292         2.66607
           19293         2.62649
           19294         2.67058
           19295         2.64456
           19296         2.64403
           19297         2.62618
           19298         2.63705
           19299         2.63779
           19300         2.65618
           19301         2.63719
           19302         2.64413
           19303         2.63379
           19304         2.62785
           19305         2.62170
           19306         2.63067
           19307         2.61836
           19308         2.60395
           19309         2.61258
           19310         2.59672
           19311         2.61022
           19312         2.60255
           19313         2.65564
           19314         2.63659
           19315         2.62634
           19316         2.64417
           19317         3.32894
           19318         3.50534
           19319         3.43167
           19320         3.39261
           19321         3.21976
           19322         3.29156
           19323         2.52570
           19324         2.55310
           19325         2.55591
           19326         2.54087
           19327         2.51289
           19328         2.51194
           19329         6.61813
           19330         6.73527
           19331         6.76963
           19332         3.07195
           19333         2.92759
           19334         3.11272
           19335         3.07524
           19336         3.03255
           19337         3.17550
           19338         3.18553
           19339         3.26351
           19340         3.33195
           19341         3.25206
           19342         2.96350
           19343         3.14701
           19344         3.00164
           19345         3.02667
           19346         3.13472
           19347         2.98790
           19348         3.07541
           19349         3.10379
           19350         3.16448
           19351         3.14486
           19352         3.11101
           19353         3.13153
           19354         3.12160
           19355         3.07855
           19356         3.10207
           19357         3.10975
           19358         3.15573
           19359         3.16619
           19360         3.32698
           19361         3.23279
           19362         3.25421
           19363         3.18789
           19364     637.323E-03
           19365     596.141E-03
           19366     574.469E-03
           19367     627.858E-03
           19368     672.390E-03
           19369     693.014E-03
           19370         2.98380
           19371         3.00188
           19372         2.91368
           19373         2.91789
           19374         2.90275
           19375         2.98709
           19376         3.07235
           19377         3.08023
           19378         3.00580
           19379         2.99863
           19380         2.97353
           19381         3.12554
           19382         3.21423
           19383         3.16408
           19384     799.399E-03
           19385     962.846E-03
           19386     916.211E-03
           19387     899.819E-03
           19388     780.541E-03
           19389     933.227E-03
           19390     881.174E-03
           19391     922.123E-03
           19392         5.88367
           19393         6.00620
           19394         5.98334
           19395         5.95258
           19396         5.82902
           19397         5.85320
           19398         5.76944
           19399         5.74564
           19400         5.68505
           19401         5.79846
           19402         5.82124
           19403         5.76611
           19404         5.63697
           19405         5.72573
           19406         5.59833
           19407         5.72951
           19408         5.63867
           19409         5.61295
           19410         5.61693
           19411         2.77407
           19412         2.76785
           19413         2.75659
           19414         2.72729
           19415         2.73373
           19416         2.74423
           19417         2.75279
           19418         2.75125
           19419         2.76150
           19420         2.73167
           19421         2.73299
           19422         2.72384
           19423         2.77181
           19424         2.77813
           19425         2.74908
           19426         2.73466
           19427         2.72826
           19428         2.74277
           19429         2.75161
           19430         2.74569
           19431         2.77321
           19432         2.76252
           19433         2.76911
           19434         2.75957
           19435         2.77951
           19436         2.76418
           19437         2.76001
           19438         2.74138
           19439         2.75537
           19440         2.78756
           19441         2.76671
           19442         2.73750
           19443         2.72024
           19444         2.71943
           19445         2.71805
           19446         2.71897
           19447         2.15628
           19448         2.18682
           19449         2.18344
           19450         2.18017
           19451         2.15018
           19452         2.15355
           19453         2.19218
           19454         2.20426
           19455         2.16733
           19456         2.19555
           19457         2.22032
           19458         2.19229
           19459         2.15535
           19460         2.16920
           19461         3.82962
           19462         3.83186
           19463         3.89018
           19464         3.95702
           19465         3.95261
           19466         3.89399
           19467         3.77500
           19468         3.83301
           19469         3.83439
           19470         3.88976
           19471         3.83148
           19472         3.95658
           19473         3.80502
           19474         3.75676
           19475         3.83782
           19476         3.85845
           19477         3.90783
           19478         3.82591
           19479         3.77995
           19480         3.83887
           19481         2.61505
           19482         2.42483
           19483         2.21174
           19484         2.52170
           19485         2.69369
           19486         2.92628
           19487         2.93765
           19488         3.24940
           19489         2.97781
           19490         2.65207
           19491         3.21228
           19492         2.28357
           19493         2.55930
           19494         2.41948
           19495         2.15276
           19496         2.04802
           19497         2.50765
           19498         2.61159
           19499         3.16900
           19500         2.83221
           19501         2.63530
           19502         2.63902
           19503         2.63766
           19504         2.63778
           19505         2.63414
           19506         2.63543
           19507         2.62762
           19508         2.62626
           19509         2.62091
           19510         2.62741
           19511         2.62889
           19512         2.63461
           19513         2.62696
           19514         2.62668
           19515         2.63473
           19516         5.40558
           19517         5.46451
           19518         5.43974
           19519         5.58303
           19520         5.51999
           19521         5.54411
           19522         5.47668
           19523         5.49571
           19524         5.39226
           19525         5.34617
           19526         5.44389
           19527         5.28229
           19528         5.35244
           19529         5.37001
           19530         5.51291
           19531         5.49436
           19532         5.46630
           19533     833.954E-03
           19534     662.122E-03
           19535     767.781E-03
           19536     645.451E-03
           19537     816.042E-03
           19538     713.667E-03
           19539         1.00158
           19540         1.11106
           19541         1.05814
           19542     987.814E-03
           19543     877.243E-03
           19544         1.33439
           19545         1.27003
           19546         1.38573
           19547         2.27350
           19548         2.29828
           19549         2.28213
           19550         2.30862
           19551         2.25701
           19552     703.209E-03
           19553     824.594E-03
           19554         4.25168
           19555         4.33347
           19556         4.23362
           19557         4.30836
           19558         4.22820
           19559         4.32721
           19560         4.21860
           19561         4.13998
           19562         4.09516
           19563         4.11116
           19564         4.18941
           19565         4.02939
           19566         4.04600
           19567         4.00316
           19568         4.23654
           19569         4.31981
           19570         4.22013
           19571         4.20439
           19572         4.17755
           19573         4.24966
           19574         4.24970
           19575         4.17719
           19576         4.19913
           19577         4.18256
           19578         4.11829
           19579         4.10269
           19580         8.47507
           19581         8.78292
           19582         8.42098
           19583         8.49027
           19584         8.13589
           19585         8.50464
           19586         7.92128
           19587         7.59072
           19588         7.67061
           19589         7.05754
           19590         7.48740
           19591         7.22370
           19592         7.80450
           19593         7.34278
           19594         8.44985
           19595         8.07565
           19596         7.61266
           19597         8.69213
           19598         8.38327
           19599         8.35337
           19600         5.54313
           19601         5.39640
           19602         5.43327
           19603         5.43866
           19604         5.58644
           19605         5.54860
           19606         5.63459
           19607         5.67852
           19608         5.72335
           19609         5.63610
           19610         5.59194
           19611         5.92640
           19612         5.93987
           19613         5.68283
           19614         5.62887
           19615         5.72939
           19616         5.86191
           19617         5.87488
           19618         5.69171
           19619         5.77489
           19620     913.686E-03
           19621         1.03604
           19622     988.311E-03
           19623         1.04175
           19624     918.860E-03
           19625     966.567E-03
           19626         5.53508
           19627         5.63513
           19628         5.78878
           19629         5.63959
           19630     36.2403E-03
           19631     22.3262E-03
           19632     22.8192E-03
           19633     59.6598E-03
           19634     64.7837E-03
           19635     48.3776E-03
           19636         6.52447
           19637         6.64564
           19638         6.45382
           19639         6.52178
           19640         6.39997
           19641         6.58934
           19642         6.32841
           19643         6.27335
           19644         6.13601
           19645         6.19359
           19646         6.25309
           19647         6.03104
           19648         6.08326
           19649         6.03096
           19650         6.13357
           19651         6.08122
           19652         6.15259
           19653         6.00889
           19654         6.04140
           19655         5.94459
           19656         6.04462
           19657         6.19957
           19658         6.33602
           19659         6.37619
           19660         6.37622
           19661         2.91717
           19662         2.80973
           19663         2.85368
           19664         3.03385
           19665         3.10037
           19666         2.90784
           19667         2.86172
           19668         3.11238
           19669         3.09865
           19670         2.88889
           19671         3.02919
           19672         3.16250
           19673         3.01785
           19674         2.94705
           19675         2.64054
           19676         2.64419
           19677         2.64708
           19678         2.64790
           19679         2.64381
           19680         2.64079
           19681         2.65377
           19682         2.64857
           19683         2.64434
           19684         2.64989
           19685         2.65091
           19686         2.64922
           19687         2.63684
           19688         2.63377
           19689         2.63719
           19690         2.57419
           19691         2.55939
           19692         2.57657
           19693         2.56985
           19694         2.58482
           19695         2.56861
           19696         2.60044
           19697         2.61555
           19698         2.60735
           19699         2.62945
           19700         2.61385
           19701         2.62184
           19702         2.56263
           19703         2.57853
           19704         2.57901
           19705         2.59255
           19706         2.57620
           19707         2.60882
           19708         2.59397
           19709         2.60366
           19710         2.61894
           19711         2.61129
           19712         2.59522
           19713         2.60673
           19714         4.83014
           19715         4.79909
           19716         5.01955
           19717         4.72956
           19718         4.76185
           19719         4.57251
           19720         5.25464
           19721         5.46476
           19722         5.23295
           19723         5.28839
           19724         5.09141
           19725         5.30037
           19726         4.80580
           19727         4.78130
           19728         5.04737
           19729         5.06914
           19730         4.83159
           19731         5.33226
           19732         5.36284
           19733         5.25747
           19734         5.56780
           19735         5.42013
           19736         5.12347
           19737         5.34060
           19738     210.452E-03
           19739     223.952E-03
           19740     295.040E-03
           19741     328.859E-03
           19742     315.545E-03
           19743     243.469E-03
           19744         5.10040
           19745         4.98698
           19746         4.88432
           19747         4.91075
           19748         5.01832
           19749         5.45495
           19750         5.42656
           19751         5.48169
           19752         5.43878
           19753         5.46814
           19754         5.41246
           19755         5.47652
           19756         5.50469
           19757         5.53351
           19758         5.53767
           19759         5.50735
           19760         5.56606
           19761         5.61501
           19762         5.55751
           19763         5.62690
           19764         5.57692
           19765         5.63363
           19766         5.52599
           19767         5.57514
           19768         5.55560
           19769         5.52248
           19770         5.42685
           19771         5.48375
           19772         5.47673
           19773         5.44847
           19774         4.87890
           19775         5.09219
           19776         5.03396
           19777         5.00268
           19778         4.77837
           19779         4.84967
           19780     64.2327E-03
           19781     51.2589E-03
           19782     46.3098E-03
           19783     43.4925E-03
           19784     60.9114E-03
           19785     68.2841E-03
           19786     80.4918E-03
           19787         4.84843
           19788         5.05440
           19789         4.95924
           19790         4.96093
           19791         4.75224
           19792         4.85317
           19793         4.65254
           19794         4.64651
           19795         4.74655
           19796         4.84628
           19797         3.61124
           19798         3.56954
           19799         3.65568
           19800         3.64085
           19801         3.68353
           19802         3.59626
           19803         3.58409
           19804         3.51993
           19805         3.54899
           19806         3.50635
           19807         3.54036
           19808         1.00230
           19809     926.505E-03
           19810     971.073E-03
           19811     942.375E-03
           19812         1.01557
           19813     970.766E-03
           19814         1.07956
           19815         1.15870
           19816         1.12514
           19817         1.17964
           19818         1.10078
           19819         1.13309
           19820         1.02785
           19821     955.643E-03
           19822     947.597E-03
           19823         1.02087
           19824         1.00446
           19825         1.09409
           19826         1.17295
           19827         1.15145
           19828         1.07250
           19829         1.11931
           19830         5.57096
           19831         5.52666
           19832         5.55952
           19833         5.54209
           19834         5.58509
           19835         5.55726
           19836         5.62194
           19837         5.58102
           19838         5.57896
           19839         5.55579
           19840         5.60031
           19841         5.59772
           19842         5.53746
           19843         5.58204
           19844     93.6580E-03
           19845     129.778E-03
           19846     88.9465E-03
           19847     80.7378E-03
           19848     50.6412E-03
           19849         5.60401
           19850         5.56275
           19851         5.57496
           19852         5.56447
           19853         5.52342
           19854         5.57472
           19855         5.60702
           19856         5.54867
           19857         5.58663
           19858         5.56387
           19859         5.60373
           19860         2.26715
           19861         2.31171
           19862         2.31758
           19863         2.28785
           19864         5.50450
           19865         5.51626
           19866         5.47712
           19867         5.45712
           19868         5.45930
           19869     549.392E-03
           19870     528.228E-03
           19871     439.589E-03
           19872     545.637E-03
           19873         5.53937
           19874         2.96771
           19875         2.93200
           19876         2.86536
           19877         2.90465
           19878         2.89761
           19879         3.00861
           19880         3.08521
           19881         3.04461
           19882         3.03834
           19883         2.96618
           19884         3.14298
           19885         3.00076
           19886         3.11055
           19887         3.19321
           19888         3.07542
           19889         3.15390
           19890         3.01006
           19891         2.98156
           19892         3.05184
           19893         2.97665
           19894         2.94907
           19895         2.95607
           19896         3.05152
           19897         3.09270
           19898         3.04616
           19899         3.01797
           19900         3.16261
           19901         3.20041
           19902         3.10259
           19903         2.65312
           19904         2.65744
           19905         2.65401
           19906         2.65566
           19907         2.65142
           19908         2.65476
           19909         2.65041
           19910         2.64839
           19911         2.65229
           19912         2.64960
           19913         2.64503
           19914         2.64517
           19915         2.63794
           19916         2.64280
           19917         2.64305
           19918         2.63242
           19919         2.63938
           19920         2.63500
           19921         2.64480
           19922         2.63857
           19923         2.63385
           19924         1.93263
           19925         1.82086
           19926         1.90713
           19927         1.87706
           19928         1.98715
           19929         1.90280
           19930         1.95535
           19931         1.87431
           19932         1.98561
           19933     163.585E-03
           19934         1.80155
           19935         1.83121
           19936         1.82196
           19937         1.75305
           19938         1.72406
           19939         1.73185
           19940         1.90305
           19941         1.85695
           19942         1.77664
           19943         1.80636
           19944         1.87619
           19945         1.90639
           19946         1.88502
           19947         1.67468
           19948         1.72029
           19949         1.74882
           19950         1.77599
           19951         1.74742
           19952     17.6265E-03
           19953     20.4187E-03
           19954     17.7146E-03
           19955     16.3542E-03
           19956     15.4126E-03
           19957     15.8747E-03
           19958     20.6004E-03
           19959     17.7652E-03
           19960     19.5303E-03
           19961     17.4568E-03
           19962     19.1786E-03
           19963     11.0147E-03
           19964     12.6031E-03
           19965     12.8986E-03
           19966     12.1149E-03
           19967     12.1727E-03
           19968     16.3886E-03
           19969     18.4714E-03
           19970     18.5105E-03
           19971     13.4020E-03
           19972     18.9040E-03
           19973     19.5928E-03
           19974         9.56321
           19975         9.73192
           19976         9.21120
           19977         9.08846
           19978         8.87994
           19979         9.40072
           19980         8.58546
           19981         8.95597
           19982         8.43899
           19983         8.06499
           19984         8.53117
           19985         9.28185
           19986         9.47772
           19987         9.89941
           19988         9.67271
           19989         9.21588
           19990         9.25869
           19991         9.78233
           19992         9.11595
           19993         9.02939
           19994         9.17167
           19995         3.33501
           19996         3.29173
           19997         3.37743
           19998         3.37660
           19999         3.42301
           20000         3.33427
           20001         3.43714
           20002         3.38033
           20003         3.36515
           20004         3.31332
           20005         3.36873
           20006         3.38398
           20007         3.28074
           20008         3.32174
           20009         3.28328
           20010         3.32767
           20011         3.41623
           20012         3.36113
           20013         5.71347
           20014         5.85052
           20015         5.71450
           20016         5.79703
           20017         5.69641
           20018         5.56035
           20019         5.57627
           20020         5.65634
           20021         7.27672
           20022         7.06419
           20023         7.07838
           20024         7.51668
           20025         7.35641
           20026         7.25254
           20027         7.11083
           20028         7.38394
           20029         1.01139
           20030         1.00016
           20031     955.191E-03
           20032         1.02240
           20033         1.03525
           20034         1.07902
           20035     993.016E-03
           20036         1.00430
           20037         1.07202
           20038         1.00550
           20039     986.225E-03
           20040     948.605E-03
           20041     881.279E-03
           20042     900.460E-03
           20043     937.773E-03
           20044     998.664E-03
           20045         1.06669
           20046         1.03533
           20047         1.10257
           20048         1.06591
           20049         1.03424
           20050         1.07324
           20051         1.01735
           20052         11.6979
           20053         13.0983
           20054         14.3266
           20055         14.3050
           20056         12.8750
           20057         11.9030
           20058         13.9097
           20059         11.9448
           20060         11.2667
           20061         12.4745
           20062         14.9157
           20063         15.7269
           20064         15.1918
           20065         12.6766
           20066         12.0938
           20067         12.1636
           20068         10.2794
           20069         11.0933
           20070         9.98399
           20071         10.9279
           20072         11.9570
           20073         12.1949
           20074         13.2580
           20075         14.3764
           20076         14.4081
           20077         16.9241
           20078         16.0675
           20079         17.6068
           20080         10.8456
           20081         9.86724
           20082         11.6314
           20083         11.5459
           20084         10.3516
           20085         11.2682
           20086         11.0968
           20087         5.01627
           20088         5.14807
           20089         4.97455
           20090         5.05517
           20091         4.92574
           20092         5.09736
           20093         4.68012
           20094         4.80929
           20095         4.71665
           20096         4.83848
           20097         4.70914
           20098         4.80039
           20099         4.90417
           20100         5.02456
           20101         4.92814
           20102         4.94158
           20103         4.82362
           20104         5.06033
           20105         5.07592
           20106         4.95392
           20107         5.09945
           20108         5.11449
           20109         2.26810
           20110         2.30689
           20111         2.26162
           20112         4.80981
           20113         4.66664
           20114         4.69028
           20115         4.65332
           20116         4.91748
           20117         4.92675
           20118         5.00694
           20119         4.91667
           20120         4.88829
           20121         7.44892
           20122         7.26097
           20123         7.27985
           20124         7.18123
           20125         7.36704
           20126         7.34735
           20127         7.00897
           20128         7.08212
           20129         7.18946
           20130         7.01842
           20131         6.94418
           20132         6.84113
           20133         7.53508
           20134         7.70495
           20135         7.61577
           20136         7.51283
           20137         7.28929
           20138         7.10533
           20139         6.92830
           20140         7.09525
           20141         7.28594
           20142         7.23144
           20143         7.06440
           20144         6.87702
           20145         7.36304
           20146         7.47806
           20147         7.51757
           20148         7.34476
           20149         7.51742
           20150         7.28584
           20151         7.45751
           20152         6.06291
           20153         5.95695
           20154         5.89351
           20155         6.24980
           20156         6.13766
           20157         6.31863
           20158         6.19581
           20159         6.22281
           20160         6.03350
           20161         6.14655
           20162         6.10163
           20163         2.62992
           20164         2.64705
           20165         2.65980
           20166     31.0047E-03
           20167     28.6055E-03
           20168     28.3647E-03
           20169     36.0730E-03
           20170     56.6453E-03
           20171         2.56515
           20172         2.67267
           20173         2.65199
           20174         2.40825
           20175         2.58427
           20176         2.77497
           20177         2.70040
           20178         2.69308
           20179         2.57991
           20180         2.76661
           20181         2.11521
           20182         2.15826
           20183         2.28057
           20184         2.12786
           20185     38.3012E-03
           20186     17.6782E-03
           20187     25.3995E-03
           20188     60.7961E-03
           20189     75.5789E-03
           20190         2.19254
           20191         2.36475
           20192         2.40541
           20193         2.51643
           20194         2.34222
           20195         2.29912
           20196         2.51019
           20197         2.63060
           20198     980.164E-03
           20199         1.05409
           20200     873.262E-03
           20201     975.957E-03
           20202     903.750E-03
           20203         1.08648
           20204     812.908E-03
           20205     777.168E-03
           20206     911.729E-03
           20207     839.552E-03
           20208         3.91646
           20209         3.94682
           20210         4.02734
           20211         3.89958
           20212         3.86877
           20213         3.78805
           20214         4.22679
           20215         4.19212
           20216         4.20652
           20217         4.01477
           20218         4.04432
           20219         4.24978
           20220         4.44864
           20221         4.40134
           20222         4.20537
           20223         4.46671
           20224         4.16698
           20225         4.42322
           20226         4.34914
           20227         4.09634
           20228         4.26210
           20229         4.26117
           20230         4.06283
           20231         4.30898
           20232         2.62769
           20233         2.63351
           20234         2.62841
           20235         2.63129
           20236         2.62585
           20237         2.63045
           20238         2.62061
           20239         2.61501
           20240         2.61741
           20241         2.61556
           20242         2.61312
           20243         2.61139
           20244         2.61807
           20245         2.61575
           20246         2.63298
           20247         2.62720
           20248         2.62959
           20249         2.62545
           20250         2.63099
           20251         6.72875
           20252         6.72281
           20253         6.66466
           20254         6.82223
           20255         6.66098
           20256         6.71697
           20257         6.88139
           20258         6.86050
           20259         6.86748
           20260         6.70429
           20261         6.81440
           20262         6.96482
           20263         7.04310
           20264         6.64749
           20265         6.82102
           20266         6.84536
           20267         6.92209
           20268         6.74746
           20269         6.90863
           20270         7.13995
           20271         6.93085
           20272         7.25240
           20273         7.01892
           20274         7.23065
           20275         2.36707
           20276         2.34847
           20277         2.32327
           20278         2.34091
           20279         2.38148
           20280         7.13095
           20281         6.92208
           20282         6.86286
           20283         6.64689
           20284         6.84907
           20285         6.60171
           20286         6.66215
           20287         6.86351
           20288         6.88797
           20289         6.68556
           20290         6.91048
           20291         6.78822
           20292         6.69174
           20293         6.61193
           20294         6.57224
           20295         6.66722
           20296         6.74689
           20297         6.81617
           20298         6.90080
           20299         6.77726
           20300         6.35328
           20301         6.48752
           20302         6.40543
           20303         6.43815
           20304         6.30450
           20305         6.38192
           20306         6.08152
           20307         6.02211
           20308         6.07379
           20309         5.95391
           20310         6.00830
           20311         5.95740
           20312         6.16355
           20313         6.15426
           20314         6.21987
           20315     762.283E-03
           20316     686.746E-03
           20317     867.174E-03
           20318         6.24668
           20319         6.26681
           20320         6.29821
           20321         6.44936
           20322         6.43229
           20323         6.39825
           20324         6.08807
           20325         6.04622
           20326         6.17595
           20327         6.10717
           20328         6.14852
           20329         6.02388
           20330         2.63070
           20331         2.62593
           20332         2.63237
           20333         2.62841
           20334         2.63393
           20335         2.62692
           20336         2.63127
           20337         2.63775
           20338         2.63344
           20339         2.64566
           20340         2.66032
           20341         2.65167
           20342         2.65580
           20343         2.64159
           20344         2.64958
           20345     415.267E-03
           20346     427.854E-03
           20347     405.221E-03
           20348     465.984E-03
           20349     454.334E-03
           20350     476.159E-03
           20351     418.320E-03
           20352     395.766E-03
           20353     370.831E-03
           20354     414.386E-03
           20355     437.100E-03
           20356     462.446E-03
           20357     334.048E-03
           20358     369.214E-03
           20359     383.985E-03
           20360     450.678E-03
           20361     399.065E-03
           20362     406.422E-03
           20363     342.610E-03
           20364     356.310E-03
           20365     320.957E-03
           20366     313.538E-03
           20367     292.749E-03
           20368     265.205E-03
           20369     30.5494E-03
           20370     53.3671E-03
           20371     71.5415E-03
           20372     41.2022E-03
           20373     28.3428E-03
           20374     379.443E-03
           20375     354.215E-03
           20376     333.032E-03
           20377     521.499E-03
           20378     622.645E-03
           20379     695.062E-03
           20380     841.258E-03
           20381     704.272E-03
           20382     631.203E-03
           20383     521.597E-03
           20384     419.218E-03
           20385     453.184E-03
           20386     373.211E-03
           20387     422.377E-03
           20388     405.828E-03
           20389     495.153E-03
           20390     509.690E-03
           20391     589.984E-03
           20392     791.058E-03
           20393     766.393E-03
           20394     675.600E-03
           20395     473.432E-03
           20396     514.664E-03
           20397     619.686E-03
           20398     405.676E-03
           20399     405.901E-03
           20400         3.84634
           20401         3.78082
           20402         3.92259
           20403         4.01221
           20404         4.00766
           20405         3.83712
           20406         3.84588
           20407         3.92505
           20408         3.82600
           20409         3.73814
           20410         3.85935
           20411         3.94887
           20412         3.85605
           20413         4.03140
           20414         4.03018
           20415         3.95265
           20416         2.65896
           20417         2.64943
           20418         2.66378
           20419         2.63548
           20420         2.64392
           20421         2.62966
           20422         2.66971
           20423         2.63870
           20424         2.63441
           20425         2.66519
           20426         2.66060
           20427     808.407E-03
           20428     666.297E-03
           20429     735.282E-03
           20430         2.66899
           20431         2.67860
           20432         2.66141
           20433         2.65660
           20434         2.64739
           20435         2.67902
           20436         2.71953
           20437         2.71620
           20438         2.74425
           20439         2.70234
           20440         2.70612
           20441         2.68902
           20442         2.69473
           20443         2.69041
           20444         2.68487
           20445         3.11688
           20446         3.07383
           20447         3.11979
           20448         3.10188
           20449         3.14607
           20450         3.09877
           20451         3.14406
           20452         3.09259
           20453         3.11231
           20454         3.14784
           20455         3.20204
           20456         3.18018
           20457     495.760E-03
           20458     434.699E-03
           20459     364.832E-03
           20460     351.802E-03
           20461     413.038E-03
           20462     485.855E-03
           20463         3.13439
           20464         3.10864
           20465         3.15276
           20466         3.25127
           20467         3.21272
           20468         3.19110
           20469         3.24317
           20470         3.19364
           20471         3.18166
           20472         3.20025
           20473         4.26324
           20474         4.37942
           20475         4.52329
           20476         5.08467
           20477         4.74095
           20478         4.91480
           20479         6.15846
           20480         5.55164
           20481         4.59408
           20482         4.43749
           20483         4.97122
           20484         5.09303
           20485         1.04873
           20486         1.02655
           20487     941.653E-03
           20488     997.305E-03
           20489         1.03415
           20490         1.15647
           20491         7.41386
           20492         7.66572
           20493         7.57632
           20494         8.18711
           20495         7.95742
           20496         8.03665
           20497         8.18846
           20498         7.55123
           20499         8.15629
           20500         7.89379
           20501         8.54661
           20502         2.01020
           20503         2.17139
           20504         2.07481
           20505         2.04217
           20506         2.19570
           20507         2.21250
           20508         2.05049
           20509         2.11624
           20510         6.97556
           20511         6.87541
           20512         7.03864
           20513         6.82739
           20514         6.92669
           20515         6.76363
           20516         6.58083
           20517         6.39983
           20518         6.53103
           20519         6.57850
           20520         6.62790
           20521         6.32490
           20522         6.50347
           20523         6.49420
           20524         6.70636
           20525         6.52002
           20526         6.22815
           20527         6.40670
           20528         6.20224
           20529         7.17563
           20530         7.08064
           20531         7.36806
           20532         6.99016
           20533         7.08536
           20534         6.80597
           20535         2.71893
           20536         2.73002
           20537         2.71592
           20538         2.71998
           20539         2.70984
           20540         2.72316
           20541         2.71013
           20542         2.70209
           20543         2.70013
           20544         2.69590
           20545         2.68851
           20546         2.70181
           20547         2.69878
           20548         2.70143
           20549         2.74721
           20550         2.78864
           20551         2.80283
           20552         2.75726
           20553         2.71652
           20554         2.75905
           20555         2.75728
           20556         2.73901
           20557         2.69960
           20558         2.70334
           20559         2.71918
           20560         2.67066
           20561         2.67476
           20562         2.63600
           20563         2.60870
           20564         2.67363
           20565         2.63599
           20566         2.63921
           20567         2.66347
           20568         2.57205
           20569         2.56124
           20570         2.57075
           20571         2.56713
           20572         2.59095
           20573         2.60054
           20574         2.59237
           20575         2.58345
           20576         2.58893
           20577     332.014E-03
           20578     462.538E-03
           20579     453.479E-03
           20580     448.862E-03
           20581     312.280E-03
           20582     326.009E-03
           20583         2.60402
           20584         2.58853
           20585         2.59613
           20586         2.59312
           20587         2.60891
           20588         2.59526
           20589         2.74180
           20590         2.88515
           20591         2.67493
           20592         2.66439
           20593         2.53697
           20594         2.39504
           20595         2.79106
           20596         2.82306
           20597         2.56326
           20598         2.86098
           20599         2.68045
           20600         2.64287
           20601         2.38831
           20602         2.51380
           20603         2.79807
           20604         2.59673
           20605         6.23201
           20606         6.38803
           20607         6.24975
           20608         6.43343
           20609         6.27624
           20610         6.41520
           20611         5.85704
           20612         6.06853
           20613         5.99934
           20614         6.02836
           20615         5.81834
           20616         6.12492
           20617         6.05975
           20618         5.94505
           20619         5.79954
           20620         5.89512
           20621         5.96885
           20622         5.87612
           20623         6.17216
           20624         6.32819
           20625         6.29055
           20626         6.21245
           20627         6.27269
           20628         2.89714
           20629         2.87835
           20630         2.84993
           20631         2.83790
           20632         2.85712
           20633         2.88549
           20634         2.80345
           20635         2.82284
           20636         2.81109
           20637         2.78627
           20638         2.82884
           20639         2.81722
           20640         2.87871
           20641         2.86581
           20642         2.85601
           20643         2.82338
           20644         2.83400
           20645         2.84380
           20646         2.34782
           20647         2.77987
           20648         2.57380
           20649         2.86503
           20650         2.44519
           20651         2.63817
           20652         2.30109
           20653         2.70313
           20654         2.55764
           20655         3.00033
           20656         2.71369
           20657         2.32709
           20658         2.13542
           20659         2.54736
           20660         2.76854
           20661         2.34528
           20662         2.47908
           20663         1.96296
           20664         1.50533
           20665         1.71304
           20666         1.41322
           20667         1.86217
           20668         1.65875
           20669         1.92007
           20670         2.12687
           20671         2.31146
           20672         5.82949
           20673         5.79496
           20674         5.82519
           20675         5.84319
           20676         5.88120
           20677         5.84685
           20678         5.88820
           20679         5.85383
           20680         5.90931
           20681         5.80109
           20682         5.82897
           20683         5.83063
           20684         5.79471
           20685         5.77499
           20686         5.76915
           20687         5.83872
           20688         5.81163
           20689         5.77994
           20690         5.92624
           20691         5.95851
           20692         5.89528
           20693         5.96211
           20694         5.92394
           20695         5.99132
           20696         5.87217
           20697         5.90143
           20698         5.94866
           20699         5.93566
           20700         5.91493
           20701         5.98064
           20702         2.32278
           20703         2.33103
           20704         2.37034
           20705         2.28903
           20706         2.28263
           20707         2.23960
           20708         2.36680
           20709         2.43378
           20710         2.43005
           20711         2.44392
           20712         2.37633
           20713         2.38008
           20714         2.33726
           20715         2.24234
           20716         2.28565
           20717         2.29798
           20718         2.15071
           20719         2.23268
           20720         2.31588
           20721         2.18787
           20722         2.23646
           20723         2.39040
           20724         2.38706
           20725         2.34109
           20726         2.31947
           20727         2.45196
           20728         2.23895
           20729         2.28933
           20730         5.20077
           20731         5.18016
           20732         5.22226
           20733         5.18587
           20734         5.20679
           20735         5.16235
           20736         5.15429
           20737         5.10870
           20738         5.20087
           20739         5.15285
           20740         5.19788
           20741         5.10512
           20742         5.28298
           20743         5.38267
           20744         5.34325
           20745         5.38768
           20746         5.29144
           20747         5.32892
           20748         5.23979
           20749         5.25646
           20750         5.29989
           20751         5.33798
           20752         5.24473
           20753         5.23650
           20754         5.28183
           20755         5.23800
           20756         5.19534
           20757         5.24771
           20758         1.21889
           20759         1.21430
           20760         1.29363
           20761         1.28786
           20762         1.29380
           20763         1.21385
           20764         1.23202
           20765         1.22960
           20766         1.15639
           20767         1.12385
           20768         1.13084
           20769         1.08407
           20770         1.18902
           20771         1.18130
           20772         1.35764
           20773         1.45999
           20774         1.39254
           20775         1.40470
           20776         1.30127
           20777         1.36803
           20778         1.39938
           20779         1.40133
           20780         1.40581
           20781         1.27091
           20782         1.37346
           20783         1.46036
           20784         1.35754
           20785         1.33736
           20786         1.50558
           20787         1.46957
           20788         5.96566
           20789         6.18263
           20790         6.12909
           20791         6.51888
           20792         6.37841
           20793         6.26328
           20794         6.23172
           20795         6.36339
           20796         6.47005
           20797         6.56221
           20798         6.29887
           20799         6.43574
           20800         6.35620
           20801         6.29645
           20802         6.26586
           20803         6.31915
           20804         6.11682
           20805         6.03720
           20806         6.04420
           20807         5.92916
           20808         6.00331
           20809         5.99294
           20810         6.23029
           20811         6.21446
           20812         6.25180
           20813         6.00603
           20814         5.93136
           20815         6.05618
           20816         6.13530
           20817         6.01484
           20818         1.42089
           20819         2.06268
           20820         2.81551
           20821         3.20547
           20822         2.39028
           20823         1.67439
           20824         1.06334
           20825         1.01699
           20826     930.706E-03
           20827         1.25369
           20828         1.59872
           20829         1.45867
           20830         1.14637
           20831         1.34759
           20832         2.14466
           20833         1.50302
           20834         1.91011
           20835         1.91335
           20836         2.15611
           20837         2.88695
           20838         2.90670
           20839         2.67014
           20840         10.4567
           20841         9.92875
           20842         10.4167
           20843         10.2099
           20844         10.0411
           20845         9.19396
           20846         9.58314
           20847         9.80822
           20848         11.0547
           20849         11.8075
           20850         11.5851
           20851         11.7913
           20852         11.2558
           20853         2.60514
           20854         2.60778
           20855         2.60546
           20856         2.60688
           20857         2.60440
           20858         2.60733
           20859         2.59675
           20860         2.59969
           20861         2.59618
           20862         2.60079
           20863         2.59830
           20864         2.60148
           20865     906.331E-03
           20866     999.303E-03
           20867     841.763E-03
           20868     826.319E-03
           20869     885.755E-03
           20870         2.59350
           20871         2.59871
           20872         2.59794
           20873         2.60169
           20874         2.59683
           20875         2.60272
           20876         2.59937
           20877         2.59609
           20878         2.60015
           20879         2.60068
           20880         2.60354
           20881         2.60394
           20882         2.60620
           20883         2.60396
           20884     469.435E-03
           20885     528.405E-03
           20886     485.059E-03
           20887     534.829E-03
           20888     475.691E-03
           20889     627.446E-03
           20890     644.162E-03
           20891     712.715E-03
           20892     646.554E-03
           20893     629.927E-03
           20894     682.230E-03
           20895     772.433E-03
           20896     667.043E-03
           20897     684.064E-03
           20898     595.944E-03
           20899     699.417E-03
           20900     499.397E-03
           20901     483.685E-03
           20902     679.464E-03
           20903     702.204E-03
           20904     734.092E-03
           20905     575.096E-03
           20906     591.488E-03
           20907     656.917E-03
           20908         5.90107
           20909         6.05545
           20910         5.88793
           20911         2.12223
           20912         2.01887
           20913         2.00894
           20914         2.01707
           20915         2.12052
           20916         2.13386
           20917     325.319E-03
           20918     405.765E-03
           20919     343.562E-03
           20920     363.697E-03
           20921     284.782E-03
           20922     344.828E-03
           20923     195.095E-03
           20924     193.975E-03
           20925     267.984E-03
           20926     328.114E-03
           20927     252.813E-03
           20928     99.4293E-03
           20929     117.539E-03
           20930     95.8530E-03
           20931     190.469E-03
           20932     170.984E-03
           20933     905.197E-03
           20934         1.00340
           20935         1.01771
           20936     966.990E-03
           20937     904.891E-03
           20938     899.090E-03
           20939     296.811E-03
           20940     374.903E-03
           20941     387.642E-03
           20942     308.248E-03
           20943     339.798E-03
           20944     189.118E-03
           20945     230.683E-03
           20946     309.929E-03
           20947         1.35585
           20948         1.46902
           20949         1.50063
           20950     817.302E-03
           20951     979.970E-03
           20952     520.683E-03
           20953     628.311E-03
           20954     685.645E-03
           20955     810.685E-03
           20956     686.912E-03
           20957     982.474E-03
           20958         1.50521
           20959         1.61016
           20960         1.09636
           20961         1.18518
           20962         1.24340
           20963     933.888E-03
           20964         1.00980
           20965         1.98120
           20966         1.91615
           20967         1.97054
           20968         1.93645
           20969         2.00130
           20970         1.94226
           20971         1.92152
           20972         1.98814
           20973         1.95858
           20974         2.01402
           20975         1.94749
           20976         2.03806
           20977         2.08475
           20978         2.09906
           20979         2.05733
           20980         1.99775
           20981         1.97905
           20982         2.67679
           20983         2.67471
           20984         2.67779
           20985         2.67629
           20986         2.67839
           20987         2.67556
           20988         2.67916
           20989         2.68189
           20990         2.68301
           20991         2.68393
           20992         2.68090
           20993         2.68026
           20994         2.68014
           20995         2.67906
           20996         2.67815
           20997         2.68178
           20998         2.68498
           20999         2.68091
           21000         2.67683
           21001         2.67812
           21002         2.67546
           21003         3.58619
           21004         3.66816
           21005         3.56993
           21006         3.60928
           21007         3.52656
           21008         3.62440
           21009         3.64537
           21010         3.54645
           21011         3.60078
           21012         3.54151
           21013         3.63999
           21014         5.74564
           21015         5.72013
           21016         5.74089
           21017         5.73725
           21018         5.76295
           21019         5.74064
           21020         5.70519
           21021         5.72802
           21022         5.72273
           21023         5.73445
           21024         5.71822
           21025         5.71490
           21026         2.51744
           21027         2.52745
           21028         2.50425
           21029         2.52034
           21030         2.51116
           21031         2.53306
           21032         5.67604
           21033         5.68360
           21034         5.68818
           21035         5.71741
           21036         5.70375
           21037         5.70114
           21038         5.69839
           21039         5.69886
           21040         5.68732
           21041         5.69878
           21042         5.68793
           21043         5.68414
           21044         5.73005
           21045         5.74616
           21046         5.72538
           21047         5.71430
           21048         5.71703
           21049         5.77463
           21050         5.75234
           21051         5.76946
           21052         5.72674
           21053         5.74482
           21054         5.74249
           21055         5.73123
           21056         5.73621
           21057         5.30268
           21058         5.17759
           21059         5.28148
           21060         5.22068
           21061         5.33876
           21062         5.24328
           21063         5.36441
           21064         5.24175
           21065         5.19439
           21066         5.32409
           21067         5.28638
           21068         5.34024
           21069         5.25667
           21070         5.37234
           21071         1.56924
           21072         1.45315
           21073         1.18616
           21074         1.24446
           21075         1.51035
           21076         5.54947
           21077         5.72478
           21078         5.56510
           21079         5.60233
           21080         5.43002
           21081         5.58449
           21082         5.62564
           21083         5.47417
           21084         5.64884
           21085         5.53603
           21086         5.50451
           21087         5.54926
           21088         5.49587
           21089         5.44553
           21090         5.46772
           21091         5.52694
           21092         5.57768
           21093         5.45023
           21094         5.39595
           21095         5.37398
           21096         1.05899
           21097     936.454E-03
           21098         1.00465
           21099         1.05647
           21100     780.864E-03
           21101     829.234E-03
           21102     876.264E-03
           21103     827.487E-03
           21104     689.167E-03
           21105         1.02017
           21106     695.595E-03
           21107     743.499E-03
           21108     514.275E-03
           21109     731.560E-03
           21110         2.26299
           21111         2.19743
           21112         2.24764
           21113         2.23992
           21114         2.30265
           21115         2.25463
           21116     969.188E-03
           21117     873.372E-03
           21118     957.051E-03
           21119     986.761E-03
           21120         1.08444
           21121     999.693E-03
           21122         1.00509
           21123         1.09088
           21124         1.00061
           21125     965.334E-03
           21126         1.20679
           21127         1.16818
           21128         1.26830
           21129         1.15503
           21130         1.19142
           21131         1.22614
           21132         1.12350
           21133         1.15887
           21134         1.22797
           21135         1.11594
           21136         1.21773
           21137         7.05150
           21138         7.11188
           21139         6.99588
           21140         6.80518
           21141         6.83642
           21142         6.70319
           21143         6.85900
           21144         6.57678
           21145         6.70939
           21146         6.55628
           21147         6.81319
           21148         6.68038
           21149         6.88823
           21150         7.02628
           21151         6.84274
           21152         7.04460
           21153         6.90668
           21154         6.88447
           21155         3.57192
           21156         3.54440
           21157         3.44699
           21158         3.48096
           21159         3.50643
           21160         3.60665
           21161         3.65483
           21162         3.55455
           21163         3.52641
           21164         3.57764
           21165         3.64518
           21166         3.56871
           21167         3.48899
           21168         3.56284
           21169         1.15631
           21170     929.273E-03
           21171         1.01800
           21172         3.45362
           21173         3.32702
           21174         3.34599
           21175         3.21627
           21176         3.33826
           21177         3.31823
           21178         3.55119
           21179         3.54136
           21180         2.41676
           21181         2.42636
           21182         2.37978
           21183         2.40841
           21184         2.39873
           21185         2.44524
           21186         2.37932
           21187         2.42606
           21188         2.40924
           21189         2.35975
           21190         2.34892
           21191         2.31976
           21192         2.33996
           21193         2.35060
           21194         2.36882
           21195         2.38538
           21196         2.38582
           21197         2.41911
           21198         2.40319
           21199         2.40279
           21200         2.62165
           21201         2.61724
           21202         2.62271
           21203         2.61704
           21204         2.62131
           21205         2.61574
           21206         2.63228
           21207         2.63808
           21208         2.63365
           21209         2.63432
           21210         2.62851
           21211         2.63293
           21212         2.64006
           21213         2.63381
           21214         2.63458
           21215         2.63441
           21216         2.62863
           21217         2.63461
           21218         2.61750
           21219         2.62333
           21220         2.62405
           21221         2.62225
           21222         2.62396
           21223         2.62908
           21224         2.62193
           21225         2.62220
           21226         2.67695
           21227         2.72932
           21228         2.53319
           21229         2.46985
           21230         2.42268
           21231         2.61596
           21232         1.38657
           21233         1.60164
           21234         1.44685
           21235         1.58030
           21236         1.36805
           21237         1.52108
           21238         1.50323
           21239         1.29615
           21240         1.42428
           21241         4.60339
           21242         4.63626
           21243         4.45234
           21244         4.51652
           21245         4.48377
           21246         4.66859
           21247         1.44154
           21248         1.31082
           21249         1.26911
           21250         1.19912
           21251         1.32716
           21252         5.48844
           21253         5.47391
           21254         5.47146
           21255         5.50174
           21256         5.51614
           21257         5.51800
           21258         5.56870
           21259         5.53756
           21260         5.57299
           21261         5.51948
           21262         5.54903
           21263         5.55011
           21264         5.49695
           21265         5.53029
           21266         5.46403
           21267         5.44916
           21268         5.46563
           21269         6.38216
           21270         6.32262
           21271         6.35448
           21272         6.48479
           21273         6.54800
           21274         6.50923
           21275         6.25562
           21276         6.10218
           21277         6.24839
           21278         6.13473
           21279         6.29480
           21280         6.13917
           21281         6.28221
           21282         6.12315
           21283         6.21618
           21284         6.25080
           21285         6.54928
           21286         6.53654
           21287         6.40580
           21288         6.54641
           21289         6.55476
           21290         6.16665
           21291         6.27790
           21292         6.28460
           21293         1.07983
           21294         1.13026
           21295     990.940E-03
           21296         1.36504
           21297         1.32514
           21298         1.47023
           21299         5.45989
           21300         5.39582
           21301         5.44118
           21302         5.43593
           21303         5.50326
           21304         5.45476
           21305         5.29958
           21306         5.31507
           21307         5.34861
           21308         5.37075
           21309         5.35773
           21310         5.31903
           21311         5.35670
           21312         5.41663
           21313         5.38009
           21314         5.32781
           21315         5.21515
           21316         5.23552
           21317         5.16571
           21318         5.26780
           21319         5.25010
           21320         5.34087
           21321         6.98381
           21322         7.44763
           21323         6.69782
           21324         6.63987
           21325         6.25969
           21326         6.95945
           21327         5.80542
           21328         5.74031
           21329         6.25656
           21330         5.72570
           21331         5.80139
           21332         5.31428
           21333         5.62442
           21334         6.15115
           21335         5.64153
           21336         5.73460
           21337         6.08710
           21338         7.54409
           21339         7.09525
           21340         6.90341
           21341         6.51412
           21342         7.22513
           21343         6.77187
           21344         7.63611
           21345         7.48109
           21346         6.77679
           21347         6.13858
           21348         6.57251
           21349         2.77503
           21350         2.78740
           21351         2.77645
           21352         2.77908
           21353         2.76788
           21354         2.77798
           21355         2.75683
           21356         2.75963
           21357         2.76745
           21358         2.75670
           21359         2.75395
           21360         2.74754
           21361         2.77873
           21362         2.79321
           21363         2.78042
           21364         2.78320
           21365         2.79516
           21366         2.77700
           21367         2.76571
           21368         2.74492
           21369         2.76208
           21370         2.74752
           21371         2.75025
           21372         2.75813
           21373         2.73357
           21374         2.73134
           21375         2.72317
           21376         2.22756
           21377         2.24094
           21378         2.25832
           21379         2.29455
           21380         2.28314
           21381         2.26347
           21382         2.22235
           21383         2.22406
           21384         2.24837
           21385         2.27743
           21386         2.27448
           21387         2.25110
           21388         2.21071
           21389         2.23109
           21390         2.24211
           21391         2.24119
           21392         2.28376
           21393         2.29223
           21394         2.29451
           21395         2.23962
           21396         2.31772
           21397         2.33575
           21398         2.32061
           21399         2.29219
           21400         1.61945
           21401         1.54436
           21402         1.55748
           21403         2.27617
           21404         2.32582
           21405     590.557E-03
           21406     503.679E-03
           21407     542.458E-03
           21408     514.442E-03
           21409     602.200E-03
           21410     561.498E-03
           21411     670.477E-03
           21412     774.680E-03
           21413     735.617E-03
           21414     813.537E-03
           21415     707.497E-03
           21416     749.808E-03
           21417     801.564E-03
           21418     695.488E-03
           21419     720.958E-03
           21420     655.855E-03
           21421     762.638E-03
           21422     593.733E-03
           21423     616.468E-03
           21424     662.082E-03
           21425     645.375E-03
           21426     588.599E-03
           21427     597.444E-03
           21428     640.384E-03
           21429     680.749E-03
           21430     509.895E-03
           21431     495.421E-03
           21432     582.466E-03
           21433     548.568E-03
           21434     663.625E-03
           21435     737.515E-03
           21436         2.49011
           21437         2.50340
           21438         2.48098
           21439         2.46555
           21440         2.45192
           21441         2.47545
           21442     911.013E-03
           21443     745.187E-03
           21444     729.228E-03
           21445     886.146E-03
           21446     961.969E-03
           21447         2.43277
           21448         2.63112
           21449         2.39294
           21450         2.56133
           21451         2.36372
           21452         2.60262
           21453         2.53551
           21454         2.29849
           21455         2.49437
           21456         2.33873
           21457         2.17873
           21458         2.36951
           21459         2.20385
           21460         2.17215
           21461         2.06730
           21462         2.09031
           21463         1.90049
           21464         2.00605
           21465         1.98080
           21466         1.99976
           21467         2.19111
           21468         2.09312
           21469         2.09857
           21470         1.90832
           21471         2.28197
           21472         2.28547
           21473         2.18678
           21474         2.09919
           21475         2.66044
           21476         2.65093
           21477         2.65259
           21478         2.66517
           21479         2.67428
           21480         2.67468
           21481         2.64825
           21482         2.65811
           21483         2.66539
           21484         2.66726
           21485         2.65779
           21486         2.64957
           21487         2.58827
           21488         2.54388
           21489         2.64943
           21490         2.70933
           21491         2.74986
           21492         2.64865
           21493         2.78808
           21494         2.85847
           21495         3.01562
           21496         2.83440
           21497         2.93699
           21498         2.55188
           21499         2.55119
           21500         2.68847
           21501         2.62417
           21502         2.62755
           21503         2.49213
           21504         2.71359
           21505         2.81071
           21506         2.72484
           21507         2.65094
           21508         2.63222
           21509         2.62162
           21510         2.62866
           21511         2.63177
           21512         2.64239
           21513         2.63520
           21514         2.59606
           21515         2.61594
           21516         2.60082
           21517         2.61088
           21518         2.58884
           21519         2.59642
           21520         2.58563
           21521         2.60784
           21522         2.60809
           21523         2.60600
           21524         2.61561
           21525         2.59409
           21526         2.61037
           21527         2.61930
           21528         2.61751
           21529         2.63660
           21530         2.64689
           21531         2.63862
           21532         2.64294
           21533         2.63408
           21534         2.64127
           21535         2.62804
           21536         2.62244
           21537         2.62229
           21538         2.62815
           21539         2.63350
           21540         2.64262
           21541         2.63679
           21542         2.14395
           21543         2.10599
           21544         2.11867
           21545         2.10697
           21546         2.14503
           21547         2.13145
           21548         2.13248
           21549         2.14346
           21550         2.15614
           21551         2.16779
           21552         2.15631
           21553         2.14866
           21554         2.16453
           21555         2.17053
           21556         2.19379
           21557         2.17821
           21558         2.17062
           21559     590.859E-03
           21560     649.254E-03
           21561     755.484E-03
           21562     712.715E-03
           21563         2.16986
           21564         2.18560
           21565         2.15977
           21566         2.15781
           21567     96.0573E-03
           21568     81.2686E-03
           21569     68.6310E-03
           21570     55.4760E-03
           21571     69.0167E-03
           21572     81.8315E-03
           21573         3.79316
           21574         3.88351
           21575         3.91186
           21576         4.00047
           21577         3.90713
           21578         3.87794
           21579         3.80967
           21580         3.90925
           21581         3.91861
           21582         4.01333
           21583         3.90089
           21584         3.77963
           21585         3.76969
           21586         3.70371
           21587         3.71195
           21588         3.67328
           21589         3.85074
           21590         3.94044
           21591         3.94637
           21592         2.25464
           21593         2.27375
           21594         2.25889
           21595         2.28836
           21596         2.27058
           21597         2.28416
           21598     507.197E-03
           21599     472.526E-03
           21600     427.593E-03
           21601     287.334E-03
           21602     360.496E-03
           21603     415.345E-03
           21604         2.32054
           21605         2.34338
           21606         2.33462
           21607         2.32829
           21608         2.30458
           21609         2.31487
           21610         2.34409
           21611         2.32142
           21612         2.31584
           21613         2.55278
           21614         2.53976
           21615         2.52613
           21616         2.52291
           21617         2.53556
           21618         2.54860
           21619         2.34313
           21620         2.35652
           21621         2.32592
           21622         2.34927
           21623         2.33589
           21624         2.36566
           21625         2.35721
           21626         2.34454
           21627         7.12917
           21628         7.06057
           21629         7.02703
           21630         7.31256
           21631         7.39008
           21632         7.42565
           21633         7.71007
           21634         7.81995
           21635         7.65926
           21636         7.58207
           21637         7.84931
           21638         7.27960
           21639         6.97871
           21640         7.03238
           21641         7.29383
           21642         7.37469
           21643         7.68910
           21644         7.67186
           21645         7.64549
           21646         7.54357
           21647         6.88199
           21648         6.89328
           21649         6.90052
           21650         6.88218
           21651         6.67688
           21652         7.13495
           21653         6.91746
           21654         6.71438
           21655         6.92115
           21656         6.96534
           21657         7.44130
           21658         7.63471
           21659         7.44955
           21660         7.62723
           21661         7.43441
           21662         7.62154
           21663         7.16484
           21664         7.31681
           21665         7.27068
           21666         4.40790
           21667         4.31370
           21668         4.26802
           21669         4.17898
           21670         4.27210
           21671         4.31733
           21672         4.37486
           21673         4.44544
           21674         4.43211
           21675         4.42883
           21676         4.35868
           21677         4.37190
           21678         4.55383
           21679         4.48277
           21680         4.49501
           21681         4.37360
           21682         4.44416
           21683         4.48280
           21684         4.55377
           21685         4.49632
           21686         2.42204
           21687         2.44661
           21688         2.43545
           21689         2.45599
           21690         2.43187
           21691         2.44409
           21692         4.49964
           21693         4.39737
           21694         4.53652
           21695         4.32281
           21696         4.42280
           21697         4.28303
           21698         4.57738
           21699         4.60134
           21700         4.65803
           21701         4.55874
           21702         4.53249
           21703         4.47274
           21704         4.39242
           21705         4.59624
           21706         4.69785
           21707         4.56297
           21708         4.36335
           21709         4.31414
           21710         4.80047
           21711         4.77914
           21712         4.61588
           21713         4.67472
           21714         4.86290
           21715         4.75589
           21716         4.72494
           21717         4.79004
           21718         4.72472
           21719         4.73708
           21720         4.79880
           21721         4.82803
           21722         6.96761
           21723         6.97828
           21724         7.14546
           21725         6.87874
           21726         6.86655
           21727         6.70769
           21728         6.99285
           21729         6.73861
           21730         6.63017
           21731         6.87945
           21732         6.75161
           21733         7.12911
           21734         7.40203
           21735         7.40055
           21736         7.53626
           21737         7.25797
           21738         7.26191
           21739         6.64987
           21740         6.88545
           21741         7.00606
           21742         6.76523
           21743         6.77032
           21744         7.26143
           21745         7.52137
           21746         7.38419
           21747         7.66816
           21748         7.53977
           21749         7.48648
           21750         7.22960
           21751         7.36230
           21752         7.51965
           21753         7.39685
           21754         7.23633
           21755         7.25073
           21756         7.49301
           21757         5.66234
           21758         6.00500
           21759         6.18756
           21760         6.46042
           21761         6.12698
           21762         5.91469
           21763         5.41122
           21764         5.37049
           21765         5.52076
           21766         5.56381
           21767         5.16301
           21768         7.05983
           21769         7.08630
           21770         6.41803
           21771         6.50493
           21772         6.44097
           21773         7.13244
           21774     964.916E-03
           21775     839.175E-03
           21776         6.15263
           21777         6.09133
           21778     633.988E-03
           21779     696.173E-03
           21780     675.336E-03
           21781     706.106E-03
           21782     639.949E-03
           21783     660.621E-03
           21784         2.41541
           21785         2.40557
           21786         2.40069
           21787         2.41116
           21788         2.42054
           21789         2.42446
           21790     722.563E-03
           21791     683.030E-03
           21792         2.60624
           21793         2.60682
           21794         2.60738
           21795         2.60867
           21796         2.60850
           21797         2.60776
           21798         2.61031
           21799         2.60973
           21800         2.60693
           21801         2.60830
           21802         2.60823
           21803         2.61430
           21804         2.61296
           21805         2.61109
           21806         2.61056
           21807         2.61113
           21808         2.61323
           21809         1.32644
           21810         1.11380
           21811         1.65606
           21812     895.997E-03
           21813     893.747E-03
           21814         1.02776
           21815         2.60904
           21816         2.60713
           21817         2.60847
           21818         2.60645
           21819         2.60817
           21820         2.61063
           21821         2.60975
           21822         2.61040
           21823         2.61133
           21824         2.61175
           21825         2.61164
           21826         2.61488
           21827         2.61133
           21828         2.61311
           21829         2.61171
           21830         2.60982
           21831         2.61126
           21832         2.60263
           21833         2.59937
           21834         2.60309
           21835         2.60516
           21836         2.60811
           21837         2.60424
           21838         2.59673
           21839         2.60207
           21840         2.59871
           21841         2.59723
           21842         2.61052
           21843         2.61121
           21844         2.60980
           21845         2.60762
           21846         2.60460
           21847         2.60317
           21848         2.61027
           21849         2.60976
           21850         2.60822
           21851         2.60544
           21852         2.60697
           21853         1.04664
           21854         1.12848
           21855         1.08955
           21856         1.09802
           21857         1.01571
           21858         1.05856
           21859     922.942E-03
           21860     875.606E-03
           21861     959.235E-03
           21862     906.052E-03
           21863     953.141E-03
           21864     880.939E-03
           21865         1.11317
           21866         1.03085
           21867         1.10784
           21868         1.08463
           21869         1.16844
           21870         1.01669
           21871     985.648E-03
           21872         1.03359
           21873         1.06147
           21874         1.09233
           21875         1.04440
           21876         1.01856
           21877         1.06870
           21878     986.962E-03
           21879     938.060E-03
           21880     989.047E-03
           21881     955.200E-03
           21882     893.598E-03
           21883     945.763E-03
           21884     924.219E-03
           21885     908.820E-03
           21886     986.343E-03
           21887     457.493E-03
           21888     387.675E-03
           21889     398.645E-03
           21890     541.355E-03
           21891     449.948E-03
           21892     802.264E-03
           21893     768.706E-03
           21894         1.00473
           21895     806.975E-03
           21896     843.682E-03
           21897     658.146E-03
           21898     840.291E-03
           21899     784.797E-03
           21900         1.02276
           21901         1.02251
           21902         1.04127
           21903     839.549E-03
           21904     668.783E-03
           21905     718.454E-03
           21906     819.603E-03
           21907     771.202E-03
           21908     697.708E-03
           21909     811.074E-03
           21910     800.689E-03
           21911     902.326E-03
           21912     785.158E-03
           21913     794.404E-03
           21914     825.655E-03
           21915     810.015E-03
           21916     721.745E-03
           21917         1.21306
           21918         1.08359
           21919         1.04326
           21920         1.03140
           21921         1.16265
           21922         1.20275
           21923         1.02067
           21924         1.02880
           21925     948.817E-03
           21926         2.67294
           21927         2.67187
           21928         2.67230
           21929         2.67735
           21930         2.67873
           21931         2.67842
           21932         2.67469
           21933         2.67054
           21934         2.66934
           21935         2.67033
           21936         2.67459
           21937         2.67549
           21938         2.68049
           21939         2.67905
           21940         2.68514
           21941         2.67891
           21942         2.68082
           21943         2.68016
           21944         2.68058
           21945         2.68497
           21946         1.00859
           21947         1.16175
           21948     975.204E-03
           21949     969.806E-03
           21950     813.867E-03
           21951     990.939E-03
           21952         1.01045
           21953         1.16355
           21954         1.08574
           21955     936.628E-03
           21956         1.13082
           21957     814.597E-03
           21958     968.487E-03
           21959     992.410E-03
           21960         2.99485
           21961         3.12019
           21962         2.98084
           21963         3.05397
           21964         2.93045
           21965         3.06677
           21966         2.91452
           21967         3.04713
           21968         3.02261
           21969         2.89378
           21970         2.94070
           21971         2.87440
           21972         2.84527
           21973         2.89305
           21974         2.85892
           21975         2.92667
           21976         2.98624
           21977         2.95673
           21978         2.91525
           21979         2.95110
           21980         2.92788
           21981         2.97141
           21982         2.93309
           21983         2.97509
           21984         2.94091
           21985         2.91937
           21986         2.93210
           21987         2.93791
           21988         3.03769
           21989         3.01496
           21990         3.03388
           21991         3.00392
           21992         3.02617
           21993         3.00744
           21994         2.97770
           21995         2.98123
           21996         5.27687
           21997         5.30158
           21998         5.33598
           21999         5.28119
           22000         5.25553
           22001         5.22591
           22002         5.33455
           22003         5.26254
           22004         5.28145
           22005         5.17992
           22006         5.11620
           22007         5.13492
           22008         5.11662
           22009         5.18479
           22010         5.16364
           22011         5.08681
           22012         5.15729
           22013         5.13658
           22014         2.52826
           22015         2.53581
           22016         2.54317
           22017         2.54391
           22018         2.53732
           22019         2.52947
           22020         2.53557
           22021         2.52810
           22022         2.51628
           22023         2.52570
           22024         2.52367
           22025         2.53956
           22026         2.55532
           22027         2.55285
           22028         2.57199
           22029         2.55566
           22030         2.55940
           22031         2.55577
           22032         2.56852
           22033         2.55239
           22034         2.55222
           22035         2.53923
           22036         2.52423
           22037         2.51496
           22038         2.52403
           22039         2.62177
           22040         2.62043
           22041         2.62354
           22042         2.61964
           22043         2.62101
           22044         2.61835
           22045         2.61968
           22046         2.62269
           22047         2.62162
           22048         2.62518
           22049         2.62785
           22050         2.62803
           22051         2.63277
           22052         2.62906
           22053         2.62864
           22054         2.62142
           22055         2.62037
           22056         2.62360
           22057         2.62334
           22058         2.61973
           22059         2.62810
           22060         2.62731
           22061         2.62478
           22062         2.62300
           22063         2.62609
           22064         2.63074
           22065         2.63129
           22066         2.63020
           22067         2.62708
           22068         2.63493
           22069         2.63366
           22070         2.63492
           22071         4.60696
           22072         4.54352
           22073         4.44397
           22074         4.44784
           22075         4.50705
           22076         4.60869
           22077         4.55471
           22078         4.51473
           22079         4.60553
           22080         4.43132
           22081         4.57478
           22082         4.46807
           22083         4.49002
           22084         4.41176
           22085         4.51757
           22086         4.49590
           22087         1.28711
           22088         1.12841
           22089         1.08882
           22090     961.154E-03
           22091         1.11221
           22092         1.15478
           22093         2.15361
           22094         2.01959
           22095         2.09410
           22096         2.02402
           22097         2.08402
           22098         2.00852
           22099         2.14282
           22100         1.13668
           22101         1.17780
           22102         1.10556
           22103         1.07245
           22104         1.13133
           22105         1.18913
           22106         1.14741
           22107         1.19238
           22108         1.15620
           22109         1.21154
           22110         1.22902
           22111         1.29533
           22112         1.23911
           22113         1.25510
           22114         1.24460
           22115         1.25765
           22116         1.24366
           22117         1.20085
           22118     600.484E-03
           22119     715.221E-03
           22120     720.561E-03
           22121     736.406E-03
           22122     621.625E-03
           22123     614.369E-03
           22124     734.517E-03
           22125     895.583E-03
           22126     755.850E-03
           22127     749.241E-03
           22128     600.002E-03
           22129     726.275E-03
           22130     492.543E-03
           22131     400.856E-03
           22132     509.132E-03
           22133     501.026E-03
           22134     565.989E-03
           22135     370.374E-03
           22136     313.577E-03
           22137     320.814E-03
           22138     263.403E-03
           22139     319.610E-03
           22140     315.637E-03
           22141     424.365E-03
           22142     434.153E-03
           22143     366.847E-03
           22144     493.260E-03
           22145     551.977E-03
           22146     452.362E-03
           22147     494.262E-03
           22148     552.383E-03
           22149     416.959E-03
           22150     412.779E-03
           22151     356.727E-03
           22152     493.209E-03
           22153     538.931E-03
           22154     48.8855E-03
           22155     72.1152E-03
           22156     68.0342E-03
           22157     97.9803E-03
           22158     41.8485E-03
           22159     42.5719E-03
           22160     51.3561E-03
           22161     43.6600E-03
           22162     43.8813E-03
           22163     39.1747E-03
           22164     41.8712E-03
           22165     44.4778E-03
           22166     60.7624E-03
           22167         5.44158
           22168         5.50919
           22169         5.39662
           22170         5.47194
           22171         5.41601
           22172         5.51557
           22173         5.28082
           22174         5.20130
           22175         5.27267
           22176         5.20627
           22177         5.28433
           22178         5.21642
           22179         5.36200
           22180         5.33258
           22181         5.31239
           22182         5.25593
           22183         5.30456
           22184         1.57267
           22185         1.64991
           22186         1.74626
           22187         1.71402
           22188         1.64071
           22189         1.54019
           22190         5.19007
           22191         5.15662
           22192         5.14074
           22193         5.24490
           22194         1.21954
           22195         1.16415
           22196         1.16909
           22197         1.29517
           22198         1.34881
           22199         1.34711
           22200     922.751E-03
           22201     868.505E-03
           22202     938.234E-03
           22203     976.976E-03
           22204         1.03537
           22205     966.248E-03
           22206         1.09374
           22207         1.15218
           22208         1.05272
           22209     993.724E-03
           22210         1.11009
           22211         1.14984
           22212         1.03612
           22213         1.13305
           22214         1.24798
           22215         1.17367
           22216         1.25735
           22217         1.35641
           22218         1.33051
           22219         5.73355
           22220         5.74039
           22221         5.78256
           22222         5.71747
           22223         5.70704
           22224         5.67082
           22225         5.74895
           22226         5.68038
           22227         5.70681
           22228         5.61792
           22229         5.65457
           22230         5.65309
           22231         5.61710
           22232         5.59370
           22233         5.62527
           22234         5.64559
           22235         5.66440
           22236         5.60640
           22237         5.58605
           22238         5.56527
           22239         5.52229
           22240         5.51863
           22241         5.57465
           22242         5.57638
           22243         5.50057
           22244         5.56653
           22245         5.59905
           22246         5.61107
           22247         5.58457
           22248         1.49756
           22249         1.61332
           22250         1.35809
           22251         1.49687
           22252         1.38470
           22253         1.64299
           22254         2.39988
           22255         2.40120
           22256         2.41286
           22257         2.42374
           22258         2.42168
           22259         3.18071
           22260         3.06957
           22261         3.13855
           22262         3.16511
           22263         3.28279
           22264         3.20878
           22265         3.26900
           22266         3.37436
           22267         3.36007
           22268         3.47852
           22269         3.37094
           22270         3.38703
           22271         3.33939
           22272         3.44167
           22273         3.35217
           22274         3.28323
           22275         3.18788
           22276         3.27063
           22277         3.03464
           22278         3.09821
           22279         3.06127
           22280         3.21330
           22281         3.15072
           22282         3.62383
           22283         3.63835
           22284         3.72272
           22285         3.84158
           22286         3.82362
           22287         3.74022
           22288         1.30668
           22289         1.26578
           22290         1.10300
           22291         1.54074
           22292         3.51380
           22293         3.60296
           22294         3.61336
           22295         1.93506
           22296         2.00465
           22297         1.97477
           22298         2.02536
           22299         1.95400
           22300         1.98502
           22301         1.87349
           22302         1.80895
           22303         1.84005
           22304         1.81992
           22305         1.88392
           22306         1.85249
           22307         2.02046
           22308         1.94726
           22309         1.99802
           22310         1.94736
           22311         2.02060
           22312         7.67473
           22313         7.49278
           22314         7.46981
           22315         7.23170
           22316         7.39984
           22317         7.42256
           22318         6.80196
           22319         7.06022
           22320         6.90184
           22321         7.06433
           22322         6.80832
           22323         6.96318
           22324         6.98527
           22325         6.61115
           22326         6.76135
           22327         6.54157
           22328         6.90478
           22329         6.74736
           22330         7.42286
           22331         7.32105
           22332         6.99178
           22333         7.09537
           22334         7.35541
           22335         7.04270
           22336         6.87628
           22337         7.11934
           22338         7.29670
           22339         7.06974
           22340         7.05730
           22341         7.31725
           22342         7.24671
           22343         6.97740
           22344         7.32026
           22345         7.32395
           22346         2.57292
           22347         2.61187
           22348         2.62325
           22349         2.57442
           22350         2.53568
           22351         2.52839
           22352         2.45934
           22353         2.37110
           22354         2.40257
           22355         2.37639
           22356         2.46200
           22357         2.43014
           22358         2.37762
           22359         2.39982
           22360         2.36991
           22361         2.45107
           22362         2.42650
           22363         2.48833
           22364         2.49925
           22365         2.43315
           22366         2.40099
           22367         2.50394
           22368         2.53572
           22369         2.47841
           22370         2.59463
           22371         2.53027
           22372         2.49836
           22373         2.56519
           22374         2.59531
           22375         2.47828
           22376         2.49758
           22377         2.45368
           22378         2.39532
           22379         4.44136
           22380         4.50610
           22381         4.36911
           22382         4.43075
           22383         4.36628
           22384         4.50549
           22385         4.48184
           22386         4.41730
           22387         4.55977
           22388         4.22607
           22389         4.25782
           22390         4.33209
           22391         4.40013
           22392         4.29342
           22393         4.22110
           22394         4.14777
           22395         4.28562
           22396         4.16993
           22397         4.24455
           22398         4.27410
           22399         2.88001
           22400         2.86777
           22401         2.84284
           22402         2.71195
           22403         2.85630
           22404         2.76842
           22405         2.77490
           22406         2.74267
           22407         2.84834
           22408         2.84377
           22409         2.87984
           22410         2.83940
           22411         2.58733
           22412         2.46089
           22413         2.60370
           22414         2.60009
           22415         2.73568
           22416         2.58752
           22417         2.57788
           22418         2.51793
           22419         2.44856
           22420         2.84322
           22421         2.86507
           22422         2.49362
           22423         2.61071
           22424         2.38874
           22425         2.58993
           22426         2.46985
           22427         2.69360
           22428         2.34014
           22429         2.06066
           22430         2.14273
           22431         2.07437
           22432         2.34703
           22433         2.26064
           22434         2.33919
           22435         2.55933
           22436         2.60615
           22437         2.38383
           22438         2.45209
           22439         2.32865
           22440         2.21730
           22441         2.28875
           22442         2.14846
           22443         1.95218
           22444         1.98152
           22445         2.17688
           22446         2.05342
           22447         2.27682
           22448         2.16628
           22449         2.11130
           22450     230.345E-03
           22451     211.449E-03
           22452     276.143E-03
           22453     243.503E-03
           22454     261.796E-03
           22455     198.392E-03
           22456     272.952E-03
           22457     206.250E-03
           22458     228.259E-03
           22459     163.723E-03
           22460     208.470E-03
           22461     250.730E-03
           22462     187.893E-03
           22463     218.759E-03
           22464     287.165E-03
           22465     264.855E-03
           22466     309.123E-03
           22467     331.266E-03
           22468     323.489E-03
           22469     229.381E-03
           22470         3.09727
           22471         3.17237
           22472         3.10999
           22473         3.09648
           22474         3.01928
           22475         3.08133
           22476         2.98973
           22477         2.92371
           22478         2.96512
           22479         2.88797
           22480         2.95271
           22481         2.91363
           22482         3.00549
           22483         2.92582
           22484         2.91341
           22485         2.99052
           22486         2.96217
           22487         1.79529
           22488         1.89902
           22489         1.71163
           22490         1.82172
           22491         1.73263
           22492         1.91423
           22493         1.74508
           22494         1.87469
           22495         1.66872
           22496         1.54627
           22497         1.68525
           22498         1.71157
           22499         1.89780
           22500         1.91246
           22501         1.73088
           22502         1.82029
           22503         1.68225
           22504         1.54309
           22505         1.66368
           22506         1.87310
           22507         3.96199
           22508         3.49943
           22509         3.44731
           22510         3.30814
           22511         3.75906
           22512         3.80593
           22513         3.97501
           22514         4.35541
           22515         4.27854
           22516         4.63150
           22517         4.25166
           22518         4.31908
           22519         4.11015
           22520         4.47111
           22521         4.34455
           22522         3.96004
           22523         4.14431
           22524         3.73004
           22525         3.79379
           22526         3.53951
           22527         3.47865
           22528         3.29124
           22529         3.02138
           22530         3.13259
           22531         3.59678
           22532         3.16344
           22533         4.21973
           22534         4.16655
           22535         4.12459
           22536         4.22085
           22537         4.27412
           22538         4.31863
           22539         4.10548
           22540         3.78300
           22541         4.88332
           22542         4.82631
           22543         4.95077
           22544         4.96376
           22545         5.01145
           22546         4.88875
           22547         5.05298
           22548         5.08501
           22549         5.10026
           22550         5.11595
           22551         5.09991
           22552         5.05342
           22553         5.15928
           22554         5.04680
           22555         5.09959
           22556         5.78257
           22557         5.75281
           22558         5.79810
           22559         5.78094
           22560         5.81435
           22561         5.76484
           22562         5.81253
           22563         5.77934
           22564         5.79827
           22565         5.82709
           22566         5.86032
           22567         5.84217
           22568         5.76232
           22569         5.78145
           22570         5.80044
           22571         5.75541
           22572         5.78140
           22573         5.84128
           22574         5.85730
           22575         5.82485
           22576         4.13757
           22577         4.23124
           22578         4.06755
           22579         4.12657
           22580         4.03733
           22581         4.40145
           22582         4.42338
           22583         4.31476
           22584         4.38423
           22585         4.36846
           22586         4.47649
           22587         4.43944
           22588         4.52840
           22589         4.41712
           22590         4.45062
           22591         4.29438
           22592         4.29816
           22593         4.29640
           22594         4.23965
           22595         4.23132
           22596         3.43853
           22597         3.50980
           22598         3.49625
           22599         3.52712
           22600         3.45365
           22601         3.46701
           22602         3.52803
           22603         3.45369
           22604         3.48462
           22605         3.36177
           22606         3.32634
           22607         3.38784
           22608         3.33193
           22609         3.36829
           22610         3.30678
           22611         3.51361
           22612         3.44235
           22613         3.48267
           22614         3.46580
           22615         3.53915
           22616         5.44079
           22617         5.53647
           22618         5.36791
           22619         5.42132
           22620         5.32161
           22621         5.49140
           22622         5.34869
           22623         5.52744
           22624         5.50860
           22625         5.33212
           22626         5.41561
           22627         5.32667
           22628         5.49726
           22629         5.40592
           22630         5.23529
           22631         5.15268
           22632         5.18624
           22633         5.15651
           22634         5.23672
           22635         5.20241
           22636         3.70057
           22637         3.94287
           22638         3.63021
           22639         3.61591
           22640         3.38329
           22641         3.69923
           22642         3.43010
           22643         3.40142
           22644         3.37288
           22645         3.55272
           22646         3.59626
           22647         3.61987
           22648         3.22262
           22649         3.25245
           22650         3.05715
           22651         3.22000
           22652         3.19512
           22653         1.38336
           22654         1.30995
           22655         1.46986
           22656         1.54176
           22657         1.32221
           22658         1.31442
           22659         1.48091
           22660         1.30805
           22661         1.47576
           22662         1.31104
           22663         1.48417
           22664         1.02307
           22665         1.01995
           22666         1.13097
           22667         1.02599
           22668         1.02595
           22669     913.995E-03
           22670         1.19198
           22671         1.37328
           22672         1.38339
           22673         1.20063
           22674         1.25250
           22675     879.865E-03
           22676         1.00414
           22677     877.237E-03
           22678         1.18929
           22679         1.19919
           22680     872.473E-03
           22681         1.00254
           22682     879.802E-03
           22683         1.14880
           22684         1.16505
           22685         1.14973
           22686         1.01752
           22687         1.01311
           22688     180.026E-03
           22689     236.644E-03
           22690     215.108E-03
           22691     257.581E-03
           22692     200.924E-03
           22693     222.260E-03
           22694         3.12096
           22695         3.05598
           22696         3.10628
           22697         3.07434
           22698         3.14008
           22699         3.08845
           22700         1.92512
           22701         1.82996
           22702         1.65209
           22703         1.33779
           22704         1.41447
           22705         1.58837
           22706         3.11221
           22707         3.08387
           22708         3.14484
           22709         3.16698
           22710         3.19639
           22711         3.13373
           22712         3.26055
           22713         3.23734
           22714         3.27545
           22715         3.21064
           22716         3.23377
           22717         5.75049
           22718         5.72545
           22719         5.72252
           22720         5.72166
           22721         5.74763
           22722         5.75136
           22723         5.70468
           22724         5.67549
           22725         5.70118
           22726         1.84816
           22727         1.70010
           22728         1.95131
           22729         1.99742
           22730         2.15476
           22731         1.90102
           22732         7.88037
           22733         7.83597
           22734         8.07360
           22735         7.89980
           22736         7.94268
           22737         7.71008
           22738         8.67915
           22739         8.48214
           22740         8.68234
           22741         8.45621
           22742         8.65486
           22743         8.45327
           22744     540.680E-03
           22745     675.634E-03
           22746         8.29873
           22747         8.27077
           22748         8.23027
           22749         8.07823
           22750         8.25767
           22751         3.79866
           22752         3.85954
           22753         4.26881
           22754         4.18052
           22755         4.11259
           22756         3.71649
           22757         8.22425
           22758         8.29507
           22759         8.24980
           22760         4.25284
           22761         4.29526
           22762         4.09958
           22763         2.48301
           22764         2.55069
           22765         2.59231
           22766         2.55127
           22767         2.48156
           22768         2.44384
           22769         2.62952
           22770         2.66279
           22771         2.63267
           22772         2.59491
           22773         2.56188
           22774         2.59203
           22775         2.50389
           22776         2.45537
           22777         2.34411
           22778         2.40892
           22779         2.39097
           22780         2.57220
           22781         3.10260
           22782         3.25696
           22783         3.29224
           22784         3.48536
           22785         3.29845
           22786         3.05830
           22787         2.98014
           22788         3.01884
           22789         3.27837
           22790         3.12374
           22791         3.31874
           22792         3.33429
           22793         6.37456
           22794         6.55527
           22795         5.78584
           22796         8.89827
           22797         9.71743
           22798         8.31605
           22799         9.41007
           22800         9.64513
           22801         8.08954
           22802         7.91191
           22803         9.11792
           22804         9.59819
           22805         7.80338
           22806         5.28427
           22807         5.31816
           22808         5.31194
           22809         5.34464
           22810         5.31788
           22811         5.37761
           22812         5.40971
           22813         5.37687
           22814         5.35012
           22815         5.35051
           22816         5.43595
           22817         5.43975
           22818         5.40302
           22819         5.25194
           22820         5.28758
           22821         5.25687
           22822         5.29588
           22823         5.26426
           22824         5.32442
           22825         5.37898
           22826         5.37981
           22827         5.43871
           22828         2.44583
           22829         2.43533
           22830         2.43292
           22831         2.45759
           22832         2.44338
           22833         5.41672
           22834         2.58868
           22835         2.64206
           22836         2.74983
           22837         2.78234
           22838         2.71884
           22839         2.61567
           22840     666.193E-03
           22841     841.799E-03
           22842     716.506E-03
           22843         2.48530
           22844         2.61640
           22845         2.58507
           22846         2.92211
           22847         2.95307
           22848         2.91380
           22849         2.88937
           22850         3.03480
           22851         2.99886
           22852         3.07143
           22853         2.88598
           22854         2.50443
           22855         2.46328
           22856         2.60158
           22857         2.51689
           22858         2.59487
           22859         2.46497
           22860         2.74306
           22861         1.77908
           22862         1.94179
           22863         1.92602
           22864         1.91902
           22865         1.76402
           22866         1.78840
           22867         2.07420
           22868         1.91925
           22869         1.94777
           22870         3.85755
           22871         4.23143
           22872         3.77741
           22873         4.17944
           22874         3.80756
           22875         1.79305
           22876         1.82442
           22877         1.78838
           22878         1.62188
           22879         1.59276
           22880         1.63038
           22881         1.87696
           22882         1.88769
           22883         1.76267
           22884         1.77830
           22885         1.89762
           22886         2.04047
           22887         1.93189
           22888         2.05226
           22889         1.99562
           22890         2.10636
           22891         1.98555
           22892         2.02564
           22893         2.14718
           22894         2.10475
           22895         2.12033
           22896         1.99989
           22897         2.24276
           22898         2.22956
           22899         2.09064
           22900         2.18877
           22901         2.23683
           22902         2.24985
           22903         2.21022
           22904         2.18369
           22905         2.17605
           22906         2.15533
           22907         2.08304
           22908         2.08849
           22909         2.11178
           22910         6.47844
           22911         6.37283
           22912         6.41759
           22913         6.49477
           22914         6.60274
           22915         6.49244
           22916         6.35229
           22917         6.38439
           22918         6.49014
           22919         6.63200
           22920         6.59869
           22921         6.31217
           22922         6.23102
           22923         6.44048
           22924         6.33584
           22925         6.20767
           22926         7.07371
           22927         6.94500
           22928         6.86903
           22929         6.68842
           22930         6.88968
           22931     557.758E-03
           22932     560.304E-03
           22933     530.792E-03
           22934     490.543E-03
           22935     488.090E-03
           22936     516.959E-03
           22937     407.454E-03
           22938     389.369E-03
           22939     430.390E-03
           22940     430.782E-03
           22941     448.312E-03
           22942     406.772E-03
           22943     561.587E-03
           22944     559.065E-03
           22945     518.703E-03
           22946     488.640E-03
           22947     490.952E-03
           22948     616.334E-03
           22949     611.026E-03
           22950     643.034E-03
           22951         6.50397
           22952         6.71358
           22953         6.62011
           22954         6.72485
           22955         6.51247
           22956         6.60542
           22957     597.823E-03
           22958     624.296E-03
           22959     556.777E-03
           22960     533.484E-03
           22961     600.954E-03
           22962     474.195E-03
           22963     499.012E-03
           22964     483.616E-03
           22965         2.10947
           22966         2.23262
           22967         2.25042
           22968         2.29651
           22969         2.17226
           22970         2.15272
           22971         2.25226
           22972         2.37499
           22973         2.28239
           22974         2.16019
           22975         2.28288
           22976         2.29646
           22977         2.35835
           22978         2.27909
           22979     464.194E-03
           22980     422.992E-03
           22981     433.167E-03
           22982     371.291E-03
           22983     412.553E-03
           22984     389.068E-03
           22985     423.891E-03
           22986     430.844E-03
           22987     371.118E-03
           22988     350.025E-03
           22989     341.390E-03
           22990     350.375E-03
           22991     378.267E-03
           22992         7.37780
           22993         7.23384
           22994         7.59522
           22995         7.86563
           22996         8.01887
           22997         7.66540
           22998     257.679E-03
           22999     289.185E-03
           23000     289.042E-03
           23001     264.833E-03
           23002     234.482E-03
           23003     234.770E-03
           23004     432.802E-03
           23005     294.317E-03
           23006     289.836E-03
           23007     268.397E-03
           23008     337.385E-03
           23009     340.859E-03
           23010         2.08715
           23011         2.06654
           23012         2.05967
           23013         2.09445
           23014         2.11429
           23015         2.12225
           23016         2.11580
           23017         2.12475
           23018         2.08838
           23019         2.06995
           23020         2.05792
           23021         2.09410
           23022         2.14123
           23023         2.10881
           23024         2.11446
           23025         2.10139
           23026         2.09829
           23027         2.05767
           23028         2.04207
           23029         2.04551
           23030         3.32035
           23031         3.81753
           23032         2.02013
           23033         2.00338
           23034         2.01825
           23035         2.04480
           23036         2.07417
           23037         2.01704
           23038         4.98001
           23039         5.12369
           23040         5.05243
           23041         5.09461
           23042         4.95152
           23043         5.02305
           23044         4.98822
           23045         5.11675
           23046         5.03548
           23047         5.17995
           23048         5.13127
           23049         4.90163
           23050         4.98262
           23051         4.94421
           23052         4.86328
           23053         4.85824
           23054         5.10298
           23055         5.02182
           23056         4.98589
           23057         4.87414
           23058         4.95429
           23059         4.76666
           23060         4.81133
           23061         4.80367
           23062         4.97891
           23063         5.12238
           23064         5.10546
           23065         5.15104
           23066         5.16916
           23067         5.14201
           23068         5.13404
           23069         5.11316
           23070         5.13959
           23071         5.10871
           23072         5.09925
           23073         5.13564
           23074         5.13825
           23075         5.10927
           23076         5.14300
           23077         5.12044
           23078         5.15011
           23079         5.09770
           23080         5.09233
           23081         5.06827
           23082         5.07954
           23083         5.08272
           23084         5.08286
           23085         5.07149
           23086         5.09873
           23087         5.11069
           23088         5.08612
           23089         4.68770
           23090         4.57147
           23091         4.68279
           23092         4.79237
           23093         4.80522
           23094         4.75598
           23095         4.87522
           23096         4.88862
           23097         4.94837
           23098         4.63112
           23099         3.67578
           23100         3.83904
           23101         3.51122
           23102         3.72060
           23103         3.55737
           23104         3.88666
           23105         3.46578
           23106         3.49447
           23107         3.38109
           23108         3.14301
           23109         3.11494
           23110         3.22503
           23111         4.02259
           23112         3.69330
           23113         3.81149
           23114         3.78474
           23115         3.72300
           23116     417.796E-03
           23117     427.697E-03
           23118     380.442E-03
           23119     430.953E-03
           23120     421.748E-03
           23121     534.592E-03
           23122     475.151E-03
           23123     518.029E-03
           23124     531.443E-03
           23125     547.533E-03
           23126     494.385E-03
           23127     559.539E-03
           23128     543.859E-03
           23129     597.066E-03
           23130     472.941E-03
           23131     466.992E-03
           23132     472.406E-03
           23133     524.730E-03
           23134     525.444E-03
           23135         2.04013
           23136         2.22588
           23137         2.07432
           23138         2.15853
           23139         1.97100
           23140         2.12177
           23141         1.93844
           23142         1.87257
           23143         1.82176
           23144         2.00652
           23145         2.12583
           23146         1.90474
           23147         4.09365
           23148         4.42732
           23149         3.86062
           23150         1.83917
           23151         1.77020
           23152         1.60551
           23153         1.67487
           23154         1.62289
           23155         1.81473
           23156         1.74537
           23157         1.86202
           23158         3.48026
           23159         3.22818
           23160         3.40548
           23161         3.62611
           23162     189.595E-03
           23163     119.024E-03
           23164     115.511E-03
           23165     49.7825E-03
           23166     116.394E-03
           23167     119.997E-03
           23168     17.7706E-03
           23169     88.9198E-03
           23170     18.7561E-03
           23171     90.4603E-03
           23172     161.979E-03
           23173     64.6494E-03
           23174     158.486E-03
           23175     111.566E-03
           23176     129.247E-03
           23177     123.090E-03
           23178     51.1332E-03
           23179     64.1312E-03
           23180     57.3314E-03
           23181         5.68596
           23182         5.70095
           23183         5.66294
           23184         5.71824
           23185         5.69821
           23186         5.73606
           23187         5.82336
           23188         5.80179
           23189         5.74647
           23190         5.70214
           23191         5.72609
           23192         5.77661
           23193         5.76777
           23194         5.80837
           23195         5.81402
           23196         5.86243
           23197         5.81971
           23198         5.81146
           23199         5.64898
           23200         5.69401
           23201         5.67680
           23202         5.74950
           23203         5.66992
           23204         5.74189
           23205         5.71907
           23206         5.69287
           23207         5.70983
           23208         5.73880
           23209         5.78077
           23210         2.44354
           23211         2.47441
           23212         2.45637
           23213         2.44556
           23214         2.33490
           23215         2.37265
           23216         2.39089
           23217         2.43092
           23218         2.43128
           23219         2.46508
           23220         2.42574
           23221         2.42596
           23222         2.43728
           23223         2.33664
           23224         2.37951
           23225         2.37100
           23226     428.787E-03
           23227     370.490E-03
           23228     366.293E-03
           23229         4.15505
           23230         4.07959
           23231         4.12212
           23232         4.01713
           23233         4.09115
           23234         4.03879
           23235         4.11376
           23236         4.04881
           23237         3.81724
           23238         3.89647
           23239         3.84421
           23240         3.75472
           23241         3.78549
           23242         3.73727
           23243         3.70631
           23244         4.06839
           23245     391.650E-03
           23246     319.362E-03
           23247     351.597E-03
           23248     331.659E-03
           23249     403.947E-03
           23250     370.281E-03
           23251         1.47136
           23252         1.44763
           23253         1.43182
           23254         1.45860
           23255         1.48383
           23256         1.49749
           23257         1.42473
           23258         1.41532
           23259         1.44908
           23260         1.37068
           23261         1.37970
           23262         1.34562
           23263         1.42170
           23264         1.41254
           23265         1.49533
           23266         1.50177
           23267         1.46607
           23268         1.38559
           23269         1.34922
           23270         1.39580
           23271         1.36132
           23272         1.30606
           23273         1.35268
           23274         5.92210
           23275         5.85191
           23276         5.89443
           23277         5.85628
           23278         5.92330
           23279         5.88189
           23280         5.92766
           23281         5.85629
           23282         5.88336
           23283         5.96050
           23284         5.91705
           23285         6.02290
           23286         6.00362
           23287         5.95228
           23288         5.90423
           23289         5.91930
           23290         5.97045
           23291         5.83820
           23292         5.87371
           23293         5.86118
           23294         5.90848
           23295         5.81627
           23296         5.85282
           23297         5.88330
           23298     241.829E-03
           23299     248.499E-03
           23300     218.596E-03
           23301     269.668E-03
           23302     263.559E-03
           23303     294.077E-03
           23304     178.147E-03
           23305     172.726E-03
           23306     165.081E-03
           23307     203.178E-03
           23308     211.808E-03
           23309     275.924E-03
           23310     262.799E-03
           23311     223.953E-03
           23312     278.590E-03
           23313     193.306E-03
           23314     255.550E-03
           23315     295.386E-03
           23316     277.627E-03
           23317     310.957E-03
           23318     170.122E-03
           23319     209.457E-03
           23320     196.141E-03
           23321         2.79482
           23322         2.74154
           23323         2.79288
           23324         2.74556
           23325         2.79782
           23326         2.74975
           23327         2.82821
           23328         2.87306
           23329         2.88758
           23330         2.92744
           23331         2.88283
           23332         2.86765
           23333         1.61918
           23334         1.67101
           23335         1.67557
           23336         1.63871
           23337         1.58959
           23338         1.58226
           23339         1.43374
           23340         1.49283
           23341         1.46399
           23342         1.53408
           23343         1.47823
           23344         1.50244
           23345         1.68448
           23346         1.59508
           23347         1.62855
           23348         1.57434
           23349         1.54390
           23350         1.43872
           23351         1.50907
           23352         1.46381
           23353         1.50631
           23354         1.43270
           23355         3.15709
           23356         3.31020
           23357         3.27302
           23358         3.38679
           23359         3.23232
           23360         3.29989
           23361         3.59015
           23362         3.47362
           23363         3.60868
           23364         3.59908
           23365         3.71678
           23366         3.57959
           23367         3.18760
           23368         3.31327
           23369         2.88516
           23370         2.92864
           23371         3.56655
           23372         3.69061
           23373         3.54614
           23374         3.57871
           23375         3.46033
           23376         3.45953
           23377         3.38701
           23378         3.38085
           23379         3.33018
           23380     434.554E-03
           23381     421.540E-03
           23382     428.089E-03
           23383     459.106E-03
           23384     473.422E-03
           23385     465.842E-03
           23386     399.922E-03
           23387     348.684E-03
           23388     389.923E-03
           23389     334.256E-03
           23390     385.304E-03
           23391     344.236E-03
           23392     509.163E-03
           23393     586.562E-03
           23394     518.630E-03
           23395     580.629E-03
           23396     503.489E-03
           23397     571.329E-03
           23398     990.275E-03
           23399     905.127E-03
           23400     837.883E-03
           23401     762.494E-03
           23402     518.748E-03
           23403     442.776E-03
           23404     503.311E-03
           23405     449.299E-03
           23406     407.617E-03
           23407     401.107E-03
           23408     450.049E-03
           23409     458.500E-03
           23410     416.113E-03
           23411     465.428E-03
           23412     405.964E-03
           23413         9.84203
           23414         9.92024
           23415         10.1890
           23416         9.86679
           23417         9.73541
           23418         9.47970
           23419         9.41752
           23420         9.07272
           23421         9.14149
           23422         9.51962
           23423         8.87987
           23424         10.3987
           23425         10.6771
           23426         10.7824
           23427         9.93579
           23428         10.1991
           23429         10.7848
           23430     561.371E-03
           23431     497.860E-03
           23432     439.098E-03
           23433         9.05088
           23434         9.68098
           23435         9.47074
           23436         9.88930
           23437         9.23472
           23438         5.77256
           23439         5.80939
           23440         5.77444
           23441         5.75146
           23442         5.71294
           23443         5.81286
           23444         5.81488
           23445         5.76997
           23446         5.85396
           23447         5.91478
           23448         5.84011
           23449         5.87420
           23450         5.88951
           23451         5.89141
           23452         5.81950
           23453         5.87217
           23454         5.92403
           23455         5.84888
           23456         5.88002
           23457         5.71204
           23458         5.74494
           23459         5.75549
           23460         5.79351
           23461         5.75861
           23462         5.88278
           23463         5.87617
           23464     689.473E-03
           23465     657.896E-03
           23466     797.950E-03
           23467     818.106E-03
           23468     844.108E-03
           23469     705.354E-03
           23470         1.12897
           23471         1.27071
           23472         1.11439
           23473         1.27027
           23474         1.27963
           23475         1.41719
           23476         1.25983
           23477         1.28743
           23478         1.33652
           23479         1.31205
           23480         1.28017
           23481         1.43992
           23482     960.757E-03
           23483     845.335E-03
           23484         1.03389
           23485         1.43856
           23486         1.30938
           23487         1.33513
           23488         1.13452
           23489     965.128E-03
           23490     306.821E-03
           23491     228.455E-03
           23492     472.870E-03
           23493     566.166E-03
           23494     543.700E-03
           23495     324.759E-03
           23496     960.322E-03
           23497     649.557E-03
           23498     734.415E-03
           23499     515.261E-03
           23500     787.497E-03
           23501     704.126E-03
           23502     753.952E-03
           23503     220.930E-03
           23504     295.452E-03
           23505     294.523E-03
           23506     542.450E-03
           23507     777.484E-03
           23508     560.859E-03
           23509     943.359E-03
           23510         2.37445
           23511         2.38660
           23512         2.38159
           23513         2.37448
           23514         2.36214
           23515         2.36743
           23516         2.36953
           23517         2.36240
           23518         2.36475
           23519         2.37064
           23520         2.37673
           23521         2.34225
           23522         2.34972
           23523         2.35063
           23524         2.38404
           23525         2.40336
           23526         2.38850
           23527         2.39104
           23528         2.37157
           23529         2.38784
           23530         3.08100
           23531         3.10968
           23532         3.13199
           23533         3.11600
           23534         3.08734
           23535         3.06551
           23536         3.13379
           23537         3.12431
           23538         3.09366
           23539         3.05289
           23540         3.06345
           23541         3.09264
           23542         2.99933
           23543         3.03861
           23544         3.02397
           23545         3.04807
           23546         3.05548
           23547         2.99142
           23548         3.02736
           23549         3.04485
           23550         3.20662
           23551         3.21479
           23552         3.17379
           23553         3.16612
           23554         3.15729
           23555         3.19841
           23556         3.03372
           23557         3.01762
           23558         3.30235
           23559         3.23302
           23560         3.24978
           23561         3.20134
           23562         3.26997
           23563         3.25278
           23564         3.37737
           23565         3.36138
           23566         3.30389
           23567         3.34138
           23568         3.35804
           23569         3.41586
           23570         3.58584
           23571         3.50831
           23572         3.58079
           23573         3.55096
           23574         3.63148
           23575         3.55517
           23576         3.73105
           23577         3.76090
           23578         3.69188
           23579         3.78359
           23580         3.75328
           23581         3.82470
           23582         3.60259
           23583         3.52937
           23584         3.56731
           23585         3.64389
           23586         3.58417
           23587         7.73787
           23588         8.09118
           23589         7.96603
           23590         8.33351
           23591         7.96625
           23592         8.08999
           23593         7.98443
           23594         7.97213
           23595         7.70318
           23596         7.67422
           23597         7.48534
           23598         7.67247
           23599         7.83797
           23600         7.87265
           23601         7.50854
           23602         7.46495
           23603         7.28111
           23604         5.91209
           23605         5.99986
           23606         5.73064
           23607         5.73004
           23608         5.63256
           23609         5.90341
           23610         5.70186
           23611         5.60421
           23612         5.60432
           23613         5.87305
           23614         5.91281
           23615         5.99935
           23616         5.73803
           23617         5.68372
           23618         5.68304
           23619         5.28910
           23620         5.32882
           23621         5.32858
           23622         5.43950
           23623         5.39995
           23624         5.06169
           23625         5.42305
           23626         5.08416
           23627         5.46356
           23628         2.65263
           23629         2.67656
           23630         2.59904
           23631         2.60052
           23632         2.57730
           23633         2.65516
           23634         4.15786
           23635         4.19952
           23636         4.23774
           23637         4.29290
           23638         4.24951
           23639         4.21080
           23640         2.39601
           23641         2.28254
           23642         2.33759
           23643         2.19722
           23644         2.16603
           23645         2.24808
           23646         2.21456
           23647         4.25060
           23648         4.23095
           23649         3.84823
           23650         2.13855
           23651         2.15590
           23652         2.16735
           23653         2.09807
           23654         2.08496
           23655         2.07185
           23656         2.02846
           23657         2.09140
           23658         2.07901
           23659         2.07749
           23660         2.14317
           23661         2.08067
           23662         2.08882
           23663         2.02443
           23664         2.24807
           23665         2.15411
           23666         2.65602
           23667         2.65876
           23668         2.65090
           23669         2.65625
           23670         2.65307
           23671         2.66166
           23672         2.65153
           23673         2.64621
           23674         2.64270
           23675         2.63418
           23676         2.64004
           23677         2.64358
           23678         2.63896
           23679         2.64423
           23680         2.63589
           23681         3.76429
           23682         4.09491
           23683         3.88605
           23684         4.15581
           23685         3.81906
           23686         4.02901
           23687         2.65998
           23688         2.65272
           23689         2.64904
           23690         2.65676
           23691         2.61608
           23692         2.62233
           23693         2.61932
           23694         2.62119
           23695         2.61516
           23696         2.61813
           23697         2.62575
           23698         2.63227
           23699         2.62586
           23700         2.61940
           23701         2.63257
           23702         2.62219
           23703         2.63570
           23704         2.63343
           23705         2.62020
           23706         2.62984
           23707         2.61083
           23708         2.60830
           23709         2.61021
           23710         2.61760
           23711         2.61799
           23712         2.60226
           23713         2.60481
           23714         2.60603
           23715         2.61426
           23716         2.61170
           23717         2.62168
           23718         2.62360
           23719         3.89938
           23720         4.00320
           23721         3.98125
           23722         3.99467
           23723         3.89100
           23724         3.91248
           23725         4.09702
           23726         4.10546
           23727         4.09993
           23728         3.96992
           23729         3.96205
           23730         3.96821
           23731         3.88024
           23732         3.87210
           23733         3.99202
           23734         4.01051
           23735         4.09384
           23736         4.10151
           23737         4.08256
           23738         3.99945
           23739         2.93752
           23740         2.95019
           23741         2.91240
           23742         2.94250
           23743         2.93014
           23744         2.96831
           23745         2.84096
           23746         2.89559
           23747         2.84560
           23748         2.88445
           23749         2.83038
           23750         2.87856
           23751         2.88523
           23752         2.83294
           23753         2.84936
           23754         2.83358
           23755         2.86797
           23756         2.95656
           23757         2.92671
           23758         2.96477
           23759         2.87573
           23760         2.85947
           23761         2.88453
           23762         2.89546
           23763         2.86986
           23764         2.92989
           23765         2.90148
           23766         2.92681
           23767         2.16123
           23768         2.18137
           23769         2.14616
           23770         2.18111
           23771         2.16120
           23772         2.19771
           23773         2.12604
           23774         2.16344
           23775         2.19817
           23776         2.16160
           23777         2.16372
           23778         2.08098
           23779         2.08993
           23780         2.08892
           23781         2.06991
           23782         2.12173
           23783         2.07670
           23784         2.15916
           23785         2.15903
           23786         2.66492
           23787         2.66275
           23788         2.67587
           23789         2.67533
           23790         2.67885
           23791         2.66469
           23792         2.66615
           23793         2.65360
           23794         2.64850
           23795         2.65960
           23796         2.64855
           23797         2.65976
           23798         2.68517
           23799         2.68597
           23800         2.69915
           23801         2.69222
           23802         2.69104
           23803         3.13040
           23804         3.39444
           23805         3.28482
           23806         3.52493
           23807         3.25787
           23808         3.36875
           23809         2.66048
           23810         2.66068
           23811         2.65358
           23812         2.66587
           23813         2.66555
           23814         2.67331
           23815         5.75867
           23816         5.78546
           23817         5.77846
           23818         5.76076
           23819         5.75589
           23820         5.79745
           23821         5.77752
           23822         5.76691
           23823         5.75847
           23824         5.76213
           23825         5.75239
           23826         5.74958
           23827         5.75234
           23828         5.75516
           23829         5.75566
           23830         5.75415
           23831         5.75971
           23832         5.78245
           23833         5.79682
           23834         5.77829
           23835         5.79379
           23836         5.76650
           23837         5.75922
           23838         5.76813
           23839         5.74227
           23840         5.75950
           23841         5.73847
           23842         2.78796
           23843         2.78202
           23844         2.76630
           23845         2.75731
           23846         2.76306
           23847         2.77862
           23848         2.80105
           23849         2.77241
           23850         2.76171
           23851         2.76182
           23852         2.78999
           23853         2.75768
           23854         2.73206
           23855         2.74516
           23856         2.74468
           23857         2.75752
           23858         2.79198
           23859         2.77678
           23860         2.59292
           23861         2.62887
           23862         2.61486
           23863         2.62769
           23864         2.59217
           23865         2.60631
           23866         2.59166
           23867         2.63081
           23868         2.64329
           23869         2.60442
           23870         2.62117
           23871         2.56380
           23872         2.57826
           23873         2.57116
           23874         2.55653
           23875         2.54676
           23876         2.54606
           23877         2.52815
           23878         2.54176
           23879         2.56382
           23880         2.59077
           23881         2.56470
           23882         2.57780
           23883         2.54548
           23884         2.55963
           23885         2.53065
           23886         5.76897
           23887         5.86183
           23888         5.84396
           23889         5.83031
           23890         5.74075
           23891         5.75866
           23892         5.68512
           23893         5.70649
           23894         5.67588
           23895         5.68169
           23896         5.61499
           23897         5.62145
           23898         5.68989
           23899         5.61573
           23900         5.63877
           23901         5.61021
           23902         5.72980
           23903         5.65281
           23904         5.56367
           23905         2.42529
           23906         2.51509
           23907         2.50329
           23908         2.53529
           23909         2.44781
           23910         2.46035
           23911         2.38173
           23912         2.34395
           23913         2.35744
           23914         2.27533
           23915         2.35601
           23916         2.44287
           23917         2.48310
           23918         2.42236
           23919         2.33519
           23920         2.38219
           23921         2.40623
           23922         6.70360
           23923         6.76329
           23924         6.65009
           23925         6.89523
           23926         6.83376
           23927         6.95095
           23928         6.73516
           23929         6.79532
           23930         6.59841
           23931         6.54242
           23932         6.68044
           23933         6.50501
           23934         6.59417
           23935         6.53643
           23936         6.39677
           23937         6.87253
           23938         6.75825
           23939         6.73497
           23940         6.57193
           23941         6.68115
           23942         6.34565
           23943         6.25378
           23944         6.28854
           23945         6.17300
           23946         6.26282
           23947         6.22461
           23948         6.51184
           23949         6.71269
           23950         6.56979
           23951         6.61210
           23952         6.42914
           23953         6.55506
           23954         6.64828
           23955         6.46548
           23956         6.51333
           23957         6.25533
           23958         6.16637
           23959         6.26906
           23960         6.36212
           23961         6.23319
           23962         1.37092
           23963         1.20141
           23964         1.27407
           23965         1.20291
           23966         1.37653
           23967         1.27882
           23968         1.20807
           23969         1.12226
           23970         1.04392
           23971         1.11345
           23972         1.28848
           23973         1.33118
           23974         1.27142
           23975         1.29961
           23976         1.25393
           23977         1.31283
           23978         1.25945
           23979         1.31831
           23980         1.32934
           23981         1.27303
           23982         1.30005
           23983         1.18512
           23984         1.10845
           23985         1.15568
           23986         1.12930
           23987         1.20262
           23988         1.15615
           23989         1.20513
           23990         1.18266
           23991         1.20433
           23992         1.13166
           23993         1.13178
           23994         1.29300
           23995         1.27164
           23996         1.32799
           23997         2.39529
           23998         2.40211
           23999         2.40673
           24000         2.41835
           24001         2.41370
           24002         2.40719
           24003         2.42606
           24004         2.42183
           24005         2.43340
           24006         2.40179
           24007         2.40600
           24008         2.40475
           24009         2.38643
           24010         2.38275
           24011         2.38333
           24012         2.41208
           24013         2.42507
           24014         2.41494
           24015         2.43476
           24016         2.43169
           24017         2.41626
           24018         2.41367
           24019         2.42650
           24020         2.41948
           24021         2.41510
           24022         2.32936
           24023         2.40614
           24024         2.29889
           24025         2.33395
           24026         2.25705
           24027         2.36749
           24028         2.36559
           24029         2.34414
           24030         2.29681
           24031         2.32655
           24032         2.34767
           24033         2.31668
           24034         2.36368
           24035         4.18318
           24036         4.06287
           24037         3.84867
           24038         2.36157
           24039         2.33194
           24040         2.25542
           24041         2.58631
           24042         2.51393
           24043         2.40620
           24044         2.44096
           24045         2.51382
           24046         2.63987
           24047         2.64421
           24048         2.62842
           24049         2.62994
           24050         2.62605
           24051         2.62358
           24052         2.62249
           24053         2.63718
           24054         2.64316
           24055         2.63217
           24056         2.62773
           24057         2.63875
           24058         2.63576
           24059         2.64126
           24060         2.64511
           24061     594.712E-03
           24062     657.062E-03
           24063     683.247E-03
           24064     594.852E-03
           24065     533.813E-03
           24066     511.768E-03
           24067         2.62398
           24068         2.62298
           24069         2.61981
           24070         2.62627
           24071         2.62755
           24072     404.872E-03
           24073     354.862E-03
           24074     336.302E-03
           24075     422.981E-03
           24076     476.323E-03
           24077     495.235E-03
           24078         2.61437
           24079         2.61886
           24080         2.61435
           24081         2.61572
           24082         2.61165
           24083         2.61609
           24084         2.62038
           24085         2.61776
           24086         2.62229
           24087         2.62370
           24088         2.62142
           24089         2.62309
           24090         2.62246
           24091         2.60243
           24092         2.60827
           24093         2.60362
           24094         2.60653
           24095         2.60064
           24096         2.60522
           24097         2.59937
           24098         2.59471
           24099         2.58948
           24100         2.59181
           24101         2.59643
           24102         2.59252
           24103         2.59537
           24104         2.58960
           24105         2.60240
           24106         2.60717
           24107         2.59996
           24108         6.03089
           24109         5.93942
           24110         5.95229
           24111         6.04470
           24112         6.13627
           24113         6.12116
           24114         5.64477
           24115         5.68595
           24116         5.77564
           24117         4.32627
           24118         4.45199
           24119         4.20637
           24120         3.97071
           24121         3.86051
           24122         6.20561
           24123         6.21114
           24124         6.40830
           24125         6.32078
           24126         6.31569
           24127         6.00609
           24128         6.11109
           24129         6.19538
           24130         6.32629
           24131         6.42920
           24132         6.32977
           24133         6.52489
           24134         6.42100
           24135         6.51872
           24136         6.51363
           24137         6.50851
           24138         6.11218
           24139         6.09662
           24140         6.19116
           24141         6.30547
           24142         6.33166
           24143         6.22793
           24144         6.54172
           24145         6.43046
           24146         6.32750
           24147         6.53593
           24148         6.44007
           24149         6.20757
           24150         6.01573
           24151         5.92149
           24152         6.09535
           24153         6.20775
           24154         6.20186
           24155         6.12895
           24156         5.93708
           24157         6.11434
           24158         5.06686
           24159         4.93828
           24160         5.16971
           24161         5.15093
           24162         5.28253
           24163         5.04970
           24164         4.90876
           24165         4.98729
           24166         5.14489
           24167         5.12829
           24168         5.05569
           24169         4.89344
           24170         2.76048
           24171         2.79640
           24172         2.73555
           24173         2.76197
           24174         2.72794
           24175         2.78751
           24176         5.49109
           24177         5.47942
           24178         5.38007
           24179         5.39165
           24180         5.58312
           24181         5.24042
           24182         5.29631
           24183         5.34669
           24184         5.44266
           24185         5.33707
           24186         1.47289
           24187         1.38638
           24188         1.43360
           24189         1.42501
           24190         1.51165
           24191         1.46362
           24192         1.46853
           24193         1.42050
           24194         1.46558
           24195         1.51291
           24196         1.46090
           24197         1.58812
           24198         1.64403
           24199         1.57735
           24200         1.55657
           24201         1.49935
           24202         1.56635
           24203         1.55004
           24204         1.55962
           24205         1.51202
           24206         1.55157
           24207         15.3444
           24208         14.3684
           24209         16.5977
           24210         16.7878
           24211         19.0348
           24212         14.9256
           24213         21.9172
           24214         24.9412
           24215         18.2929
           24216         17.3627
           24217         15.7903
           24218         21.4844
           24219         5.22730
           24220         4.72728
           24221         4.79178
           24222         4.73815
           24223         5.22332
           24224         5.16510
           24225         13.5077
           24226         13.7823
           24227         15.7006
           24228         21.5800
           24229         17.7696
           24230         17.2043
           24231         16.0106
           24232         19.2211
           24233         20.4910
           24234         15.2479
           24235         16.3894
           24236         20.0868
           24237         17.5794
           24238         16.1440
           24239         14.8301
           24240         21.6233
           24241         29.5449
           24242         25.5305
           24243         23.9728
           24244         2.65171
           24245         2.65517
           24246         2.65253
           24247         2.65464
           24248         2.65121
           24249         2.65410
           24250         2.64630
           24251         2.64185
           24252         2.64471
           24253         2.64320
           24254         2.64772
           24255         2.64493
           24256         2.65150
           24257         2.65490
           24258         2.65502
           24259         2.65156
           24260         2.65421
           24261         2.64252
           24262     554.120E-03
           24263     527.731E-03
           24264     599.022E-03
           24265     568.487E-03
           24266     596.175E-03
           24267     524.805E-03
           24268     568.329E-03
           24269     596.329E-03
           24270     524.339E-03
           24271     536.690E-03
           24272     549.453E-03
           24273     579.905E-03
           24274     604.950E-03
           24275     592.059E-03
           24276     561.338E-03
           24277     472.190E-03
           24278     474.194E-03
           24279     509.464E-03
           24280     506.814E-03
           24281     415.835E-03
           24282     655.953E-03
           24283     684.995E-03
           24284     652.437E-03
           24285     661.184E-03
           24286     666.193E-03
           24287     750.846E-03
           24288     659.883E-03
           24289     654.527E-03
           24290     573.324E-03
           24291     744.441E-03
           24292     657.095E-03
           24293         3.68992
           24294         3.82884
           24295         3.77794
           24296         3.92969
           24297         3.79781
           24298         3.84047
           24299         3.46500
           24300         3.42188
           24301         3.59473
           24302         3.44709
           24303         3.49785
           24304         3.31496
           24305         3.44184
           24306         3.61371
           24307         3.57654
           24308         3.79219
           24309         3.92460
           24310         3.81233
           24311         3.67318
           24312         3.81769
           24313         2.77757
           24314         2.79836
           24315         2.77936
           24316         2.81124
           24317         2.78976
           24318         2.80827
           24319         2.79256
           24320         2.74461
           24321         2.75198
           24322         2.77180
           24323         2.78994
           24324         2.78754
           24325         2.74424
           24326         2.73346
           24327         2.72721
           24328         2.75364
           24329         2.76475
           24330         3.76575
           24331         3.75040
           24332         3.70401
           24333         3.73661
           24334         3.75152
           24335         3.62425
           24336         3.70528
           24337         3.42483
           24338         3.35723
           24339         3.41946
           24340         3.32498
           24341         3.39143
           24342         3.33045
           24343         3.42255
           24344         3.49088
           24345         3.39328
           24346         3.50525
           24347         3.37514
           24348         3.51772
           24349         3.48349
           24350         3.61847
           24351         3.46986
           24352         3.51671
           24353         3.65468
           24354         3.61781
           24355         5.17153
           24356         5.05231
           24357         5.20925
           24358         5.06303
           24359         5.18280
           24360         5.02658
           24361         5.15904
           24362         5.03953
           24363         5.00319
           24364         5.13110
           24365         5.29064
           24366         5.11839
           24367         5.40195
           24368         5.35898
           24369         5.27930
           24370         5.32149
           24371         5.39004
           24372         4.04461
           24373         4.15547
           24374         4.07073
           24375         4.07487
           24376         3.96472
           24377         4.04903
           24378         3.84722
           24379         3.88998
           24380         3.91908
           24381         3.89238
           24382         3.84974
           24383         3.82236
           24384         3.77297
           24385         3.79994
           24386         3.87767
           24387         3.84703
           24388         3.79981
           24389         3.96887
           24390         3.91447
           24391         3.90498
           24392         3.83625
           24393         3.89881
           24394         3.83832
           24395         1.70961
           24396         1.74880
           24397         1.53232
           24398         1.55573
           24399         1.51779
           24400         1.73386
           24401         1.70285
           24402         1.36663
           24403         1.33503
           24404         1.31790
           24405         1.38403
           24406         5.85353
           24407         5.97937
           24408         5.97939
           24409         6.05336
           24410         5.92088
           24411         5.92001
           24412         5.77983
           24413         5.66853
           24414         5.73364
           24415         5.75065
           24416         5.86516
           24417         5.79160
           24418         5.90736
           24419         6.05888
           24420         6.00747
           24421         6.01673
           24422         5.91600
           24423         5.82229
           24424         5.80973
           24425         5.86360
           24426         6.00508
           24427         5.92393
           24428         5.88986
           24429         5.82223
           24430         5.90390
           24431         5.93910
           24432         5.85872
           24433         5.99476
           24434         5.95330
           24435         5.99521
           24436         5.87391
           24437         5.89984
           24438         5.64839
           24439         5.66217
           24440         5.51920
           24441         5.67594
           24442         5.66391
           24443         5.81047
           24444         5.80598
           24445         5.76700
           24446         5.62942
           24447         5.69987
           24448         5.73661
           24449         6.01431
           24450         5.90769
           24451         5.97868
           24452         6.04455
           24453         6.00261
           24454         6.10507
           24455         5.98161
           24456         5.75895
           24457         5.79407
           24458         5.85860
           24459         5.84812
           24460         5.80381
           24461         5.76300
           24462         5.79070
           24463         5.06866
           24464         5.13438
           24465         5.14286
           24466         5.22061
           24467         5.15809
           24468         5.14913
           24469         5.11288
           24470         5.10640
           24471         2.84160
           24472         2.81375
           24473         2.81795
           24474         2.84516
           24475         2.86370
           24476         5.03488
           24477         5.10833
           24478         4.99632
           24479         5.09712
           24480         5.02007
           24481         5.09320
           24482         5.19065
           24483         5.08214
           24484         5.27646
           24485         5.29463
           24486         5.25818
           24487         2.56887
           24488         2.55693
           24489         6.60662
           24490         6.60067
           24491         6.39858
           24492         6.40521
           24493         6.41183
           24494         6.61419
           24495         6.24680
           24496         6.24978
           24497         6.24084
           24498         6.16775
           24499         6.32861
           24500         6.31769
           24501     677.486E-03
           24502     561.058E-03
           24503     712.022E-03
           24504     617.576E-03
           24505     735.616E-03
           24506     584.204E-03
           24507     873.347E-03
           24508     776.264E-03
           24509     825.737E-03
           24510     923.770E-03
           24511     965.288E-03
           24512     733.965E-03
           24513     854.895E-03
           24514     758.039E-03
           24515     835.075E-03
           24516     680.120E-03
           24517     676.469E-03
           24518     831.282E-03
           24519     834.276E-03
           24520         2.24478
           24521         2.23245
           24522         2.18920
           24523         2.23684
           24524         2.24877
           24525         2.29529
           24526         2.22541
           24527         2.17444
           24528         2.23616
           24529         2.19297
           24530         2.18100
           24531         2.16047
           24532         2.11015
           24533         2.14451
           24534         2.11539
           24535         2.16885
           24536         2.13048
           24537         2.16161
           24538         2.14968
           24539         1.46909
           24540         1.42089
           24541         1.48958
           24542         1.44554
           24543         1.49299
           24544         1.42400
           24545         1.50427
           24546         1.44756
           24547         1.48010
           24548         1.49305
           24549         1.54738
           24550         1.51549
           24551         1.43533
           24552         1.45538
           24553         1.51194
           24554         1.45542
           24555         1.41099
           24556         1.44312
           24557         5.21728
           24558         5.22620
           24559         5.18786
           24560         5.18940
           24561         5.17856
           24562         5.21739
           24563         5.16369
           24564         5.15973
           24565         5.13660
           24566         5.11980
           24567         5.15007
           24568         5.15902
           24569         5.23406
           24570         5.25831
           24571         5.20120
           24572         5.19913
           24573         5.17761
           24574         5.23287
           24575         5.08992
           24576         5.13361
           24577         5.11591
           24578         5.12971
           24579         5.15024
           24580         2.16820
           24581         2.19688
           24582         2.17826
           24583         2.16823
           24584         2.13980
           24585         2.11256
           24586         2.11052
           24587         2.14472
           24588         2.13712
           24589         2.12198
           24590         2.13034
           24591         2.15667
           24592         2.12496
           24593         2.11805
           24594         2.09122
           24595         2.17733
           24596         2.18254
           24597         2.20119
           24598         5.82557
           24599         5.80774
           24600         5.86889
           24601         5.88033
           24602         5.89732
           24603         5.83309
           24604         5.87963
           24605         5.80778
           24606         5.80219
           24607         5.87928
           24608         5.84480
           24609         4.26722
           24610         4.41189
           24611         4.41832
           24612         4.28840
           24613         4.27407
           24614         4.56284
           24615         4.42849
           24616         4.43393
           24617         4.16836
           24618         4.13978
           24619         4.25299
           24620         4.09759
           24621         4.12395
           24622         4.01497
           24623         4.32107
           24624         4.48971
           24625         4.45003
           24626         4.59497
           24627         4.42234
           24628         4.46147
           24629         4.18735
           24630         4.15941
           24631         4.29143
           24632         4.22620
           24633         5.23083
           24634         5.20086
           24635         5.35680
           24636         5.38094
           24637         5.41119
           24638         5.25452
           24639         5.51060
           24640         5.45489
           24641         5.48565
           24642         5.44468
           24643         5.50043
           24644         5.57636
           24645         5.71729
           24646         5.61379
           24647         5.63889
           24648         5.74814
           24649         5.51628
           24650         5.45051
           24651         5.67863
           24652         5.58048
           24653         7.56541
           24654         7.71636
           24655         7.86396
           24656         7.73048
           24657         7.59287
           24658         7.46036
           24659         8.40856
           24660         8.40248
           24661         7.97883
           24662         8.20480
           24663         8.19779
           24664         8.61502
           24665         8.01169
           24666         8.29242
           24667         8.49955
           24668         8.20455
           24669         7.93807
           24670         8.21431
           24671         8.23067
           24672         8.05927
           24673         7.85606
           24674         7.83700
           24675         8.05387
           24676         6.42101
           24677         6.34719
           24678         6.43228
           24679         6.46212
           24680         6.54375
           24681         6.45334
           24682         6.50222
           24683         6.60867
           24684         6.73726
           24685         6.63350
           24686         6.62438
           24687         6.49748
           24688         6.41031
           24689         6.32704
           24690         6.40979
           24691         6.43915
           24692         6.28225
           24693         6.34569
           24694         6.25648
           24695         6.34501
           24696         6.40175
           24697         6.56326
           24698         6.57723
           24699         6.67879
           24700         3.05218
           24701         3.07228
           24702         3.01376
           24703         3.06472
           24704         3.04535
           24705         3.10345
           24706         3.00575
           24707         3.03598
           24708         3.02404
           24709         3.08453
           24710         3.06404
           24711         3.04448
           24712         3.10230
           24713         3.09423
           24714         3.05568
           24715         2.55713
           24716         2.54726
           24717         2.55234
           24718         2.54424
           24719         2.55376
           24720         2.54879
           24721         2.55246
           24722         2.56070
           24723         2.55575
           24724         2.57033
           24725         2.57137
           24726         2.56366
           24727         2.57210
           24728         2.57112
           24729         2.57977
           24730         2.56851
           24731         2.56206
           24732         3.46437
           24733         3.39152
           24734         3.37355
           24735         3.45066
           24736         3.51307
           24737         3.19305
           24738         3.26103
           24739         3.30918
           24740         3.32705
           24741         3.43445
           24742         3.51193
           24743         3.50566
           24744         3.39693
           24745         3.32829
           24746         3.58177
           24747         3.61820
           24748         3.43171
           24749         3.63862
           24750         3.60627
           24751         3.80771
           24752         3.64723
           24753         3.49094
           24754         5.63913
           24755         5.59284
           24756         5.62725
           24757         5.70424
           24758         5.75990
           24759         5.71803
           24760         5.82568
           24761         5.90129
           24762         5.74520
           24763         5.67461
           24764         5.75534
           24765         5.65350
           24766         5.51115
           24767         5.56948
           24768         5.50629
           24769         5.49224
           24770         5.40808
           24771         5.45756
           24772         1.01409
           24773     939.731E-03
           24774         1.11635
           24775         1.04261
           24776         1.11895
           24777     940.438E-03
           24778     908.869E-03
           24779         1.08593
           24780         1.00843
           24781         1.17749
           24782         1.25030
           24783         1.14012
           24784         1.21779
           24785         1.29191
           24786         1.35304
           24787         1.39411
           24788         1.49370
           24789         1.44294
           24790         1.34475
           24791         1.54669
           24792         1.31490
           24793         1.51804
           24794         1.46413
           24795         1.27451
           24796         1.24543
           24797         1.16869
           24798         1.28190
           24799         1.39452
           24800         1.42255
           24801         1.57062
           24802         1.54288
           24803         1.50303
           24804         4.57828
           24805         4.30903
           24806         4.22751
           24807         4.78738
           24808         5.00790
           24809         5.11380
           24810         4.79678
           24811         5.30370
           24812         5.35407
           24813         5.51771
           24814         5.80541
           24815         6.53006
           24816         6.32819
           24817         4.33997
           24818         3.81912
           24819         3.95997
           24820         3.59335
           24821         4.10119
           24822         3.97211
           24823         4.00667
           24824         4.27371
           24825         4.36755
           24826         4.85226
           24827         4.53741
           24828         5.34962
           24829         5.43750
           24830         5.98951
           24831         4.51405
           24832         4.27804
           24833         2.69057
           24834         2.67124
           24835         2.69022
           24836         2.68664
           24837         2.70904
           24838         2.68696
           24839         2.73441
           24840         2.73700
           24841         2.71526
           24842         2.71092
           24843         2.72969
           24844         2.67209
           24845         2.69119
           24846         2.68793
           24847         2.67642
           24848         2.69622
           24849         2.67743
           24850         2.70446
           24851         2.72171
           24852         2.72025
           24853         2.71155
           24854         2.69502
           24855         2.61785
           24856         2.62105
           24857         2.61668
           24858         2.61783
           24859         2.61551
           24860         2.61888
           24861         2.62292
           24862         2.62192
           24863         2.61945
           24864         2.62594
           24865         2.62899
           24866         2.62333
           24867         2.62551
           24868         2.62252
           24869         2.62946
           24870         3.61391
           24871         3.51132
           24872         3.42387
           24873         3.45116
           24874         3.55226
           24875         2.62368
           24876         2.62425
           24877         2.62276
           24878         2.62380
           24879         2.62475
           24880         2.62101
           24881         2.61985
           24882         2.61984
           24883         5.25382
           24884         5.30757
           24885         5.11411
           24886         4.95918
           24887         5.04051
           24888         4.96222
           24889         5.11797
           24890         5.03605
           24891         5.26237
           24892         5.39139
           24893         5.39908
           24894         4.95008
           24895         5.10660
           24896         5.02758
           24897         5.16094
           24898         5.17289
           24899         8.81626
           24900         9.29227
           24901         9.97336
           24902         10.1225
           24903         9.47532
           24904         10.4784
           24905         11.4356
           24906         11.2156
           24907         10.8936
           24908         10.0080
           24909         10.2501
           24910         10.4032
           24911         11.2981
           24912         11.9463
           24913         10.9497
           24914         11.1171
           24915         11.2439
           24916         12.2590
           24917         11.5336
           24918         2.62442
           24919         2.63694
           24920         2.63023
           24921         2.63963
           24922         2.62704
           24923         2.63403
           24924         2.62554
           24925         2.63863
           24926         2.64073
           24927         2.62678
           24928         2.63613
           24929         2.60809
           24930         2.59355
           24931         2.60387
           24932         2.59365
           24933         2.60759
           24934         2.59841
           24935         2.48492
           24936         2.45175
           24937         2.47040
           24938         2.45367
           24939         2.48723
           24940         2.46873
           24941         2.48677
           24942         2.49067
           24943         2.50979
           24944         2.53152
           24945         2.52497
           24946         2.50601
           24947         2.45173
           24948         2.46888
           24949         2.46879
           24950         2.49132
           24951         2.48769
           24952     272.340E-03
           24953     264.617E-03
           24954     244.138E-03
           24955     222.622E-03
           24956     230.451E-03
           24957     249.929E-03
           24958     279.344E-03
           24959     326.811E-03
           24960     298.969E-03
           24961     323.963E-03
           24962     276.918E-03
           24963     304.549E-03
           24964     218.562E-03
           24965     211.004E-03
           24966     264.151E-03
           24967     272.066E-03
           24968     237.962E-03
           24969         2.08941
           24970         2.00444
           24971         2.24714
           24972         2.33611
           24973         2.00227
           24974         5.37588
           24975         5.47603
           24976         5.37564
           24977         5.40312
           24978         5.30466
           24979         5.40327
           24980         5.38314
           24981         5.24999
           24982         5.29959
           24983         5.19121
           24984         5.32238
           24985         5.27237
           24986         5.50245
           24987         5.52060
           24988         5.45189
           24989         5.48626
           24990         5.46794
           24991         5.53764
           24992         5.61129
           24993         5.54110
           24994         5.57328
           24995         5.46565
           24996         5.53513
           24997         5.25091
           24998         5.38399
           24999         5.27809
           25000         5.32725
           25001         5.19590
           25002         5.54117
           25003         5.61108
           25004         5.57567
           25005         7.65077
           25006         7.83236
           25007         7.59696
           25008         7.64230
           25009         7.46975
           25010         7.69678
           25011     370.578E-03
           25012     350.413E-03
           25013     339.008E-03
           25014     386.506E-03
           25015     419.324E-03
           25016     427.538E-03
           25017     434.974E-03
           25018     428.428E-03
           25019     472.980E-03
           25020     396.857E-03
           25021     340.613E-03
           25022     345.213E-03
           25023     369.003E-03
           25024     349.147E-03
           25025     284.979E-03
           25026     305.006E-03
           25027     315.038E-03
           25028     417.481E-03
           25029     410.572E-03
           25030         2.64913
           25031         2.64809
           25032         2.65100
           25033         2.65678
           25034         2.63552
           25035         2.64492
           25036         2.64570
           25037         2.60892
           25038         2.59072
           25039         2.59846
           25040         2.59851
           25041         2.61602
           25042         2.60835
           25043         2.61880
           25044         2.62501
           25045         2.61478
           25046         2.60585
           25047         2.65328
           25048         2.66770
           25049         2.65742
           25050         2.65620
           25051         2.65158
           25052         2.62575
           25053         2.62263
           25054         5.43644
           25055         5.50347
           25056         5.60346
           25057         5.45933
           25058         5.53661
           25059         5.29518
           25060         5.16530
           25061         5.22874
           25062         5.06981
           25063         5.19852
           25064         5.13535
           25065         5.27451
           25066         5.11337
           25067         5.19712
           25068         5.04035
           25069         5.11484
           25070         5.10266
           25071         5.26280
           25072         5.10385
           25073         5.21059
           25074         5.05885
           25075         5.12309
           25076         5.27546
           25077         5.28794
           25078         5.33784
           25079         5.43830
           25080         5.53747
           25081         5.38446
           25082         5.37472
           25083         5.33874
           25084         5.13856
           25085         5.29906
           25086         5.21503
           25087         3.11862
           25088         3.15957
           25089         3.12259
           25090         3.13212
           25091         3.09318
           25092         3.12795
           25093         3.14895
           25094         3.11204
           25095         3.15298
           25096         3.13048
           25097         3.16084
           25098         3.16761
           25099         3.13716
           25100         3.09025
           25101         3.11824
           25102         3.03852
           25103         3.06127
           25104         3.05979
           25105         3.09827
           25106         3.07709
           25107         3.05994
           25108         3.09479
           25109         3.11635
           25110         3.13573
           25111         2.48250
           25112         2.37209
           25113         2.66771
           25114         2.78096
           25115         2.54903
           25116         3.07032
           25117         5.38345
           25118         5.38864
           25119         5.37478
           25120         5.44579
           25121         5.43865
           25122         5.45092
           25123         5.34593
           25124         5.29253
           25125         5.32589
           25126         5.28212
           25127         5.33694
           25128         5.30365
           25129         5.33477
           25130         5.38506
           25131         5.39097
           25132         5.28998
           25133         5.30150
           25134         5.32203
           25135         5.36326
           25136         5.34675
           25137         5.32679
           25138         5.41596
           25139         5.44040
           25140         5.40201
           25141         5.40156
           25142         5.37347
           25143         5.41623
           25144         5.43251
           25145         5.41489
           25146         5.44425
           25147         2.97307
           25148         2.96294
           25149         3.00539
           25150         2.94530
           25151         2.95488
           25152         2.91500
           25153         2.88452
           25154         2.90288
           25155         2.91537
           25156         2.92578
           25157         2.90683
           25158         2.89398
           25159         2.93442
           25160         2.88696
           25161         2.90483
           25162     460.249E-03
           25163     422.528E-03
           25164     477.542E-03
           25165     535.441E-03
           25166     576.848E-03
           25167     520.499E-03
           25168         2.94471
           25169         2.96536
           25170         2.99497
           25171         2.93418
           25172         2.89810
           25173         2.86347
           25174         2.86203
           25175         2.81650
           25176         2.84817
           25177         2.84977
           25178         2.95421
           25179         5.44496
           25180         5.44137
           25181         5.39675
           25182         5.42662
           25183         5.42920
           25184         5.47224
           25185         5.48397
           25186         5.43972
           25187         5.46885
           25188         5.46414
           25189         5.41985
           25190         5.46081
           25191         5.46850
           25192         5.42951
           25193         5.45604
           25194         5.48339
           25195         5.53318
           25196         5.53658
           25197         5.38895
           25198         5.42807
           25199         5.40130
           25200         2.50859
           25201         2.41780
           25202         2.54028
           25203         2.27394
           25204         2.36724
           25205         2.26095
           25206         2.53509
           25207         2.68658
           25208         2.49013
           25209         2.43663
           25210         2.54371
           25211         2.32520
           25212         2.76179
           25213         3.05724
           25214         2.91110
           25215         3.00351
           25216         2.71015
           25217         2.83272
           25218         2.75320
           25219         3.01788
           25220         2.89871
           25221         2.94743
           25222         3.20604
           25223         3.09046
           25224         2.81323
           25225         3.11600
           25226         2.93407
           25227         4.60960
           25228         4.48738
           25229         4.53564
           25230         4.45272
           25231         4.57523
           25232         4.52661
           25233         4.47602
           25234         4.53442
           25235         4.43422
           25236         4.46859
           25237         4.56875
           25238         4.31132
           25239         4.31839
           25240         4.38533
           25241         4.27927
           25242         4.27286
           25243         4.20794
           25244         4.41298
           25245         4.34465
           25246         4.29294
           25247         4.35971
           25248         4.39318
           25249         4.44879
           25250         4.50179
           25251         3.16571
           25252         3.11760
           25253         3.20281
           25254         3.20509
           25255         3.25288
           25256         3.16715
           25257         3.13328
           25258         3.18137
           25259         3.09828
           25260         3.46982
           25261         3.52675
           25262         3.47798
           25263         3.53282
           25264         3.47566
           25265         3.52387
           25266         3.47696
           25267         3.42927
           25268         3.24536
           25269         3.24749
           25270         3.19073
           25271         3.25385
           25272         3.22334
           25273         3.26411
           25274         3.44973
           25275         3.44399
           25276         3.42852
           25277         3.37250
           25278         3.38676
           25279         3.28894
           25280         3.28512
           25281         3.36681
           25282         3.33179
           25283         3.37361
           25284         3.41699
           25285         2.05411
           25286         2.08683
           25287         2.06090
           25288         2.06121
           25289         2.02814
           25290         2.05267
           25291         2.03245
           25292         2.05879
           25293         2.05439
           25294         2.05093
           25295         2.02350
           25296         2.02844
           25297         2.00159
           25298         2.00387
           25299         2.00780
           25300         2.03327
           25301         2.06616
           25302         2.05826
           25303         2.06188
           25304         2.56735
           25305         2.56709
           25306         2.57170
           25307         2.56767
           25308         2.56875
           25309         2.56316
           25310         3.46812
           25311         3.72762
           25312         3.71150
           25313         3.78315
           25314         3.52157
           25315         3.53691
           25316         2.57455
           25317         2.56780
           25318         2.56544
           25319         2.56155
           25320         2.57078
           25321         2.58114
           25322         2.58445
           25323         2.57658
           25324         2.57882
           25325         2.58261
           25326         2.57788
           25327         2.57640
           25328         2.58574
           25329         2.58234
           25330         2.57739
           25331         2.58421
           25332         2.57844
           25333         2.58271
           25334         2.57404
           25335         2.58126
           25336         2.57911
           25337         2.57009
           25338         2.57525
           25339         2.57232
           25340         2.41749
           25341         2.37100
           25342         2.39904
           25343         2.37971
           25344         2.31962
           25345         2.25706
           25346         2.28857
           25347         2.26834
           25348         2.33222
           25349         2.29942
           25350         2.32188
           25351         2.25911
           25352         2.28860
           25353         2.12905
           25354         2.16817
           25355         2.16426
           25356         2.19929
           25357         2.16020
           25358         2.16443
           25359         2.07972
           25360         2.06213
           25361         2.10630
           25362         2.11190
           25363         2.08503
           25364         3.07165
           25365         3.09826
           25366         3.07674
           25367         3.20041
           25368         3.18041
           25369         3.18750
           25370         3.13546
           25371         3.17157
           25372         3.17741
           25373         3.15338
           25374         3.11257
           25375         3.09270
           25376         3.17923
           25377         3.17355
           25378         3.11630
           25379         3.12208
           25380         3.15927
           25381         2.99951
           25382         2.96243
           25383         2.96691
           25384         2.93266
           25385         2.96886
           25386         2.96414
           25387         3.03752
           25388         3.06434
           25389         3.03143
           25390         3.02955
           25391         3.00339
           25392         3.03522
           25393         3.05677
           25394         3.12854
           25395         3.07235
           25396         3.10655
           25397         3.09138
           25398         3.10014
           25399     427.631E-03
           25400     484.129E-03
           25401     394.642E-03
           25402     456.046E-03
           25403     425.998E-03
           25404     505.101E-03
           25405     476.198E-03
           25406     393.007E-03
           25407     392.134E-03
           25408     405.719E-03
           25409     455.427E-03
           25410     442.468E-03
           25411     425.359E-03
           25412     369.774E-03
           25413     370.294E-03
           25414     390.127E-03
           25415     345.998E-03
           25416     334.476E-03
           25417     359.024E-03
           25418     370.452E-03
           25419     311.149E-03
           25420         6.16208
           25421         6.33105
           25422         6.24599
           25423         6.22813
           25424         6.06269
           25425         5.96956
           25426         5.90209
           25427         5.91842
           25428         5.81310
           25429         5.90540
           25430         5.99197
           25431         6.01541
           25432         6.02896
           25433         5.94363
           25434         5.92226
           25435         5.87323
           25436         5.97513
           25437         5.90856
           25438         6.33398
           25439         6.17320
           25440         6.17430
           25441         6.25600
           25442         6.33782
           25443         6.24983
           25444         6.52204
           25445         6.61653
           25446         6.53346
           25447         6.53352
           25448         6.44304
           25449         6.52300
           25450         5.93807
           25451         6.03879
           25452         5.92906
           25453         6.09529
           25454         6.24630
           25455         6.32940
           25456         6.16916
           25457         6.18129
           25458         6.03912
           25459         2.63362
           25460         2.63553
           25461         2.64147
           25462         2.64217
           25463         2.64022
           25464         2.63412
           25465         2.15549
           25466         2.15587
           25467         2.09901
           25468         2.13370
           25469         2.18910
           25470         2.08852
           25471         2.06318
           25472         2.04808
           25473         2.01165
           25474         2.07392
           25475         1.96655
           25476         2.01837
           25477         1.98145
           25478         2.11332
           25479         2.11397
           25480         2.07293
           25481         2.05808
           25482         2.05751
           25483         2.07085
           25484         2.08801
           25485         2.11510
           25486         2.14891
           25487         2.10456
           25488         3.99078
           25489         4.11716
           25490         4.09859
           25491         4.20465
           25492         4.23846
           25493         4.25051
           25494         4.22039
           25495         4.33316
           25496         4.18365
           25497     229.812E-03
           25498     242.447E-03
           25499     258.810E-03
           25500     231.192E-03
           25501     219.838E-03
           25502     203.145E-03
           25503     267.199E-03
           25504     332.007E-03
           25505     310.167E-03
           25506     313.904E-03
           25507     335.675E-03
           25508     245.627E-03
           25509     310.060E-03
           25510     266.953E-03
           25511     245.951E-03
           25512     224.764E-03
           25513     224.723E-03
           25514     198.516E-03
           25515     218.470E-03
           25516     271.982E-03
           25517     259.404E-03
           25518     292.896E-03
           25519     279.971E-03
           25520     292.121E-03
           25521         3.49696
           25522         3.54360
           25523         3.70762
           25524         3.45747
           25525         3.41051
           25526         3.24689
           25527     348.982E-03
           25528     326.870E-03
           25529     208.540E-03
           25530     187.836E-03
           25531     227.973E-03
           25532     249.054E-03
           25533     210.662E-03
           25534         1.06673
           25535         1.14546
           25536         1.21288
           25537     175.700E-03
           25538     167.292E-03
           25539     136.095E-03
           25540     118.555E-03
           25541     125.647E-03
           25542     156.602E-03
           25543     130.341E-03
           25544     108.102E-03
           25545     147.427E-03
           25546     116.261E-03
           25547     138.985E-03
           25548     99.3097E-03
           25549     138.838E-03
           25550     161.798E-03
           25551     121.737E-03
           25552     103.490E-03
           25553     87.0842E-03
           25554     76.8759E-03
           25555     72.2463E-03
           25556     93.1617E-03
           25557         1.12810
           25558     973.491E-03
           25559     895.023E-03
           25560         1.05072
           25561     932.191E-03
           25562     89.6652E-03
           25563     59.8737E-03
           25564     77.4904E-03
           25565     55.4098E-03
           25566     84.9960E-03
           25567     67.2538E-03
           25568     89.3950E-03
           25569     90.6636E-03
           25570     110.029E-03
           25571     127.249E-03
           25572     106.511E-03
           25573     61.5583E-03
           25574     79.1019E-03
           25575     49.6707E-03
           25576         3.71288
           25577         3.70671
           25578         3.80366
           25579         3.66693
           25580         3.67321
           25581         3.57968
           25582         3.85594
           25583         3.86159
           25584         3.77780
           25585         3.72625
           25586         3.72037
           25587         3.97195
           25588         3.91837
           25589         3.96544
           25590         3.85520
           25591         3.90845
           25592         3.86542
           25593         3.86026
           25594         3.76802
           25595         3.99189
           25596         3.97613
           25597         3.93878
           25598     462.673E-03
           25599     516.622E-03
           25600     521.090E-03
           25601     517.803E-03
           25602     464.505E-03
           25603     459.642E-03
           25604     390.461E-03
           25605     344.215E-03
           25606     415.727E-03
           25607     437.009E-03
           25608     483.760E-03
           25609     412.111E-03
           25610     512.114E-03
           25611     571.549E-03
           25612     521.880E-03
           25613     565.620E-03
           25614     506.276E-03
           25615     556.311E-03
           25616     417.406E-03
           25617     346.224E-03
           25618     414.146E-03
           25619     485.716E-03
           25620     440.968E-03
           25621         3.83894
           25622         3.82978
           25623         3.89242
           25624         3.84680
           25625         3.85673
           25626         3.79468
           25627         3.74811
           25628         3.80901
           25629         3.75376
           25630         3.84416
           25631         3.78253
           25632         3.96250
           25633         4.07424
           25634         4.01127
           25635         4.05595
           25636         3.94284
           25637         4.00543
           25638         4.07003
           25639         3.95838
           25640         4.00115
           25641         3.93410
           25642         3.89165
           25643         3.95310
           25644         3.99342
           25645         3.93350
           25646         4.04286
           25647     810.033E-03
           25648     805.086E-03
           25649     816.600E-03
           25650     963.298E-03
           25651     969.699E-03
           25652     957.673E-03
           25653     985.417E-03
           25654     987.835E-03
           25655     870.446E-03
           25656         1.04934
           25657         1.02535
           25658         1.14555
           25659     786.175E-03
           25660     667.940E-03
           25661     775.619E-03
           25662     740.286E-03
           25663     860.107E-03
           25664     749.680E-03
           25665     866.588E-03
           25666         1.00757
           25667         1.18744
           25668         1.05886
           25669     852.563E-03
           25670     734.444E-03
           25671     812.156E-03
           25672     768.130E-03
           25673         1.21317
           25674         1.03177
           25675         1.07365
           25676         1.67896
           25677         1.76585
           25678         1.73961
           25679         1.82312
           25680         1.73782
           25681         1.76447
           25682         1.81835
           25683         1.85715
           25684         1.86036
           25685         1.90530
           25686         1.86771
           25687         1.86444
           25688         1.83194
           25689         1.78945
           25690         1.79294
           25691     296.516E-03
           25692     343.637E-03
           25693         1.73712
           25694         1.64939
           25695         1.73257
           25696         1.70563
           25697         4.38049
           25698         4.33661
           25699         4.65830
           25700         4.62230
           25701         4.69363
           25702         4.35251
           25703         4.19820
           25704         4.54261
           25705         4.47010
           25706         4.34452
           25707         4.38808
           25708         4.05097
           25709     396.137E-03
           25710     507.587E-03
           25711     489.566E-03
           25712     460.043E-03
           25713         5.52630
           25714         5.38095
           25715         5.12886
           25716         4.86317
           25717         5.00201
           25718         5.26481
           25719         5.08214
           25720         5.04222
           25721         5.08112
           25722         5.04013
           25723         5.08312
           25724         5.04186
           25725         5.11617
           25726         5.08241
           25727         5.07915
           25728         5.11453
           25729         5.11276
           25730         5.04085
           25731         5.07908
           25732         5.07391
           25733         5.11858
           25734         5.16189
           25735         5.16353
           25736         5.21819
           25737         5.17865
           25738         5.17438
           25739         5.15731
           25740         5.15932
           25741         5.12738
           25742         5.08983
           25743         5.08517
           25744         2.34222
           25745         2.42880
           25746         2.40463
           25747         2.47863
           25748         2.38811
           25749         2.41331
           25750         2.40483
           25751         2.43519
           25752         2.34686
           25753         2.41851
           25754         2.47885
           25755         2.39392
           25756         2.46809
           25757         2.49120
           25758         2.40034
           25759         2.43954
           25760         2.44958
           25761         2.46560
           25762         2.42547
           25763         2.49175
           25764         3.82798
           25765         3.73310
           25766         3.80403
           25767         3.73590
           25768         3.85293
           25769         3.73245
           25770         3.77866
           25771         3.66336
           25772         3.78230
           25773         3.79148
           25774         3.67128
           25775         3.70378
           25776         3.65124
           25777         3.76956
           25778         3.61597
           25779         3.58550
           25780         3.50812
           25781         3.54367
           25782         3.57340
           25783         3.63556
           25784         3.56545
           25785         3.52972
           25786         3.62803
           25787         3.60753
           25788     13.9251E-03
           25789     26.7445E-03
           25790     29.7455E-03
           25791     28.0605E-03
           25792     15.7297E-03
           25793     63.4379E-03
           25794     69.9470E-03
           25795     109.350E-03
           25796     69.2497E-03
           25797     22.9971E-03
           25798     27.0186E-03
           25799     60.4259E-03
           25800     37.4037E-03
           25801     30.8708E-03
           25802     24.8428E-03
           25803     20.1292E-03
           25804     32.8230E-03
           25805         2.36573
           25806         2.32326
           25807         2.28730
           25808         2.38121
           25809         2.42194
           25810         2.45640
           25811         2.21416
           25812         2.08156
           25813         2.12629
           25814         2.18822
           25815         2.29236
           25816         2.34636
           25817         2.59420
           25818         2.49151
           25819         2.43436
           25820         2.10516
           25821         2.06211
           25822         2.13738
           25823     898.622E-03
           25824     813.178E-03
           25825     858.002E-03
           25826     778.354E-03
           25827     864.808E-03
           25828     818.809E-03
           25829     841.533E-03
           25830     920.802E-03
           25831     874.469E-03
           25832         1.05764
           25833         1.01013
           25834         1.01812
           25835     951.513E-03
           25836     998.997E-03
           25837     909.719E-03
           25838     922.687E-03
           25839     955.281E-03
           25840     913.862E-03
           25841     902.181E-03
           25842     868.613E-03
           25843         1.07270
           25844         1.04811
           25845         1.06480
           25846         1.01000
           25847         1.02199
           25848         2.26340
           25849         2.30252
           25850         2.27068
           25851         2.27472
           25852         2.23863
           25853         2.26712
           25854         2.24638
           25855         2.22376
           25856         2.21088
           25857         2.21556
           25858         2.25067
           25859         2.18174
           25860         2.20295
           25861         2.20754
           25862         3.45392
           25863         3.22047
           25864         3.16267
           25865         2.90596
           25866         3.14761
           25867         3.18783
           25868         7.17992
           25869         7.24628
           25870         7.37438
           25871         7.41923
           25872         7.30236
           25873         7.03234
           25874         6.98653
           25875         6.83646
           25876         7.04030
           25877         7.07277
           25878         6.64198
           25879         6.79740
           25880         6.59947
           25881         1.91184
           25882         2.15060
           25883         1.86178
           25884         1.92320
           25885         1.68280
           25886         1.96132
           25887         6.80527
           25888         7.01943
           25889         6.84903
           25890         6.80011
           25891     574.000E-03
           25892     583.670E-03
           25893     659.944E-03
           25894         2.26824
           25895         2.31947
           25896         2.31456
           25897         2.17349
           25898         2.13447
           25899         2.13329
           25900         2.18691
           25901         2.13920
           25902         2.17553
           25903         2.12494
           25904         2.17016
           25905         2.23057
           25906         2.28651
           25907         2.22344
           25908         2.26317
           25909         2.21821
           25910         2.20970
           25911         1.51528
           25912     805.770E-03
           25913     723.536E-03
           25914     793.602E-03
           25915     773.263E-03
           25916     855.539E-03
           25917     784.885E-03
           25918     903.696E-03
           25919     965.568E-03
           25920     938.069E-03
           25921     944.094E-03
           25922     881.818E-03
           25923     909.918E-03
           25924         3.08720
           25925         3.06341
           25926         3.07804
           25927         3.12556
           25928         3.14987
           25929         3.13484
           25930         3.01482
           25931         2.94873
           25932         3.03154
           25933         3.01669
           25934         3.00036
           25935         3.11264
           25936         3.08852
           25937         3.00787
           25938         3.04146
           25939         2.75832
           25940         2.76125
           25941         2.79109
           25942         2.74765
           25943         2.74601
           25944         2.71548
           25945         2.29082
           25946         2.15476
           25947         1.97237
           25948         2.15630
           25949         2.29512
           25950         2.48422
           25951         2.72730
           25952         2.78624
           25953         2.75990
           25954         2.75218
           25955         2.81880
           25956         2.80872
           25957         2.76784
           25958         2.79761
           25959         2.80086
           25960         2.18264
           25961         2.17959
           25962         2.22679
           25963         2.18542
           25964         2.18908
           25965         2.14515
           25966         2.14383
           25967         2.17875
           25968         2.13645
           25969         2.16386
           25970         2.18398
           25971         2.15557
           25972         2.21054
           25973         2.20645
           25974         2.23104
           25975         2.16151
           25976         2.22296
           25977         2.22589
           25978         2.17511
           25979         2.26232
           25980         2.27627
           25981         2.27623
           25982         2.30992
           25983         2.28175
           25984         1.95688
           25985         1.77613
           25986         2.03971
           25987         7.66914
           25988         7.67236
           25989         7.88155
           25990         7.73118
           25991         7.72781
           25992         7.52431
           25993         7.30101
           25994         7.26870
           25995         7.25939
           25996         7.56805
           25997         7.29123
           25998         7.43538
           25999         7.71961
           26000         7.71111
           26001         7.23777
           26002         7.27291
           26003         7.11132
           26004         7.44483
           26005         7.14291
           26006         7.38313
           26007         7.44082
           26008         7.58701
           26009         7.10752
           26010         7.14318
           26011         2.16955
           26012         2.20145
           26013         2.18961
           26014         2.18321
           26015         2.15109
           26016         2.16328
           26017         2.12534
           26018         2.13202
           26019         2.14386
           26020         2.18563
           26021         2.19727
           26022         2.16243
           26023         2.15002
           26024         2.17818
           26025         3.56081
           26026         3.64003
           26027         3.67034
           26028         3.69274
           26029         3.61050
           26030         3.45283
           26031         3.45675
           26032         3.47325
           26033         3.52482
           26034         3.42085
           26035         3.36942
           26036         3.41722
           26037         8.44983
           26038         8.80926
           26039         9.06989
           26040         8.37270
           26041         8.06103
           26042         7.81512
           26043         10.1203
           26044         9.57475
           26045         9.37553
           26046         7.09171
           26047         7.00267
           26048         7.39369
           26049         7.84720
           26050         7.89347
           26051         7.40700
           26052         7.19339
           26053         7.53375
           26054         7.82797
           26055         8.19745
           26056         7.52184
           26057         7.83927
           26058         7.49349
           26059         7.99628
           26060         8.39293
           26061         1.60215
           26062         1.87162
           26063         1.51825
           26064         1.38954
           26065         1.15543
           26066         1.48454
           26067     803.582E-03
           26068         1.12724
           26069         1.08815
           26070         1.34447
           26071         1.49667
           26072         1.30516
           26073         2.07613
           26074         1.95288
           26075         2.32607
           26076         1.76778
           26077         1.36627
           26078         3.88409
           26079         3.81786
           26080         3.79556
           26081         3.62841
           26082         3.64830
           26083         3.56089
           26084         3.71643
           26085         3.81649
           26086         3.89233
           26087         3.56343
           26088         3.65091
           26089         3.64308
           26090         4.53662
           26091         4.59406
           26092         4.48193
           26093         4.56448
           26094         4.50819
           26095         4.62012
           26096         4.51778
           26097         4.43768
           26098         4.54709
           26099         4.40508
           26100         4.51336
           26101         4.41507
           26102         5.18489
           26103         5.30402
           26104         5.10892
           26105         5.19706
           26106         5.07864
           26107         5.27303
           26108         5.30465
           26109         5.10944
           26110         5.20075
           26111         5.07995
           26112         5.27723
           26113         5.13262
           26114         5.33191
           26115         5.22490
           26116         4.93815
           26117         4.82377
           26118         4.87442
           26119         4.72498
           26120         4.83944
           26121         4.78785
           26122         5.24687
           26123         5.05067
           26124         5.16982
           26125         10.5790
           26126         8.51326
           26127         8.99252
           26128         7.64279
           26129         8.80692
           26130         8.56890
           26131         2.28910
           26132         2.50581
           26133         2.36651
           26134         2.35084
           26135         12.0861
           26136         14.7610
           26137         14.2323
           26138         9.35952
           26139         8.93705
           26140         12.5729
           26141         16.5425
           26142         12.5498
           26143         2.59682
           26144         2.60903
           26145         2.60927
           26146         2.61141
           26147         2.59909
           26148         2.59908
           26149         2.60557
           26150         2.60597
           26151         2.61881
           26152     522.816E-03
           26153     368.728E-03
           26154     537.606E-03
           26155     689.221E-03
           26156     869.585E-03
           26157     676.579E-03
           26158         2.87428
           26159         2.89288
           26160         2.86008
           26161         2.85010
           26162         2.60645
           26163         2.19901
           26164         2.22027
           26165         2.21883
           26166         2.25368
           26167         2.23195
           26168         2.23294
           26169         2.18826
           26170         2.18932
           26171         2.16378
           26172         2.15224
           26173         2.23126
           26174         2.26399
           26175         2.23390
           26176         2.19998
           26177         2.23320
           26178         1.85468
           26179         2.02858
           26180         1.96233
           26181         2.02838
           26182         1.85518
           26183         1.92440
           26184         1.67667
           26185         1.50767
           26186         1.61809
           26187         1.55486
           26188         1.72572
           26189         1.61431
           26190         2.58470
           26191         2.59436
           26192         2.58767
           26193         2.58877
           26194         2.58579
           26195         2.57848
           26196         2.57764
           26197         2.58369
           26198         2.56904
           26199         2.57823
           26200         2.57330
           26201         2.57337
           26202         2.57722
           26203         2.58265
           26204         2.58199
           26205         2.56441
           26206         2.56717
           26207         2.56836
           26208         2.56096
           26209         2.56779
           26210         2.57242
           26211         2.56501
           26212         2.56364
           26213         2.55940
           26214         2.56816
           26215         2.56077
           26216     35.4312E-03
           26217     34.8171E-03
           26218     19.4528E-03
           26219     35.2650E-03
           26220     35.1455E-03
           26221     53.6975E-03
           26222     22.5758E-03
           26223     22.6369E-03
           26224     21.4838E-03
           26225     28.5730E-03
           26226     30.3870E-03
           26227     29.3318E-03
           26228     22.7588E-03
           26229     21.7442E-03
           26230     19.3387E-03
           26231     16.9038E-03
           26232     19.6806E-03
           26233     17.6698E-03
           26234     18.7217E-03
           26235     33.2543E-03
           26236     29.2733E-03
           26237     30.6168E-03
           26238     28.6741E-03
           26239     568.589E-03
           26240     657.652E-03
           26241     680.491E-03
           26242     733.492E-03
           26243     639.659E-03
           26244     616.787E-03
           26245     759.774E-03
           26246     663.568E-03
           26247     721.308E-03
           26248     629.131E-03
           26249     544.463E-03
           26250     599.681E-03
           26251         1.19987
           26252         1.26861
           26253         1.25326
           26254         1.30475
           26255         1.23663
           26256         1.25046
           26257         1.08875
           26258         1.02042
           26259         1.11586
           26260         1.09804
           26261         1.16665
           26262         1.07244
           26263         4.00716
           26264         4.01508
           26265         3.95933
           26266         4.03420
           26267         4.02746
           26268         4.08313
           26269         3.96175
           26270         3.92605
           26271         3.91567
           26272         3.97587
           26273         4.01197
           26274         4.02394
           26275         3.88804
           26276         3.79263
           26277         3.85373
           26278         3.80893
           26279         3.90250
           26280         3.84161
           26281         4.06765
           26282         4.01834
           26283         3.95883
           26284         4.01476
           26285         3.81727
           26286         3.88940
           26287         3.92542
           26288         3.82698
           26289         3.85148
           26290         1.45858
           26291         1.68704
           26292         1.42827
           26293         1.57325
           26294         1.35559
           26295         1.60469
           26296         1.56435
           26297         1.32444
           26298         1.53612
           26299         1.21319
           26300         1.12085
           26301         1.26696
           26302         1.35239
           26303         1.73476
           26304         1.67439
           26305         1.71690
           26306         1.69129
           26307         1.75086
           26308         1.70810
           26309         1.76584
           26310         1.80689
           26311         1.80905
           26312         1.85246
           26313         1.80938
           26314         1.92648
           26315         1.92300
           26316         1.95549
           26317         1.98624
           26318         1.93933
           26319         1.90401
           26320         1.95518
           26321         1.67473
           26322         1.73352
           26323         1.70854
           26324         1.67444
           26325         1.73462
           26326         1.70627
           26327         1.74930
           26328         1.68993
           26329         4.57252
           26330         4.60986
           26331         4.52404
           26332         4.74540
           26333         4.84258
           26334         4.90320
           26335         4.80464
           26336         4.85460
           26337         4.55244
           26338         4.54346
           26339         4.62824
           26340         4.48628
           26341         4.47420
           26342         4.61592
           26343         4.53066
           26344         4.46825
           26345     706.036E-03
           26346     679.253E-03
           26347     682.596E-03
           26348         5.40143
           26349         5.36514
           26350         5.29153
           26351         5.22421
           26352         5.26052
           26353         5.33408
           26354         5.17133
           26355         5.21247
           26356         5.13846
           26357         5.32910
           26358         5.29353
           26359         5.21324
           26360         5.12911
           26361         4.94593
           26362         5.01710
           26363         4.97791
           26364         5.15537
           26365         5.09062
           26366         2.79913
           26367         2.85157
           26368         2.53254
           26369         2.80183
           26370         5.08814
           26371         5.17102
           26372         5.10871
           26373         5.02652
           26374         5.02365
           26375         5.07436
           26376         4.96611
           26377         4.89763
           26378         5.10644
           26379         5.16996
           26380         5.29026
           26381         5.26941
           26382         5.23282
           26383         5.04926
           26384         5.00449
           26385         4.40095
           26386         4.54211
           26387         4.45333
           26388         4.53164
           26389         4.38992
           26390         4.48002
           26391         4.29014
           26392         4.35021
           26393         4.35493
           26394         4.45165
           26395         4.40258
           26396         4.38770
           26397         4.49759
           26398         4.54366
           26399         4.53476
           26400         4.39346
           26401         4.48379
           26402         2.63052
           26403         2.61910
           26404         2.62854
           26405         2.62788
           26406         2.64009
           26407         2.63004
           26408         2.65195
           26409         2.66154
           26410         2.65004
           26411         2.64936
           26412         2.65106
           26413         2.64794
           26414         2.65692
           26415         2.64887
           26416         2.66045
           26417         2.65140
           26418         2.65928
           26419         2.63786
           26420         2.62883
           26421         2.63125
           26422         2.63183
           26423         2.64102
           26424         2.63868
           26425         2.63223
           26426         2.64241
           26427         2.63280
           26428         2.63120
           26429         2.62165
           26430         2.71928
           26431         2.64880
           26432         2.71598
           26433         2.70563
           26434         2.77937
           26435         2.70933
           26436         2.81796
           26437         2.89349
           26438         2.86388
           26439         2.86007
           26440         2.78654
           26441         2.81518
           26442         2.87107
           26443         2.90080
           26444         2.81261
           26445         2.78426
           26446         2.86443
           26447         2.80738
           26448         2.81768
           26449         2.74560
           26450         2.70905
           26451         2.64258
           26452         2.71343
           26453         2.78382
           26454         2.70293
           26455         2.35921
           26456         2.30044
           26457         2.29943
           26458         2.23367
           26459         2.28679
           26460         2.28742
           26461         2.29753
           26462         2.31026
           26463         2.37382
           26464         2.33677
           26465         2.32413
           26466         2.26358
           26467         2.34900
           26468         2.36279
           26469         2.37366
           26470         2.43592
           26471         2.42362
           26472         2.41128
           26473         2.43886
           26474         2.42365
           26475         2.43673
           26476         2.37276
           26477         2.38560
           26478         3.67201
           26479         3.60963
           26480         3.67762
           26481         3.64474
           26482         3.70783
           26483         3.63877
           26484         3.80592
           26485         3.84017
           26486         3.77554
           26487         3.91166
           26488         3.87690
           26489         3.94385
           26490         3.91165
           26491         3.87705
           26492         4.01566
           26493         3.90972
           26494         3.78540
           26495         3.88699
           26496         3.75266
           26497         3.77378
           26498         3.71184
           26499         3.74212
           26500         2.56009
           26501         2.76727
           26502         2.60239
           26503         2.64517
           26504         2.43417
           26505         2.59913
           26506         2.51450
           26507         2.67377
           26508         2.53547
           26509         2.37832
           26510         2.49894
           26511         2.38207
           26512         2.22407
           26513         2.22462
           26514         2.07620
           26515         2.24975
           26516         2.23226
           26517         2.56685
           26518         2.68043
           26519         2.50261
           26520         2.54602
           26521         2.47853
           26522         2.49092
           26523         2.47306
           26524         2.48141
           26525         2.46932
           26526         2.48690
           26527         2.46979
           26528         2.46382
           26529         2.45430
           26530         2.46059
           26531         2.46666
           26532         2.47558
           26533         2.47124
           26534         2.47979
           26535         2.46839
           26536         2.48152
           26537         2.48402
           26538         2.99855
           26539         2.44102
           26540         2.43806
           26541         2.44681
           26542         2.45234
           26543         2.45512
           26544         2.44648
           26545         2.44537
           26546         2.44029
           26547         2.46067
           26548         2.46332
           26549         4.84042
           26550         4.69027
           26551         4.74096
           26552         4.67913
           26553         4.82698
           26554         4.77649
           26555         4.81732
           26556         4.76714
           26557         4.92989
           26558         4.98311
           26559         4.90797
           26560         5.19158
           26561         5.36720
           26562         5.19631
           26563         5.12619
           26564         4.95877
           26565         5.12125
           26566         2.34763
           26567         2.34760
           26568         2.35721
           26569         2.33966
           26570         2.33878
           26571         2.32894
           26572         2.35561
           26573         2.35406
           26574         2.35666
           26575         2.36846
           26576         2.31496
           26577         2.32756
           26578         2.34235
           26579         2.34246
           26580         2.33057
           26581         2.31571
           26582         2.31260
           26583         2.33240
           26584         2.32182
           26585         2.33130
           26586         2.32743
           26587         2.31616
           26588         2.39606
           26589         2.40042
           26590         2.35007
           26591         2.29548
           26592         2.29143
           26593         2.30221
           26594         2.31047
           26595         5.95313
           26596         5.99517
           26597         5.95175
           26598         5.91962
           26599         5.87846
           26600         5.91962
           26601         6.08758
           26602         6.13548
           26603         6.05198
           26604         6.12585
           26605         6.07592
           26606         6.16327
           26607         6.07751
           26608         6.20129
           26609         6.10976
           26610         6.09233
           26611         5.98218
           26612         6.06075
           26613         5.91326
           26614         5.99109
           26615         5.91961
           26616         5.84950
           26617         5.91152
           26618         5.95034
           26619         5.87993
           26620         5.87842
           26621         6.00361
           26622         6.05034
           26623         3.72365
           26624         3.68535
           26625         3.68575
           26626         3.75243
           26627         3.79133
           26628         3.79166
           26629         3.80595
           26630         3.87771
           26631         3.78945
           26632         3.72120
           26633         3.80389
           26634         3.80168
           26635         3.90001
           26636         3.81855
           26637         3.89074
           26638         3.87335
           26639         3.81894
           26640     225.402E-03
           26641     254.031E-03
           26642     324.407E-03
           26643     260.352E-03
           26644     233.900E-03
           26645     172.774E-03
           26646         2.61598
           26647         2.61936
           26648         2.62118
           26649         2.62410
           26650         2.62079
           26651         2.61908
           26652         2.63135
           26653         2.63560
           26654         2.62921
           26655         2.62504
           26656         2.62679
           26657         2.63036
           26658         2.64208
           26659         2.63541
           26660         2.63537
           26661         2.62316
           26662         2.62943
           26663         2.62801
           26664         2.63471
           26665         2.62932
           26666         1.37149
           26667         1.40039
           26668         1.25404
           26669         1.34620
           26670         1.31521
           26671         1.46319
           26672         1.15473
           26673         1.18013
           26674         1.24814
           26675         1.32835
           26676         1.30454
           26677         1.23495
           26678         1.29141
           26679         1.43983
           26680         1.39244
           26681         1.31629
           26682         1.39666
           26683         1.45053
           26684     775.071E-03
           26685     956.321E-03
           26686         2.76569
           26687         2.76895
           26688         2.76220
           26689         2.74890
           26690         2.74495
           26691         2.75218
           26692         2.74336
           26693         2.73982
           26694         2.75743
           26695         2.74086
           26696         2.74440
           26697         2.72702
           26698         2.72841
           26699         2.74432
           26700         2.74155
           26701         2.76708
           26702         2.76534
           26703         2.75973
           26704         2.77745
           26705         2.77981
           26706         2.78510
           26707         2.74206
           26708         2.72902
           26709         2.74626
           26710         2.74514
           26711         3.21774
           26712         3.15439
           26713         3.12918
           26714         3.18279
           26715         3.24616
           26716         3.27181
           26717         3.09254
           26718         3.18839
           26719         3.12578
           26720         3.03608
           26721         3.21778
           26722         3.26875
           26723         3.13846
           26724         3.26626
           26725         3.11948
           26726         3.14463
           26727         3.24523
           26728         3.21961
           26729         3.14686
           26730         2.45446
           26731         2.41147
           26732         2.43446
           26733         2.45857
           26734         2.50174
           26735         2.47881
           26736         2.50095
           26737         2.51633
           26738         2.49239
           26739         2.46985
           26740         2.45435
           26741         2.47845
           26742         2.55746
           26743         2.53102
           26744         2.61035
           26745         2.55300
           26746         2.58125
           26747         2.52512
           26748         2.50113
           26749         2.57960
           26750         2.57680
           26751     518.088E-03
           26752     496.022E-03
           26753         1.06734
           26754         1.14557
           26755         1.32103
           26756         1.17756
           26757     598.213E-03
           26758     587.030E-03
           26759     580.099E-03
           26760     633.020E-03
           26761     644.338E-03
           26762     651.057E-03
           26763     763.849E-03
           26764     680.840E-03
           26765     672.898E-03
           26766     657.800E-03
           26767     740.536E-03
           26768     748.004E-03
           26769     686.047E-03
           26770     512.210E-03
           26771     586.033E-03
           26772     656.241E-03
           26773     643.531E-03
           26774     726.288E-03
           26775         2.33497
           26776         2.29464
           26777         2.35434
           26778         2.35692
           26779         2.32525
           26780         2.42067
           26781         2.39870
           26782         2.42284
           26783         2.38542
           26784         2.40700
           26785         2.41728
           26786         2.43397
           26787         2.84282
           26788         2.80694
           26789         2.81977
           26790         2.83235
           26791         2.86827
           26792         2.85598
           26793         2.88489
           26794         2.87719
           26795         2.84768
           26796         2.83263
           26797         2.83936
           26798         2.86915
           26799         2.84084
           26800         2.79178
           26801         2.80396
           26802         2.79817
           26803         2.83403
           26804         2.82423
           26805         2.81143
           26806         2.85670
           26807         2.86886
           26808         2.83751
           26809         1.93002
           26810         1.93467
           26811         1.88173
           26812         1.99582
           26813         1.99029
           26814         2.04187
           26815         1.91459
           26816         2.02390
           26817         2.08575
           26818         1.97651
           26819         2.01243
           26820         1.85386
           26821         1.81491
           26822         1.91449
           26823         1.87615
           26824         1.81552
           26825         1.86419
           26826         1.90334
           26827         1.80320
           26828         1.72547
           26829         1.78669
           26830         1.82725
           26831         1.73727
           26832         1.76522
           26833         1.82549
           26834         1.00741
           26835     881.034E-03
           26836     882.884E-03
           26837     969.997E-03
           26838         1.09162
           26839         3.80869
           26840         3.78210
           26841         3.82444
           26842         3.88555
           26843         3.91344
           26844         3.86967
           26845         3.76672
           26846         3.67731
           26847         3.67865
           26848         3.58163
           26849         3.66902
           26850         3.66718
           26851         3.66338
           26852         3.57563
           26853         3.69291
           26854         3.78227
           26855         3.67707
           26856         3.83324
           26857         3.93592
           26858         3.86908
           26859         3.82349
           26860         3.72398
           26861         3.78216
           26862         3.76299
           26863         3.72714
           26864         3.75702
           26865         3.72981
           26866         3.73286
           26867         3.79770
           26868         3.94717
           26869         4.02454
           26870         3.96779
           26871         4.11651
           26872         4.06610
           26873         4.09823
           26874         3.89569
           26875         3.82530
           26876         3.73014
           26877         3.87265
           26878         4.13003
           26879         3.98184
           26880         4.08111
           26881         4.00533
           26882         4.15484
           26883         4.02512
           26884         4.02744
           26885         3.74574
           26886         3.92023
           26887         3.99451
           26888         3.91466
           26889         2.68602
           26890         2.68032
           26891         2.68712
           26892         2.66887
           26893         2.67447
           26894         2.68797
           26895         2.69070
           26896         2.70074
           26897         2.70542
           26898         2.70173
           26899         2.69206
           26900         2.71410
           26901         2.71902
           26902         2.70401
           26903         2.70043
           26904         2.71758
           26905         2.69280
           26906         2.68119
           26907         2.68443
           26908         2.69613
           26909         2.69166
           26910         2.68334
           26911         2.69510
           26912         2.68384
           26913         2.71446
           26914         2.71252
           26915         2.70985
           26916         2.71183
           26917         2.67527
           26918         2.68573
           26919         1.48696
           26920         1.37196
           26921         1.37796
           26922         1.29207
           26923         1.40663
           26924         1.40166
           26925         1.68964
           26926         1.67011
           26927         2.37326
           26928         2.38497
           26929         2.37269
           26930         1.60937
           26931         1.51889
           26932         1.63284
           26933         1.63850
           26934         1.42878
           26935         1.41777
           26936         1.36337
           26937         1.43801
           26938         1.44784
           26939         1.30433
           26940         1.45094
           26941         1.33665
           26942         1.37665
           26943         1.55461
           26944         1.52453
           26945         1.59101
           26946         1.55108
           26947         1.62042
           26948         7.45773
           26949         7.24351
           26950         7.54674
           26951         7.55984
           26952         7.46377
           26953         7.71557
           26954         1.13409
           26955         1.01636
           26956         7.71037
           26957         7.83911
           26958         7.85990
           26959         8.03463
           26960         3.28520
           26961         3.19033
           26962         3.23303
           26963         3.17563
           26964         3.26590
           26965         3.22327
           26966         3.25570
           26967         3.34972
           26968         3.28873
           26969         3.27399
           26970         3.23064
           26971         3.32951
           26972         3.37253
           26973         3.31838
           26974         3.35666
           26975         3.37858
           26976         3.44925
           26977         3.42759
           26978         3.45685
           26979         2.50028
           26980         2.43634
           26981         2.50604
           26982         2.54715
           26983         2.61337
           26984         2.53761
           26985         3.78669
           26986         3.51280
           26987         3.71589
           26988         2.63614
           26989         2.78490
           26990         2.72154
           26991         2.75972
           26992         2.60512
           26993         2.67140
           26994         2.61864
           26995         2.71165
           26996         2.66701
           26997         2.59679
           26998         2.55246
           26999         2.70609
           27000         3.91030
           27001         3.89705
           27002         3.79404
           27003         3.86517
           27004         2.66514
           27005         2.81611
           27006         2.81338
           27007         2.75675
           27008         2.70527
           27009     162.989E-03
           27010     137.722E-03
           27011     123.594E-03
           27012     103.743E-03
           27013     127.792E-03
           27014     141.220E-03
           27015     131.462E-03
           27016     120.922E-03
           27017     137.413E-03
           27018     159.494E-03
           27019     169.934E-03
           27020     152.297E-03
           27021         3.96992
           27022         3.99068
           27023         3.96172
           27024         3.94159
           27025         4.02479
           27026         4.00827
           27027         4.00508
           27028         3.93850
           27029         3.99322
           27030         3.71276
           27031         3.61786
           27032         3.67545
           27033         3.67957
           27034         3.71650
           27035         3.74763
           27036         3.71943
           27037         3.68808
           27038         3.71100
           27039         3.89266
           27040         3.82996
           27041         3.80137
           27042         3.74245
           27043         3.80265
           27044         3.94222
           27045         1.16813
           27046         1.05832
           27047     998.734E-03
           27048         1.17921
           27049         1.23888
           27050         1.22690
           27051         1.17778
           27052         1.28580
           27053         1.21957
           27054         1.22354
           27055         1.35690
           27056         1.36718
           27057         1.31223
           27058         1.29587
           27059         1.34001
           27060         1.32236
           27061         1.34494
           27062         1.32561
           27063         1.28647
           27064         1.27793
           27065         5.35542
           27066         5.52909
           27067         5.38178
           27068         5.41611
           27069         5.24602
           27070         5.39029
           27071         5.49979
           27072         5.32801
           27073         5.36206
           27074         5.15148
           27075         5.18613
           27076         5.12303
           27077         5.08825
           27078         5.27156
           27079         5.44324
           27080         5.41667
           27081         5.79008
           27082         5.75557
           27083         5.76100
           27084         5.75274
           27085         5.78675
           27086         5.78047
           27087         5.89013
           27088         5.85965
           27089         5.88805
           27090         5.84555
           27091         5.87403
           27092         5.84606
           27093         1.22854
           27094         5.82930
           27095         5.82716
           27096         5.79847
           27097         5.82531
           27098         5.82689
           27099         1.84898
           27100         1.74176
           27101         1.84235
           27102         1.38259
           27103         5.81191
           27104         5.82173
           27105         5.79098
           27106         5.81449
           27107         5.78812
           27108         4.37275
           27109         4.54653
           27110         4.37274
           27111         4.43576
           27112         4.26866
           27113         4.43558
           27114         4.27098
           27115         4.43833
           27116         4.42843
           27117         4.26154
           27118         4.32453
           27119         4.26551
           27120         4.20977
           27121         4.15442
           27122         4.20321
           27123         4.25883
           27124         4.31570
           27125         4.32599
           27126         4.31898
           27127         4.14921
           27128         4.20057
           27129         4.20985
           27130         1.87943
           27131         2.25554
           27132         2.12012
           27133         1.95340
           27134         3.91674
           27135         3.89492
           27136         4.19244
           27137         4.08887
           27138         4.09622
           27139         4.20655
           27140         1.48110
           27141         1.12624
           27142         1.39004
           27143     980.974E-03
           27144         1.32920
           27145         1.05571
           27146         2.32519
           27147         2.73215
           27148         2.11921
           27149         2.27163
           27150         1.90593
           27151         2.48911
           27152         1.51143
           27153         1.09289
           27154         1.37632
           27155         1.13725
           27156         1.09518
           27157         1.52101
           27158         1.14186
           27159         1.75601
           27160         1.57723
           27161         1.58752
           27162         1.22580
           27163         1.38265
           27164         1.89067
           27165         1.90474
           27166         1.72154
           27167     33.6923E-03
           27168     27.3498E-03
           27169     21.0367E-03
           27170     27.4270E-03
           27171     33.6247E-03
           27172     40.9280E-03
           27173     21.2564E-03
           27174     19.1023E-03
           27175     28.1351E-03
           27176     19.6975E-03
           27177     21.8754E-03
           27178     28.5167E-03
           27179         2.59727
           27180         2.59372
           27181         2.61746
           27182         2.64107
           27183         2.64587
           27184         2.62052
           27185         2.64672
           27186         2.70566
           27187         2.71225
           27188         2.65469
           27189         2.68219
           27190         2.65733
           27191         2.66262
           27192         2.68733
           27193         2.69636
           27194         2.68019
           27195         5.31860
           27196         5.29075
           27197         5.34707
           27198         5.29925
           27199         5.33025
           27200         5.27196
           27201         5.43183
           27202         5.39406
           27203         5.41879
           27204         5.40294
           27205         5.44204
           27206         5.41706
           27207         5.40935
           27208         5.42590
           27209         5.39611
           27210         5.43513
           27211         5.45346
           27212         5.47956
           27213         5.51276
           27214         5.48057
           27215         5.45617
           27216         5.42329
           27217         5.43192
           27218         5.30897
           27219         5.35593
           27220         5.30088
           27221         5.32352
           27222         5.27742
           27223         5.36875
           27224         5.39783
           27225         5.37071
           27226         5.35187
           27227         5.32155
           27228         5.41947
           27229         5.44965
           27230         5.40854
           27231         5.43070
           27232         5.40025
           27233         5.44059
           27234         5.47417
           27235     251.518E-03
           27236     260.463E-03
           27237     292.756E-03
           27238     336.415E-03
           27239     326.139E-03
           27240     293.033E-03
           27241     323.678E-03
           27242     438.047E-03
           27243     395.217E-03
           27244     406.269E-03
           27245     333.082E-03
           27246     296.093E-03
           27247     374.312E-03
           27248     360.773E-03
           27249     402.307E-03
           27250     335.239E-03
           27251     254.150E-03
           27252     243.945E-03
           27253     281.771E-03
           27254         5.72130
           27255         5.75370
           27256         5.70940
           27257         5.74232
           27258         5.72073
           27259         5.75437
           27260         5.83176
           27261         5.78963
           27262         5.80134
           27263         5.80048
           27264         5.82984
           27265         5.73288
           27266         5.76845
           27267         5.75143
           27268         5.71988
           27269         5.69983
           27270         5.78487
           27271         5.82458
           27272         5.81742
           27273     135.807E-03
           27274     159.808E-03
           27275     112.083E-03
           27276     73.2963E-03
           27277         8.67793
           27278         8.60844
           27279         8.67637
           27280         8.42084
           27281         8.49446
           27282         8.42401
           27283         8.67603
           27284         8.60677
           27285         8.91243
           27286         8.98674
           27287         8.91409
           27288         8.91217
           27289         8.98522
           27290         9.23019
           27291         8.91458
           27292         2.47007
           27293         2.56922
           27294         2.44780
           27295         2.47735
           27296         2.38095
           27297         2.50133
           27298         2.56919
           27299         2.44765
           27300         2.57681
           27301         2.21367
           27302         2.03828
           27303         2.17293
           27304         2.07373
           27305         2.24964
           27306         2.11349
           27307         2.49826
           27308         2.37783
           27309         2.47503
           27310         8.45849
           27311         8.98149
           27312         8.80545
           27313         9.58074
           27314         8.98234
           27315         9.15898
           27316         8.10546
           27317         7.77559
           27318         7.93956
           27319         8.09334
           27320         8.27416
           27321         7.78867
           27322         7.80571
           27323         8.26515
           27324         8.00963
           27325         8.00497
           27326         7.55820
           27327         8.75978
           27328         9.09672
           27329         8.55235
           27330         8.57728
           27331         3.09120
           27332         3.13356
           27333         2.96417
           27334         2.85024
           27335         2.80844
           27336         7.64110
           27337         8.09018
           27338         8.11249
           27339     14.1279E-03
           27340     14.4758E-03
           27341     20.2363E-03
           27342     27.5025E-03
           27343     28.1717E-03
           27344     19.0023E-03
           27345     13.9696E-03
           27346     13.4309E-03
           27347     14.9821E-03
           27348     10.9209E-03
           27349     13.2933E-03
           27350     19.7228E-03
           27351     14.3046E-03
           27352     26.6061E-03
           27353     14.6267E-03
           27354     9.17832E-03
           27355     13.5011E-03
           27356     10.1753E-03
           27357     12.8742E-03
           27358     8.99455E-03
           27359     16.6017E-03
           27360     23.7172E-03
           27361     15.2652E-03
           27362     27.3342E-03
           27363     35.8562E-03
           27364     26.6302E-03
           27365     357.843E-03
           27366     363.331E-03
           27367     310.569E-03
           27368     319.562E-03
           27369     310.303E-03
           27370     363.654E-03
           27371     388.527E-03
           27372     339.504E-03
           27373     339.537E-03
           27374     344.150E-03
           27375     372.600E-03
           27376     334.198E-03
           27377     319.367E-03
           27378     292.056E-03
           27379     334.041E-03
           27380     334.445E-03
           27381     383.312E-03
           27382         2.99399
           27383         2.94879
           27384         2.96216
           27385         2.93258
           27386         2.97949
           27387         2.96419
           27388         3.00978
           27389         2.97677
           27390         2.95668
           27391         2.96881
           27392         3.00011
           27393         3.02040
           27394         2.93070
           27395         2.96298
           27396         2.98313
           27397         2.92166
           27398         2.95233
           27399         2.93986
           27400         2.96713
           27401         2.90591
           27402         2.94300
           27403         2.99054
           27404         2.93233
           27405         3.08426
           27406         3.07286
           27407         3.09517
           27408         3.03145
           27409         3.04152
           27410         2.99809
           27411         3.02142
           27412         3.76017
           27413         3.65699
           27414         3.73960
           27415         3.62535
           27416         3.72755
           27417         3.64517
           27418         3.93354
           27419         4.00057
           27420         3.91026
           27421         4.03203
           27422         3.96483
           27423         4.05586
           27424         3.82177
           27425         3.73696
           27426         3.71838
           27427         3.82481
           27428         3.84399
           27429     956.647E-03
           27430     865.529E-03
           27431         1.03404
           27432     950.703E-03
           27433         3.70637
           27434         3.91126
           27435         3.88908
           27436         5.27884
           27437         5.25135
           27438         5.36381
           27439         5.19746
           27440         5.22424
           27441         5.11545
           27442         5.49924
           27443         5.56095
           27444         5.45379
           27445         5.56342
           27446         5.50130
           27447         5.60988
           27448         5.61542
           27449         5.61704
           27450         5.50576
           27451         5.70586
           27452         5.70404
           27453         5.71082
           27454         5.23469
           27455         5.34654
           27456         5.31375
           27457         5.35873
           27458         5.24588
           27459         5.53906
           27460         5.49416
           27461         5.57721
           27462         5.46099
           27463         5.30316
           27464         5.41695
           27465         5.41521
           27466         5.72423
           27467         5.67892
           27468         5.57251
           27469         5.71810
           27470         1.34479
           27471         1.38073
           27472         1.20218
           27473         6.10254
           27474         6.04857
           27475         6.22052
           27476         6.24446
           27477         6.29925
           27478         6.12637
           27479         6.24613
           27480         6.41384
           27481         6.44254
           27482         6.37117
           27483         6.20385
           27484         6.17565
           27485         6.20496
           27486         6.27516
           27487         6.10979
           27488         6.10988
           27489         6.04105
           27490         6.03130
           27491         5.96623
           27492         5.95966
           27493         5.88582
           27494         5.94411
           27495         5.96024
           27496         5.95989
           27497         5.95360
           27498         6.01982
           27499         5.94643
           27500         5.88941
           27501         5.42182
           27502         5.49291
           27503         5.46371
           27504         5.52130
           27505         5.45002
           27506         5.47933
           27507         2.13873
           27508         2.23127
           27509         2.01649
           27510         5.35025
           27511         5.26856
           27512         5.30994
           27513         5.27180
           27514         5.35401
           27515         5.31083
           27516         5.41511
           27517         5.37565
           27518         5.34953
           27519         5.30745
           27520         5.37723
           27521         4.30443
           27522         4.10758
           27523         4.17454
           27524         3.99541
           27525         4.19481
           27526         4.12810
           27527         4.02484
           27528         4.22342
           27529         4.20618
           27530         4.06255
           27531         4.00692
           27532         4.46855
           27533         4.52032
           27534         4.42379
           27535         4.41883
           27536         4.35932
           27537         4.45883
           27538         4.40480
           27539         4.34579
           27540         4.33920
           27541         4.20608
           27542         4.31877
           27543     629.472E-03
           27544     664.688E-03
           27545     662.403E-03
           27546     689.663E-03
           27547     658.395E-03
           27548     446.982E-03
           27549     426.251E-03
           27550     429.050E-03
           27551     475.541E-03
           27552     495.034E-03
           27553     491.012E-03
           27554     558.615E-03
           27555     509.377E-03
           27556     492.780E-03
           27557     450.349E-03
           27558     499.931E-03
           27559     544.163E-03
           27560     610.692E-03
           27561     586.438E-03
           27562         4.49964
           27563         4.53269
           27564         4.53592
           27565         4.66342
           27566         4.62987
           27567         4.62670
           27568         4.42599
           27569         4.46167
           27570         4.42149
           27571         4.40788
           27572         4.53098
           27573         4.62997
           27574         4.66349
           27575         4.53532
           27576         4.50230
           27577         4.62962
           27578         2.11887
           27579         2.06590
           27580         2.14734
           27581         2.10603
           27582         2.19945
           27583         2.24116
           27584         2.20106
           27585         2.23772
           27586         2.19610
           27587         2.23789
           27588         2.20422
           27589         2.16194
           27590         2.19812
           27591         2.06536
           27592         2.11828
           27593         2.11485
           27594         2.23442
           27595         2.21135
           27596         2.19699
           27597         2.20886
           27598         3.14734
           27599         3.20245
           27600         3.21628
           27601         3.28838
           27602         3.23103
           27603         3.21675
           27604         3.17912
           27605         3.23284
           27606         3.17098
           27607         3.10730
           27608         3.05776
           27609         3.09152
           27610         3.14071
           27611         3.08942
           27612         3.19591
           27613         3.19902
           27614         3.21960
           27615         3.27651
           27616         2.95432
           27617         2.90846
           27618         2.91804
           27619         2.85036
           27620         2.81439
           27621         2.84058
           27622         2.87588
           27623         2.84784
           27624         2.90935
           27625         2.91339
           27626         2.92477
           27627         2.89028
           27628         2.88656
           27629         2.84346
           27630         2.80834
           27631         2.80752
           27632         2.80983
           27633         2.87794
           27634         2.84252
           27635         6.05302
           27636         5.99325
           27637         6.09278
           27638         6.02953
           27639         6.09034
           27640         5.98997
           27641         6.20865
           27642         6.17853
           27643         6.17849
           27644         6.07658
           27645         6.11362
           27646         6.11434
           27647         6.72159
           27648         7.07581
           27649         6.55527
           27650         6.73032
           27651         6.40980
           27652         6.92892
           27653         6.51862
           27654         7.04010
           27655         6.71737
           27656         6.39089
           27657         6.47645
           27658         6.14138
           27659         2.63282
           27660         2.67292
           27661         2.40463
           27662         2.63753
           27663         5.65192
           27664         3.71151
           27665         3.82042
           27666         3.81764
           27667         3.75751
           27668         3.65087
           27669         3.64914
           27670         4.10501
           27671         4.27829
           27672         4.34213
           27673         4.08164
           27674         3.92863
           27675         3.88959
           27676         1.30016
           27677         1.37661
           27678         1.82578
           27679         1.71180
           27680         1.64466
           27681         1.22942
           27682         4.43765
           27683         4.49991
           27684         4.18809
           27685         4.07324
           27686         4.03702
           27687         4.30647
           27688         4.16773
           27689         4.08307
           27690         4.09061
           27691         4.15505
           27692         4.24003
           27693         4.23400
           27694         4.12141
           27695         4.04473
           27696         4.12946
           27697         2.27443
           27698         2.26581
           27699         2.50628
           27700         3.90814
           27701         3.85178
           27702         3.94945
           27703         3.95272
           27704         4.01057
           27705         4.19437
           27706         4.04505
           27707         4.12965
           27708         4.03147
           27709         3.98649
           27710         3.94741
           27711         4.02479
           27712         4.08283
           27713         4.08855
           27714         1.26324
           27715         1.37831
           27716         1.58469
           27717         1.62935
           27718         1.50702
           27719         5.28697
           27720         5.27754
           27721         5.23308
           27722         5.24411
           27723         5.25237
           27724         5.29856
           27725         5.18731
           27726         5.21923
           27727         5.22902
           27728         5.23942
           27729         5.23189
           27730         5.26580
           27731         5.25723
           27732         5.24643
           27733         5.27193
           27734         5.33737
           27735         5.30372
           27736         5.29118
           27737         5.35751
           27738         5.37163
           27739         5.32996
           27740         5.33648
           27741         5.32340
           27742         5.36353
           27743         5.32024
           27744         5.34955
           27745         5.29630
           27746         5.35113
           27747         5.37803
           27748         5.32369
           27749         1.02339
           27750         1.02008
           27751         1.11149
           27752         1.07617
           27753         1.07795
           27754     986.285E-03
           27755     854.662E-03
           27756     899.079E-03
           27757     776.901E-03
           27758     917.136E-03
           27759     872.373E-03
           27760     845.449E-03
           27761     862.994E-03
           27762         1.09302
           27763         1.12405
           27764         1.07813
           27765         1.13018
           27766     844.831E-03
           27767         1.05128
           27768     995.667E-03
           27769     964.027E-03
           27770     973.841E-03
           27771         1.00271
           27772     839.471E-03
           27773     963.488E-03
           27774         1.01618
           27775         1.18582
           27776         1.05847
           27777     119.842E-03
           27778     152.056E-03
           27779     141.618E-03
           27780     171.450E-03
           27781     138.458E-03
           27782     148.476E-03
           27783     147.655E-03
           27784     157.872E-03
           27785     177.655E-03
           27786     117.879E-03
           27787     155.664E-03
           27788     78.1999E-03
           27789     60.8373E-03
           27790     90.4336E-03
           27791     90.1613E-03
           27792     109.424E-03
           27793     77.2666E-03
           27794         7.77559
           27795         7.78735
           27796         7.84100
           27797         7.67493
           27798         7.61244
           27799         7.52099
           27800         7.68155
           27801         7.63115
           27802         7.77954
           27803         7.79201
           27804         8.06464
           27805         8.05341
           27806         8.00492
           27807         7.61687
           27808         7.63868
           27809         3.02840
           27810         3.07657
           27811         3.01354
           27812         3.05871
           27813         3.01148
           27814         3.07384
           27815         2.95812
           27816         2.94422
           27817         2.95398
           27818         2.96137
           27819         2.97556
           27820         2.96538
           27821         3.03373
           27822         3.03419
           27823         2.96951
           27824         3.01412
           27825         3.08292
           27826         2.96572
           27827         2.96552
           27828         3.00982
           27829         3.00803
           27830         3.00738
           27831         2.99179
           27832         2.67223
           27833         2.69775
           27834         2.68388
           27835         2.68262
           27836         2.65780
           27837         2.67048
           27838         2.65087
           27839         2.63451
           27840         2.64118
           27841         2.64367
           27842         2.65989
           27843         2.65229
           27844         2.68071
           27845         2.67976
           27846         2.67061
           27847         5.87368
           27848         5.74831
           27849         5.84032
           27850         5.83455
           27851         5.95985
           27852         5.86650
           27853         5.83419
           27854         5.95987
           27855         5.95367
           27856         5.88263
           27857         5.80815
           27858         5.89081
           27859         5.96999
           27860         5.88687
           27861         5.75715
           27862         5.87553
           27863         6.80122
           27864         6.91333
           27865         6.71128
           27866         6.91320
           27867         6.80107
           27868         7.00519
           27869         6.48886
           27870         6.34519
           27871         6.45633
           27872         6.44297
           27873         6.58624
           27874         6.47492
           27875         6.70596
           27876         6.59511
           27877         6.79645
           27878         6.45174
           27879         6.35824
           27880         6.50200
           27881         6.49651
           27882         2.61147
           27883         2.61242
           27884         2.61483
           27885         2.61183
           27886         2.61178
           27887         2.61055
           27888         2.61067
           27889         2.61092
           27890         2.61117
           27891         2.61133
           27892         2.61100
           27893         2.61090
           27894         2.61170
           27895         2.61097
           27896         2.61083
           27897         2.61066
           27898         2.61049
           27899         2.60978
           27900         2.61061
           27901     257.613E-03
           27902     281.016E-03
           27903     215.905E-03
           27904     212.967E-03
           27905     306.365E-03
           27906     240.953E-03
           27907     148.782E-03
           27908     196.374E-03
           27909     264.483E-03
           27910     215.753E-03
           27911     170.530E-03
           27912     280.895E-03
           27913     185.695E-03
           27914     209.014E-03
           27915     603.293E-03
           27916     685.095E-03
           27917     630.887E-03
           27918     646.645E-03
           27919     619.803E-03
           27920         3.82323
           27921         3.76997
           27922         3.91950
           27923         3.76816
           27924         3.82239
           27925         3.66872
           27926     610.105E-03
           27927     573.218E-03
           27928     557.703E-03
           27929     548.184E-03
           27930     584.972E-03
           27931     600.137E-03
           27932     489.328E-03
           27933     493.898E-03
           27934     458.420E-03
           27935     516.837E-03
           27936     460.798E-03
           27937     568.698E-03
           27938     593.829E-03
           27939     545.399E-03
           27940     514.642E-03
           27941     562.857E-03
           27942     504.962E-03
           27943     666.322E-03
           27944     747.597E-03
           27945     654.574E-03
           27946     725.543E-03
           27947     644.504E-03
           27948     737.442E-03
           27949     692.127E-03
           27950     676.705E-03
           27951         2.02607
           27952         1.97530
           27953         2.16346
           27954         3.64567
           27955         3.62678
           27956         3.53525
           27957         3.54707
           27958         3.56509
           27959         3.65726
           27960         3.77371
           27961         3.68958
           27962         3.67804
           27963         3.50460
           27964         3.40596
           27965         3.47507
           27966         3.36344
           27967         3.46167
           27968         3.39242
           27969         3.71919
           27970         3.61832
           27971         3.70092
           27972         3.58900
           27973         3.68896
           27974         3.60637
           27975         3.68790
           27976         3.79113
           27977         3.70582
           27978         3.51667
           27979         3.48727
           27980         3.59254
           27981         3.60980
           27982         3.53335
           27983         3.50855
           27984         2.90194
           27985         2.85315
           27986         2.95329
           27987         3.12097
           27988         3.16653
           27989         3.06863
           27990     26.5740E-03
           27991     29.8919E-03
           27992     12.0422E-03
           27993     10.9737E-03
           27994     10.3595E-03
           27995     24.1628E-03
           27996     12.1211E-03
           27997     15.3880E-03
           27998     16.7109E-03
           27999     10.4480E-03
           28000     10.5953E-03
           28001     29.6981E-03
           28002     26.5077E-03
           28003     22.8805E-03
           28004     285.793E-03
           28005     195.762E-03
           28006     197.558E-03
           28007     193.406E-03
           28008     280.121E-03
           28009     356.537E-03
           28010     373.526E-03
           28011     330.614E-03
           28012     332.275E-03
           28013     336.683E-03
           28014     194.377E-03
           28015     284.685E-03
           28016     289.916E-03
           28017     197.198E-03
           28018         8.04510
           28019         7.95238
           28020         8.08922
           28021         8.03778
           28022         8.13195
           28023         7.99253
           28024         8.22711
           28025         8.32008
           28026         8.28048
           28027         8.52017
           28028         8.42313
           28029         8.46448
           28030         8.33265
           28031         8.23422
           28032         8.03952
           28033         8.13372
           28034         8.28004
           28035         4.27359
           28036         4.21284
           28037         4.35068
           28038         4.28381
           28039         4.34200
           28040         4.21580
           28041         4.52055
           28042         4.66378
           28043         4.55812
           28044         4.61517
           28045         4.46694
           28046         4.57439
           28047         4.49855
           28048         4.60738
           28049         4.57569
           28050         4.45466
           28051         4.54428
           28052         4.42202
           28053         4.36100
           28054         4.49443
           28055         4.46151
           28056         4.55518
           28057         4.16222
           28058         4.29628
           28059         4.34346
           28060         4.23067
           28061         4.40186
           28062         2.34460
           28063         2.26802
           28064         2.30166
           28065         2.28216
           28066         2.35786
           28067         2.32565
           28068         2.43543
           28069         2.46295
           28070         2.40471
           28071         2.44433
           28072         2.41648
           28073         2.47951
           28074         1.97364
           28075         2.44834
           28076         2.41402
           28077         2.46550
           28078         2.47718
           28079         2.42446
           28080         2.35965
           28081         2.37167
           28082         2.38590
           28083         2.38773
           28084         2.89152
           28085         2.83868
           28086         2.86905
           28087         2.92463
           28088         2.97650
           28089         2.96076
           28090         2.86061
           28091         2.82153
           28092         2.76579
           28093         2.85877
           28094         2.80793
           28095         2.70621
           28096         2.79698
           28097         2.73865
           28098         2.76311
           28099         2.74666
           28100         3.19684
           28101         3.11786
           28102         3.20528
           28103         2.98668
           28104         3.06040
           28105         3.52414
           28106         3.45306
           28107         3.52906
           28108         3.33604
           28109         3.40274
           28110         3.34016
           28111         3.79135
           28112         3.58873
           28113         3.79851
           28114         3.65990
           28115         3.88153
           28116         3.64595
           28117         3.62091
           28118         3.72129
           28119         3.71024
           28120         3.62563
           28121         3.36299
           28122         3.34279
           28123         3.47947
           28124         3.48920
           28125         3.25875
           28126         3.58351
           28127         3.50566
           28128         3.83283
           28129         4.16577
           28130         3.90004
           28131         3.98931
           28132         3.67944
           28133         3.92444
           28134         5.41616
           28135         5.42144
           28136         5.45530
           28137         5.42170
           28138         5.41495
           28139         5.37751
           28140         5.49252
           28141         5.56215
           28142         5.53197
           28143         5.55999
           28144         5.49021
           28145         5.52241
           28146         5.54478
           28147         5.58417
           28148         5.50742
           28149         5.52997
           28150         5.49176
           28151         5.56779
           28152         5.49295
           28153         5.52953
           28154         5.45915
           28155         5.35994
           28156         5.40659
           28157         5.36083
           28158         5.39330
           28159         5.44353
           28160         5.39532
           28161         2.76657
           28162         2.85251
           28163         3.04368
           28164         2.96073
           28165         2.85590
           28166         2.72304
           28167         2.98572
           28168         3.09882
           28169         3.12218
           28170         2.97529
           28171         2.83755
           28172         3.40405
           28173         3.38962
           28174         3.23999
           28175         3.10260
           28176     617.510E-03
           28177     637.434E-03
           28178     596.073E-03
           28179     570.728E-03
           28180     608.763E-03
           28181     601.480E-03
           28182     784.563E-03
           28183     694.411E-03
           28184     738.038E-03
           28185     663.322E-03
           28186     652.125E-03
           28187     642.086E-03
           28188     618.640E-03
           28189     583.958E-03
           28190     566.935E-03
           28191     591.547E-03
           28192     539.909E-03
           28193         5.75648
           28194         5.71775
           28195         5.72218
           28196         5.65983
           28197         5.70097
           28198         5.69643
           28199         5.67791
           28200         5.71705
           28201         5.67899
           28202         5.72764
           28203         5.68551
           28204         5.71898
           28205         5.75809
           28206         5.71429
           28207         5.72845
           28208         5.76441
           28209         5.75948
           28210     35.3737E-03
           28211     40.3195E-03
           28212     26.6340E-03
           28213     58.0487E-03
           28214     55.0528E-03
           28215     71.4969E-03
           28216     28.8994E-03
           28217     20.9059E-03
           28218     20.7757E-03
           28219     25.4847E-03
           28220     28.9064E-03
           28221     37.2682E-03
           28222     40.9348E-03
           28223     42.0414E-03
           28224     70.1193E-03
           28225     55.6402E-03
           28226     59.5049E-03
           28227     39.4127E-03
           28228     18.5114E-03
           28229     51.6136E-03
           28230     28.7161E-03
           28231     51.7179E-03
           28232     27.3307E-03
           28233     14.5915E-03
           28234     38.3835E-03
           28235     34.0876E-03
           28236     54.2584E-03
           28237     35.7286E-03
           28238     45.1804E-03
           28239     24.9534E-03
           28240     43.0875E-03
           28241         1.43481
           28242         1.45695
           28243         1.86997
           28244         1.83335
           28245         1.53580
           28246     68.6932E-03
           28247     45.2202E-03
           28248     56.0846E-03
           28249     56.2523E-03
           28250     80.9503E-03
           28251     69.2284E-03
           28252     91.9006E-03
           28253     103.194E-03
           28254     104.496E-03
           28255     98.2010E-03
           28256     96.2383E-03
           28257     40.2130E-03
           28258     63.7208E-03
           28259     63.9533E-03
           28260     80.1952E-03
           28261     71.1100E-03
           28262     37.6367E-03
           28263     54.5767E-03
           28264     33.1869E-03
           28265     67.1932E-03
           28266     49.5960E-03
           28267     112.336E-03
           28268     106.807E-03
           28269     85.1586E-03
           28270     114.400E-03
           28271     120.208E-03
           28272     141.189E-03
           28273     55.5030E-03
           28274     79.0878E-03
           28275     87.4035E-03
           28276     99.5026E-03
           28277     75.4543E-03
           28278     133.077E-03
           28279     142.726E-03
           28280     103.882E-03
           28281     95.7256E-03
           28282     137.899E-03
           28283     92.6473E-03
           28284     92.5277E-03
           28285     73.0923E-03
           28286     113.786E-03
           28287         2.41581
           28288     722.591E-03
           28289     686.631E-03
           28290     769.629E-03
           28291     857.120E-03
           28292     893.957E-03
           28293     810.165E-03
           28294         2.80818
           28295         2.84584
           28296         2.91808
           28297         2.80467
           28298         2.59188
           28299         2.95429
           28300         2.95183
           28301         3.17508
           28302         3.10169
           28303         3.03549
           28304         2.92987
           28305         2.63720
           28306         2.67827
           28307         2.83700
           28308         2.93048
           28309         3.04413
           28310         2.38108
           28311         2.77027
           28312         2.17919
           28313         2.29792
           28314         2.34480
           28315         2.27666
           28316         2.15753
           28317         2.11101
           28318         6.01230
           28319         5.76068
           28320         5.79759
           28321         5.65126
           28322         5.89836
           28323         5.86078
           28324         5.93854
           28325         5.95712
           28326         6.06837
           28327         5.96083
           28328         5.94069
           28329         5.83320
           28330     667.638E-03
           28331     621.837E-03
           28332         6.00443
           28333         5.96814
           28334         6.19831
           28335         6.23625
           28336         6.19225
           28337         5.95460
           28338         6.10448
           28339         6.06823
           28340         7.75547
           28341         7.95806
           28342         8.06647
           28343         8.39812
           28344         8.17270
           28345         8.08447
           28346         7.66379
           28347         7.85300
           28348         7.57510
           28349         7.28812
           28350         7.24935
           28351         7.79461
           28352         7.57176
           28353         7.59540
           28354         7.05553
           28355         2.81955
           28356         2.73317
           28357         2.49937
           28358         2.54196
           28359         2.49642
           28360         2.50572
           28361         2.46359
           28362         2.50798
           28363         2.50477
           28364         2.46310
           28365         2.47395
           28366         2.53560
           28367         2.49301
           28368         2.49246
           28369         2.45441
           28370         2.49659
           28371         2.43684
           28372         2.42503
           28373         2.43611
           28374         2.38472
           28375         2.41229
           28376         2.42317
           28377         4.58916
           28378         4.70315
           28379         4.66300
           28380         4.66668
           28381         4.55590
           28382         4.59501
           28383         4.63932
           28384         4.75125
           28385         4.69725
           28386         4.58868
           28387         4.67698
           28388         4.43233
           28389         4.34311
           28390         4.45927
           28391         4.46415
           28392         4.43508
           28393         4.64100
           28394         6.84422
           28395         6.72893
           28396         6.87972
           28397         6.86904
           28398         6.98439
           28399         6.83375
           28400         7.22840
           28401         7.28671
           28402         7.05355
           28403         7.04149
           28404         7.21807
           28405         6.99023
           28406         6.83936
           28407         6.90091
           28408         7.04773
           28409         6.88963
           28410         7.00489
           28411         7.11235
           28412         6.99563
           28413         6.77360
           28414     434.662E-03
           28415     389.066E-03
           28416     445.831E-03
           28417     395.903E-03
           28418     492.057E-03
           28419         5.25532
           28420         5.18613
           28421         5.25338
           28422         5.23645
           28423         5.35149
           28424         5.45700
           28425         5.55917
           28426         5.45068
           28427         5.49309
           28428         5.40676
           28429         5.55612
           28430         5.51028
           28431         5.46635
           28432         5.20540
           28433         5.27352
           28434         5.37631
           28435         5.33557
           28436         5.26693
           28437         5.16449
           28438         7.59595
           28439         7.63873
           28440         7.51568
           28441         7.64536
           28442         7.60285
           28443         7.32511
           28444         7.36223
           28445         7.52592
           28446         7.39052
           28447         7.07748
           28448         7.16424
           28449         7.27257
           28450         7.07605
           28451         7.38908
           28452         7.27471
           28453         6.25392
           28454         6.33880
           28455         6.15940
           28456         6.07495
           28457         6.24863
           28458         5.70935
           28459         5.57910
           28460         5.76299
           28461         5.57649
           28462         5.70591
           28463         5.52529
           28464         5.55350
           28465         5.68183
           28466         5.49877
           28467         5.77195
           28468         5.90542
           28469         5.68851
           28470         5.77294
           28471         5.93070
           28472         5.82519
           28473         2.76769
           28474         2.69907
           28475         2.71486
           28476         2.59004
           28477         2.66179
           28478         2.64214
           28479         2.93010
           28480         3.03735
           28481         2.88578
           28482         2.87201
           28483         2.91749
           28484         2.66279
           28485         2.59097
           28486         2.70908
           28487         2.77738
           28488         2.65240
           28489         2.88422
           28490         3.07697
           28491         2.96529
           28492         2.96783
           28493         1.45686
           28494         1.56382
           28495         1.38982
           28496         1.38364
           28497         1.27909
           28498         1.44952
           28499         1.26142
           28500         1.47897
           28501         1.58267
           28502         1.65334
           28503         1.61691
           28504         1.50935
           28505         1.57071
           28506         1.44974
           28507     872.224E-03
           28508     907.480E-03
           28509         1.37627
           28510         1.46993
           28511         1.51373
           28512         1.70790
           28513         1.54606
           28514         3.02660
           28515         3.08036
           28516         3.09430
           28517         3.05191
           28518         2.99782
           28519         2.98370
           28520         3.03709
           28521         3.09133
           28522         3.17962
           28523         3.12223
           28524         3.11904
           28525         2.88543
           28526         2.92730
           28527         2.91304
           28528         3.12421
           28529         3.18098
           28530         3.10999
           28531         2.75797
           28532         2.88943
           28533         2.99661
           28534         2.84371
           28535         2.71698
           28536         2.61201
           28537         3.12393
           28538         3.61557
           28539         3.32783
           28540         3.26391
           28541         3.01282
           28542         3.25414
           28543         3.29562
           28544         2.92023
           28545         2.96985
           28546         2.93100
           28547         3.30021
           28548         2.64707
           28549         2.75894
           28550         3.00027
           28551     59.0014E-03
           28552     58.1059E-03
           28553     32.6889E-03
           28554     57.6448E-03
           28555     59.9094E-03
           28556     99.9475E-03
           28557     33.3793E-03
           28558     27.2564E-03
           28559     47.6348E-03
           28560     44.9181E-03
           28561     52.7238E-03
           28562     32.9948E-03
           28563     54.1149E-03
           28564     47.6801E-03
           28565         3.95577
           28566         3.94413
           28567         3.99100
           28568         4.11129
           28569         4.11445
           28570         4.07118
           28571         4.14679
           28572         4.11297
           28573         4.20202
           28574         4.14270
           28575         4.03588
           28576         4.23276
           28577         3.87090
           28578         3.58453
           28579         3.71543
           28580         3.47145
           28581         3.76289
           28582         3.63067
           28583         3.69255
           28584         3.49519
           28585         3.71436
           28586         3.66240
           28587         3.85858
           28588         3.64136
           28589         4.01513
           28590         4.06955
           28591         4.05603
           28592         3.94676
           28593         3.88966
           28594         3.90415
           28595         3.76006
           28596         3.88473
           28597         3.81989
           28598         3.71229
           28599         3.92354
           28600         3.85520
           28601         4.01862
           28602         3.90670
           28603         3.94073
           28604         5.73440
           28605         5.76247
           28606         5.79501
           28607         5.79640
           28608         5.76531
           28609         5.73625
           28610         5.70675
           28611         5.73895
           28612         5.76780
           28613         5.77933
           28614         5.80862
           28615         5.85618
           28616         5.84343
           28617         5.74906
           28618         5.74963
           28619         5.73442
           28620         5.70323
           28621         3.92054
           28622         3.70846
           28623         3.61850
           28624         3.62391
           28625         3.83652
           28626         3.92980
           28627         3.96291
           28628         4.18076
           28629         4.04917
           28630         4.09058
           28631         3.86794
           28632         3.99953
           28633     41.6653E-03
           28634     33.8671E-03
           28635     53.7575E-03
           28636     35.6211E-03
           28637     43.4732E-03
           28638     25.2627E-03
           28639         1.44907
           28640     50.6644E-03
           28641     87.4283E-03
           28642     76.2088E-03
           28643     97.4653E-03
           28644     59.6264E-03
           28645     71.1978E-03
           28646     24.6246E-03
           28647     42.6909E-03
           28648     32.4067E-03
           28649     51.0424E-03
           28650     31.7787E-03
           28651     39.6116E-03
           28652     30.6014E-03
           28653     115.323E-03
           28654     96.8747E-03
           28655     79.3965E-03
           28656     105.860E-03
           28657     123.510E-03
           28658     68.5887E-03
           28659     59.9661E-03
           28660     89.4716E-03
           28661     14.3760E-03
           28662     30.9709E-03
           28663     30.9111E-03
           28664     28.3701E-03
           28665     12.4674E-03
           28666     12.4557E-03
           28667     15.3948E-03
           28668     4.94859E-03
           28669     6.38373E-03
           28670     5.96800E-03
           28671     14.0105E-03
           28672     14.4039E-03
           28673     18.7551E-03
           28674     7.49744E-03
           28675     7.04853E-03
           28676         2.29788
           28677         2.13673
           28678         2.16862
           28679         2.37213
           28680         2.52752
           28681         2.49512
           28682         2.36283
           28683         2.20029
           28684         1.94371
           28685         2.13227
           28686         1.88922
           28687         1.94162
           28688         1.74695
           28689         2.04037
           28690         1.98930
           28691         2.64898
           28692         2.70673
           28693         2.61527
           28694         2.24378
           28695         2.08018
           28696         2.37824
           28697         5.64954
           28698         5.63790
           28699         5.51634
           28700         5.70268
           28701         5.72977
           28702         5.62720
           28703         5.56334
           28704         5.77683
           28705         5.09157
           28706         5.20748
           28707         5.19692
           28708         5.36592
           28709         5.24677
           28710         5.25786
           28711         1.59115
           28712         1.54243
           28713         1.34546
           28714         1.39225
           28715         1.48455
           28716         5.31697
           28717         5.21323
           28718         5.33008
           28719         5.09047
           28720         5.43928
           28721         5.45720
           28722         2.89918
           28723         2.88160
           28724         2.96577
           28725         2.91711
           28726         2.94147
           28727         2.85190
           28728         3.08376
           28729         3.18704
           28730         3.09102
           28731         3.14013
           28732         3.03637
           28733         3.12660
           28734         3.05588
           28735         2.96132
           28736         2.85269
           28737         2.94511
           28738         3.00640
           28739         9.13979
           28740         9.06775
           28741         8.79301
           28742         8.68900
           28743         8.75597
           28744         9.03078
           28745         9.42803
           28746         9.14098
           28747         9.06650
           28748         8.73915
           28749         8.48872
           28750         8.61529
           28751         8.53752
           28752         8.78140
           28753         8.66226
           28754         9.05830
           28755         8.71405
           28756         1.55744
           28757         1.43716
           28758         1.37220
           28759         1.25358
           28760         1.37072
           28761         1.43252
           28762         1.19649
           28763         1.30130
           28764         1.19118
           28765         1.26038
           28766         1.18066
           28767         1.68755
           28768         1.81214
           28769         1.71284
           28770         1.78167
           28771         1.25556
           28772         1.65102
           28773         1.61295
           28774         1.55190
           28775         1.64498
           28776         3.21678
           28777         3.23544
           28778         3.24291
           28779         3.19314
           28780         3.17456
           28781         3.16742
           28782         3.22784
           28783         3.19795
           28784         3.17854
           28785         3.41233
           28786         3.41281
           28787         3.48873
           28788         3.37827
           28789         3.30243
           28790         3.33466
           28791         3.26826
           28792         3.34164
           28793         3.30947
           28794         3.09102
           28795         3.13441
           28796         3.12295
           28797         3.31434
           28798         3.31396
           28799         3.29579
           28800         3.24684
           28801         3.33455
           28802         3.31468
           28803         3.33530
           28804         3.99587
           28805         3.90526
           28806         4.01226
           28807         4.01450
           28808         4.10869
           28809         3.99820
           28810         4.08002
           28811         4.17531
           28812         4.17817
           28813         4.19706
           28814         4.16637
           28815         4.07714
           28816         4.05287
           28817         4.08263
           28818         4.17243
           28819         4.11169
           28820         4.20210
           28821         4.32421
           28822         4.23068
           28823         4.23589
           28824         3.99247
           28825         3.96332
           28826         4.08175
           28827         3.99693
           28828         4.47694
           28829         4.33401
           28830         4.43061
           28831         4.35303
           28832         4.50728
           28833         4.39880
           28834         4.58346
           28835         4.42485
           28836         4.37220
           28837         4.52621
           28838         4.53381
           28839         5.19120
           28840         5.14290
           28841         5.20718
           28842         5.21398
           28843         5.25818
           28844         5.19684
           28845         5.14643
           28846         5.19460
           28847         5.21684
           28848         5.27735
           28849         5.23088
           28850         5.28599
           28851         5.34653
           28852         5.36841
           28853         5.33765
           28854         5.45407
           28855         5.38893
           28856         5.36823
           28857         1.07478
           28858         1.10228
           28859         2.70049
           28860         2.69910
           28861         2.71520
           28862         2.69985
           28863         2.70125
           28864         2.68531
           28865         2.66769
           28866         2.66965
           28867         2.68455
           28868     367.964E-03
           28869     541.563E-03
           28870     467.159E-03
           28871     538.230E-03
           28872     338.131E-03
           28873         2.72337
           28874         2.72479
           28875         2.70975
           28876         2.69325
           28877         2.71594
           28878         2.70805
           28879         2.68323
           28880         2.66978
           28881         2.66733
           28882         2.72076
           28883         2.71133
           28884         1.92239
           28885         1.92410
           28886         1.90280
           28887         1.94873
           28888         1.94733
           28889         1.97079
           28890         1.95412
           28891         1.96468
           28892         1.91343
           28893         1.95356
           28894         1.94477
           28895         1.99447
           28896         1.94093
           28897         1.94156
           28898         1.98548
           28899         6.21454
           28900         6.39677
           28901         6.22075
           28902         6.19682
           28903         6.02002
           28904         6.19068
           28905         2.63089
           28906         2.62564
           28907         2.63307
           28908         2.62586
           28909         2.63114
           28910         2.62115
           28911         2.61818
           28912         2.61223
           28913         2.61347
           28914         2.61655
           28915         5.26190
           28916         5.29597
           28917         5.28488
           28918         5.28615
           28919         5.24897
           28920         5.26183
           28921         5.33911
           28922         5.30520
           28923         5.31120
           28924         5.25878
           28925         5.29282
           28926         5.20931
           28927         5.17505
           28928         5.21551
           28929         5.21807
           28930         5.25627
           28931         5.21358
           28932         1.92586
           28933         1.93177
           28934         1.82279
           28935         2.16580
           28936         2.24801
           28937         2.12682
           28938         2.05476
           28939         2.17392
           28940     591.189E-03
           28941     485.200E-03
           28942     374.537E-03
           28943     422.257E-03
           28944         1.83447
           28945         1.94341
           28946         1.96016
           28947         2.06655
           28948         2.25423
           28949         2.17145
           28950         2.19126
           28951     195.183E-03
           28952     149.773E-03
           28953     152.749E-03
           28954     152.287E-03
           28955     155.431E-03
           28956     139.351E-03
           28957     137.020E-03
           28958     128.886E-03
           28959     9.82601E-03
           28960     19.3583E-03
           28961     19.2835E-03
           28962     10.5075E-03
           28963     17.0716E-03
           28964     10.9402E-03
           28965     17.7881E-03
           28966     5.64706E-03
           28967     8.88891E-03
           28968     6.98922E-03
           28969     11.8078E-03
           28970     21.2473E-03
           28971     15.6967E-03
           28972     23.8482E-03
           28973     10.8778E-03
           28974     17.9277E-03
           28975     18.0248E-03
           28976     9.21904E-03
           28977     5.39708E-03
           28978     14.7777E-03
           28979     6.34566E-03
           28980         5.70354
           28981         5.69875
           28982         5.72704
           28983         5.71298
           28984         5.80136
           28985         5.79289
           28986         5.80216
           28987         5.75669
           28988         5.73019
           28989         5.70196
           28990         5.71610
           28991         5.70982
           28992         5.72923
           28993         5.75390
           28994         5.76875
           28995         5.75191
           28996         5.77007
           28997         5.82355
           28998         5.82307
           28999         5.79853
           29000         3.46626
           29001         3.53944
           29002         3.46266
           29003         3.55772
           29004         3.25171
           29005         3.33283
           29006         3.18729
           29007         3.24905
           29008         3.38089
           29009         3.30189
           29010         3.29629
           29011         3.21131
           29012         3.28688
           29013         3.29231
           29014         3.04525
           29015         3.14272
           29016         3.09397
           29017         3.20467
           29018         3.15839
           29019         3.14950
           29020         3.19583
           29021         3.41533
           29022         3.42189
           29023         3.47292
           29024         3.50887
           29025         7.69578
           29026         7.57835
           29027         7.85063
           29028         7.78430
           29029         7.90373
           29030         7.62945
           29031         7.62990
           29032         7.90416
           29033         7.78450
           29034         7.95852
           29035         8.08091
           29036         8.01163
           29037         8.00612
           29038         7.92566
           29039         7.89034
           29040         7.82401
           29041         7.93911
           29042         4.85818
           29043         4.76793
           29044         4.76589
           29045         4.70041
           29046         4.79048
           29047         4.79256
           29048         4.89635
           29049         5.03532
           29050         4.99487
           29051         4.99488
           29052         4.85612
           29053         4.89625
           29054         4.77903
           29055         4.68901
           29056         4.76592
           29057         4.77901
           29058         7.99688
           29059         8.38789
           29060         8.16012
           29061         8.17968
           29062         7.78929
           29063         8.01480
           29064         7.79893
           29065         7.64650
           29066         7.61948
           29067         7.49425
           29068         7.67180
           29069         7.45173
           29070         8.07145
           29071         7.64758
           29072         7.82399
           29073         7.46508
           29074         7.86746
           29075         7.69135
           29076         8.00235
           29077         8.07296
           29078         7.22393
           29079         7.17842
           29080         6.87803
           29081         7.10183
           29082         6.97142
           29083         7.29005
           29084         7.04722
           29085     713.492E-03
           29086     745.821E-03
           29087     730.492E-03
           29088     824.545E-03
           29089     806.982E-03
           29090     779.824E-03
           29091     793.920E-03
           29092     700.980E-03
           29093     781.010E-03
           29094     574.036E-03
           29095     624.477E-03
           29096     620.531E-03
           29097     740.589E-03
           29098     635.473E-03
           29099     666.475E-03
           29100     704.584E-03
           29101     801.990E-03
           29102         2.41741
           29103         2.38888
           29104         2.36625
           29105         2.41527
           29106         2.44715
           29107         2.46908
           29108         2.33816
           29109         2.36145
           29110         2.31448
           29111         2.32755
           29112         2.20442
           29113         2.27345
           29114         2.34030
           29115         2.27165
           29116         2.44653
           29117         2.42334
           29118         2.40167
           29119         2.37372
           29120         2.39626
           29121         2.43773
           29122         2.36596
           29123         2.38083
           29124         7.20832
           29125         7.10954
           29126         7.38026
           29127         7.22602
           29128         7.31199
           29129         6.69714
           29130         6.92388
           29131         6.54249
           29132         6.65296
           29133         6.44668
           29134         7.00680
           29135         7.18899
           29136         6.88753
           29137         6.80773
           29138         6.86570
           29139         6.99036
           29140         6.82731
           29141         6.77247
           29142         6.65812
           29143         6.99480
           29144         7.05862
           29145         6.75413
           29146         6.66561
           29147         6.50700
           29148         6.58328
           29149         6.49689
           29150         6.55635
           29151         6.59047
           29152         6.84829
           29153         6.73021
           29154         2.67854
           29155         2.67924
           29156         2.67550
           29157         2.67494
           29158         2.72539
           29159         2.75688
           29160         2.79091
           29161         2.75941
           29162         2.75536
           29163         2.75088
           29164         2.72142
           29165         2.76189
           29166         2.79747
           29167         2.71525
           29168         2.71677
           29169         2.74847
           29170         2.68338
           29171         2.69794
           29172         2.71910
           29173         2.73021
           29174         2.69362
           29175         2.69875
           29176         2.68478
           29177         2.66455
           29178         2.78389
           29179         2.81185
           29180         2.82446
           29181         2.83375
           29182         2.80467
           29183         2.79170
           29184         2.80111
           29185         2.77416
           29186         2.78640
           29187         2.80913
           29188         2.83837
           29189         2.85068
           29190         2.84101
           29191         2.84448
           29192         2.80101
           29193         2.80982
           29194         2.79090
           29195         2.78667
           29196         2.76765
           29197         2.77651
           29198         2.78143
           29199         2.75554
           29200         2.76381
           29201         2.74542
           29202         2.77688
           29203         2.76837
           29204         2.79203
           29205         2.80172
           29206         2.78290
           29207     175.868E-03
           29208     142.734E-03
           29209     197.126E-03
           29210     190.731E-03
           29211     231.147E-03
           29212     182.806E-03
           29213     278.411E-03
           29214     342.898E-03
           29215     286.706E-03
           29216     317.494E-03
           29217     271.197E-03
           29218     321.986E-03
           29219     176.371E-03
           29220     223.054E-03
           29221     177.440E-03
           29222     192.962E-03
           29223     135.421E-03
           29224     191.556E-03
           29225     227.147E-03
           29226     235.609E-03
           29227     286.418E-03
           29228     308.872E-03
           29229     240.150E-03
           29230         2.40144
           29231         2.45315
           29232         2.43720
           29233         2.45252
           29234         2.40060
           29235         2.41810
           29236         2.39725
           29237         2.39428
           29238         2.37919
           29239         2.43555
           29240         2.43766
           29241         2.45404
           29242         2.37265
           29243         2.38844
           29244         2.45347
           29245         2.42842
           29246         2.32511
           29247         2.26039
           29248         2.31817
           29249         2.30759
           29250         2.31465
           29251     222.149E-03
           29252     200.550E-03
           29253     159.067E-03
           29254     119.101E-03
           29255     135.848E-03
           29256     176.967E-03
           29257     212.527E-03
           29258     274.943E-03
           29259     243.876E-03
           29260     283.846E-03
           29261     253.735E-03
           29262     189.252E-03
           29263     123.579E-03
           29264     158.629E-03
           29265     213.874E-03
           29266     276.580E-03
           29267     66.7849E-03
           29268     82.1260E-03
           29269     46.6475E-03
           29270         2.86555
           29271         2.81113
           29272         2.88001
           29273         2.85824
           29274         2.84292
           29275         3.00817
           29276         2.98221
           29277         2.95669
           29278         2.95315
           29279         2.92829
           29280         2.91192
           29281         2.91658
           29282         2.94175
           29283         2.95834
           29284         2.97757
           29285         3.00389
           29286         2.94795
           29287         2.85326
           29288     18.0450E-03
           29289     31.2826E-03
           29290     15.3346E-03
           29291     18.4817E-03
           29292     16.1535E-03
           29293     16.3184E-03
           29294     18.3278E-03
           29295     41.6632E-03
           29296     35.3240E-03
           29297     44.1992E-03
           29298     28.6888E-03
           29299     23.9581E-03
           29300         3.62104
           29301         3.73464
           29302         3.64718
           29303         3.73774
           29304         3.62385
           29305         3.70988
           29306         3.51272
           29307         3.44827
           29308         3.47271
           29309         3.47977
           29310         3.45538
           29311         3.51576
           29312         3.57378
           29313         3.54996
           29314         3.61673
           29315         3.61069
           29316         3.55015
           29317         3.55594
           29318         3.64217
           29319         3.54573
           29320         3.56962
           29321         3.50441
           29322         2.59474
           29323         2.59791
           29324         2.60110
           29325         2.60082
           29326         2.59776
           29327         2.59676
           29328         2.60370
           29329         2.59972
           29330         2.60997
           29331         2.61141
           29332         2.61885
           29333         2.61166
           29334         2.61760
           29335         2.60728
           29336         2.61374
           29337         2.61067
           29338         2.60418
           29339         5.15006
           29340         5.08509
           29341         5.13633
           29342         5.07842
           29343         5.13929
           29344         5.08784
           29345         5.15279
           29346         5.20502
           29347         5.13918
           29348         5.23211
           29349         5.27976
           29350         5.24535
           29351         5.17465
           29352         5.17154
           29353         5.24177
           29354         5.36372
           29355         5.31823
           29356         5.35409
           29357         5.27805
           29358         5.65427
           29359         5.56311
           29360         5.67333
           29361         5.60390
           29362         5.75632
           29363         5.60798
           29364         5.67242
           29365         5.73338
           29366         5.63368
           29367         5.82166
           29368         5.80215
           29369         5.65430
           29370         5.77139
           29371     742.113E-03
           29372     660.508E-03
           29373     724.296E-03
           29374     786.674E-03
           29375     805.697E-03
           29376         3.27282
           29377         3.38777
           29378         3.37027
           29379         3.32655
           29380         3.21271
           29381         3.23675
           29382         3.28039
           29383         3.21731
           29384         3.17983
           29385         3.09825
           29386         3.16768
           29387         3.19313
           29388         3.36334
           29389         3.37881
           29390         3.22203
           29391         3.19865
           29392         3.30061
           29393         3.27726
           29394         3.34310
           29395         3.24855
           29396         3.16331
           29397         3.09646
           29398         3.47649
           29399         3.48616
           29400     909.446E-03
           29401     836.206E-03
           29402         4.92541
           29403         5.03303
           29404         4.86023
           29405         4.97146
           29406         4.86597
           29407         4.64988
           29408         4.53611
           29409         4.62700
           29410         4.57957
           29411         4.69199
           29412         4.60554
           29413         4.53181
           29414         4.62765
           29415         4.51098
           29416         4.97822
           29417         4.80605
           29418         4.91132
           29419     449.568E-03
           29420     543.229E-03
           29421         5.92987
           29422         5.95880
           29423         5.92640
           29424         6.00018
           29425         5.96970
           29426         6.00199
           29427         6.06356
           29428         6.12569
           29429         6.10508
           29430         6.05773
           29431         6.01483
           29432         6.09269
           29433         6.22592
           29434         6.17251
           29435         6.19544
           29436         6.11078
           29437         5.97905
           29438         5.90820
           29439         5.93896
           29440         6.14054
           29441         6.08647
           29442         6.76195
           29443         6.79716
           29444         6.49746
           29445         6.51870
           29446         6.49085
           29447         6.79123
           29448         6.29431
           29449         6.28950
           29450         6.61256
           29451         6.41792
           29452         6.31033
           29453         6.31188
           29454         6.19627
           29455         6.15765
           29456         6.26993
           29457         6.49734
           29458         6.26622
           29459         6.45380
           29460         3.66046
           29461         3.71423
           29462         3.70018
           29463         3.66235
           29464         3.61080
           29465         3.62240
           29466         3.66243
           29467         3.71610
           29468         3.73941
           29469         3.70107
           29470         3.69669
           29471         3.68290
           29472         3.73707
           29473         3.80917
           29474         5.42178
           29475         5.40874
           29476         5.37373
           29477         5.34805
           29478         5.35978
           29479         5.40157
           29480         5.46800
           29481         5.54158
           29482         5.46084
           29483         5.52905
           29484         5.46238
           29485         5.53639
           29486         5.30705
           29487         5.28523
           29488         5.29385
           29489         5.46634
           29490         5.38504
           29491         5.41157
           29492         5.41711
           29493         5.49942
           29494         5.44027
           29495         5.43759
           29496         5.39275
           29497         5.36698
           29498         5.34047
           29499         5.31755
           29500         5.24433
           29501         5.20644
           29502         5.26274
           29503         5.24248
           29504         5.28243
           29505         5.22595
           29506         5.26331
           29507         5.20623
           29508         5.22738
           29509         5.28430
           29510         5.24433
           29511         5.35666
           29512         5.37736
           29513         5.32025
           29514         5.37295
           29515         5.35238
           29516         5.40560
           29517         5.34235
           29518         5.30569
           29519         5.39104
           29520         5.34224
           29521         5.33073
           29522         5.36976
           29523         5.37987
           29524         5.29393
           29525         5.33614
           29526         5.32301
           29527         1.62928
           29528         1.70116
           29529         1.65507
           29530         1.67787
           29531         1.73194
           29532         1.66043
           29533         1.63896
           29534         1.54659
           29535         1.52503
           29536         1.49302
           29537         1.57610
           29538         1.59754
           29539         1.78385
           29540         1.81096
           29541         1.71214
           29542     479.573E-03
           29543     541.716E-03
           29544     611.944E-03
           29545     563.146E-03
           29546     501.922E-03
           29547     435.396E-03
           29548         1.53495
           29549         1.50304
           29550         1.55590
           29551         1.62782
           29552         1.59670
           29553         4.81473
           29554         4.92120
           29555         4.88251
           29556         4.85971
           29557         4.75319
           29558         4.79400
           29559         4.63538
           29560         4.59428
           29561         4.70691
           29562         4.87213
           29563         4.91080
           29564         4.79182
           29565         4.84749
           29566         4.67957
           29567         4.73979
           29568         8.87474
           29569         8.94618
           29570         8.59715
           29571         8.56684
           29572         8.49077
           29573         8.84306
           29574         8.76311
           29575         9.00668
           29576         9.10398
           29577         9.36052
           29578         9.10587
           29579         9.00538
           29580         8.62332
           29581         8.37615
           29582         8.41331
           29583         8.31184
           29584         8.52744
           29585         8.47680
           29586         8.51286
           29587         8.26941
           29588         8.38815
           29589         8.63576
           29590         8.54393
           29591         8.57113
           29592         8.31578
           29593         8.94481
           29594         8.91641
           29595         8.97927
           29596         9.30273
           29597         1.45235
           29598         1.27069
           29599     796.233E-03
           29600     852.284E-03
           29601         1.19913
           29602         1.14548
           29603         1.11452
           29604         1.18288
           29605     830.116E-03
           29606     861.560E-03
           29607     963.899E-03
           29608         1.04401
           29609         1.11403
           29610         3.58193
           29611         3.66872
           29612         3.65110
           29613         3.73371
           29614         3.64484
           29615         3.66253
           29616         3.57477
           29617         3.66086
           29618         3.73570
           29619         3.64693
           29620         3.65653
           29621         3.54470
           29622         3.47995
           29623         3.50024
           29624         3.41615
           29625         3.47879
           29626         3.45874
           29627         3.62123
           29628         3.70917
           29629         3.63883
           29630         3.70948
           29631         3.62124
           29632         3.70572
           29633         3.60004
           29634         3.59984
           29635         3.67887
           29636     85.7979E-03
           29637     34.8100E-03
           29638     33.3444E-03
           29639     38.2903E-03
           29640     52.9342E-03
           29641     53.2956E-03
           29642     20.8790E-03
           29643     11.6069E-03
           29644     34.7163E-03
           29645     24.5230E-03
           29646     33.7594E-03
           29647     32.3274E-03
           29648     20.0649E-03
           29649     28.7456E-03
           29650     42.3241E-03
           29651     28.1741E-03
           29652     96.8728E-03
           29653     19.9108E-03
           29654         2.62922
           29655         2.63226
           29656         2.63252
           29657         2.63514
           29658         2.63153
           29659         2.63125
           29660         2.62529
           29661         2.62357
           29662         2.62653
           29663         2.62518
           29664         2.62739
           29665         2.63490
           29666         2.63101
           29667         2.63365
           29668         1.58174
           29669         1.59558
           29670         1.60053
           29671         1.55034
           29672         1.53210
           29673         1.53313
           29674         1.55370
           29675         1.50373
           29676         1.63850
           29677         1.69334
           29678         1.72680
           29679         1.67055
           29680         1.71757
           29681         1.47198
           29682         1.51749
           29683         1.55834
           29684         1.50277
           29685         1.71269
           29686         1.63527
           29687         1.68190
           29688         1.65301
           29689         1.60544
           29690         1.65265
           29691         2.77854
           29692         2.75089
           29693         2.75061
           29694         2.76164
           29695         2.79119
           29696         2.78981
           29697         2.75690
           29698         2.71979
           29699         2.74349
           29700         2.73598
           29701         2.77311
           29702         2.74940
           29703         2.79639
           29704         2.80440
           29705         2.77969
           29706         2.78518
           29707         2.75813
           29708         2.75151
           29709         2.75172
           29710     734.827E-03
           29711     644.991E-03
           29712     645.389E-03
           29713     660.329E-03
           29714     749.223E-03
           29715     748.852E-03
           29716     674.207E-03
           29717     733.789E-03
           29718     795.227E-03
           29719     833.862E-03
           29720     774.033E-03
           29721     711.204E-03
           29722     620.683E-03
           29723     608.125E-03
           29724     628.948E-03
           29725     687.196E-03
           29726     667.732E-03
           29727     554.910E-03
           29728     566.004E-03
           29729     544.354E-03
           29730     550.531E-03
           29731     637.108E-03
           29732     572.147E-03
           29733     578.569E-03
           29734     636.460E-03
           29735         2.06493
           29736         2.15755
           29737         1.96835
           29738         2.19814
           29739         2.10620
           29740         2.29536
           29741         1.86753
           29742         1.77573
           29743         1.64829
           29744         1.74969
           29745         1.83774
           29746         1.94250
           29747         2.13167
           29748         2.27932
           29749         2.15634
           29750         1.73960
           29751         1.63696
           29752         1.84188
           29753         1.80077
           29754         6.74234
           29755         6.73978
           29756         6.64857
           29757         6.52069
           29758         6.61675
           29759         6.58993
           29760         6.79165
           29761         6.86139
           29762         6.72345
           29763         6.52017
           29764         6.45628
           29765         6.96026
           29766         7.03589
           29767         6.70734
           29768         6.84492
           29769         6.78249
           29770         6.33304
           29771         6.39988
           29772         6.44014
           29773         6.63545
           29774         6.76868
           29775         6.68431
           29776         6.56145
           29777         6.43205
           29778         6.26771
           29779         6.06280
           29780         5.96788
           29781         5.90138
           29782         6.03913
           29783         6.13300
           29784     315.960E-03
           29785     422.265E-03
           29786     474.112E-03
           29787         6.34857
           29788         6.23418
           29789         6.13886
           29790         6.06563
           29791         6.17932
           29792         6.27581
           29793         6.15145
           29794         6.22196
           29795         6.31751
           29796         5.98852
           29797         5.81846
           29798         5.93500
           29799         5.89454
           29800         5.94734
           29801         7.13550
           29802         7.30353
           29803     151.612E-03
           29804     131.397E-03
           29805     107.052E-03
           29806     118.875E-03
           29807         2.57763
           29808         2.56516
           29809         2.58422
           29810         2.57922
           29811         2.59244
           29812         2.57256
           29813         2.61077
           29814         2.62701
           29815         2.61035
           29816         2.59295
           29817         2.57973
           29818         2.57352
           29819         2.62719
           29820         2.61094
           29821         2.61102
           29822         7.41954
           29823         7.62473
           29824         7.86614
           29825         7.84103
           29826         8.24507
           29827         7.86026
           29828         8.66654
           29829         8.19107
           29830         8.61501
           29831         7.35734
           29832         6.94650
           29833         7.35674
           29834         6.95282
           29835         6.57815
           29836         7.77863
           29837         8.48147
           29838         8.14899
           29839         8.97200
           29840         8.54976
           29841         7.64071
           29842         7.93130
           29843         7.79942
           29844         7.77062
           29845         7.47954
           29846         7.61451
           29847         8.28013
           29848         8.10409
           29849         8.29615
           29850         7.94315
           29851         7.74705
           29852         8.47761
           29853         8.16966
           29854         7.99846
           29855     382.507E-03
           29856     455.158E-03
           29857     381.420E-03
           29858     348.946E-03
           29859     279.392E-03
           29860     350.971E-03
           29861     353.396E-03
           29862     192.971E-03
           29863     399.262E-03
           29864         5.13922
           29865         5.12528
           29866         5.16709
           29867         5.14828
           29868         5.16275
           29869         5.12251
           29870         5.11922
           29871         5.16102
           29872         5.14807
           29873         5.15103
           29874         5.16695
           29875         5.12663
           29876         5.20399
           29877         5.19601
           29878         5.17335
           29879         5.15926
           29880         5.19101
           29881         5.67799
           29882         5.67844
           29883         5.62723
           29884         5.65450
           29885         5.65479
           29886         5.70010
           29887         5.73470
           29888         5.78029
           29889         5.74773
           29890         5.65711
           29891         5.62992
           29892         5.68237
           29893         5.66152
           29894         5.73802
           29895         5.70291
           29896         5.76417
           29897         5.71553
           29898         5.68063
           29899         5.68438
           29900         3.50229
           29901         3.49594
           29902         3.52327
           29903         3.68227
           29904         3.67959
           29905         3.59194
           29906         3.61973
           29907         3.73968
           29908         3.39916
           29909         3.50686
           29910         3.50316
           29911         3.57714
           29912         3.51939
           29913         3.44311
           29914         3.51633
           29915     847.924E-03
           29916         7.52065
           29917         7.37044
           29918         7.60137
           29919         7.60419
           29920         7.76008
           29921         7.52088
           29922         7.76460
           29923         7.92267
           29924         7.92463
           29925         8.02235
           29926         8.19462
           29927         7.92516
           29928         7.75987
           29929         8.02423
           29930         7.60513
           29931         7.37572
           29932         7.52442
           29933         7.52546
           29934         3.80617
           29935         3.89966
           29936         4.04994
           29937         3.86320
           29938         3.62546
           29939         4.26169
           29940         4.50600
           29941         4.21931
           29942         4.19150
           29943         3.94443
           29944         4.23603
           29945         4.29983
           29946         4.28839
           29947         4.04461
           29948         4.12108
           29949         3.64767
           29950         3.62627
           29951         3.78439
           29952         3.46133
           29953         3.40194
           29954         3.23239
           29955         3.29482
           29956         2.66072
           29957         2.66149
           29958         2.66151
           29959         2.66020
           29960         2.65932
           29961         2.65949
           29962         2.66367
           29963         2.66421
           29964         2.66418
           29965         2.66377
           29966         2.66642
           29967         2.66527
           29968         2.66265
           29969         2.66543
           29970         2.66114
           29971         2.65869
           29972         2.65813
           29973         2.66006
           29974         2.66308
           29975     12.3657E-03
           29976     13.1186E-03
           29977     11.4448E-03
           29978     9.35098E-03
           29979     15.1162E-03
           29980     13.9400E-03
           29981     9.21123E-03
           29982     14.8135E-03
           29983     13.6551E-03
           29984     17.5482E-03
           29985     9.72109E-03
           29986     16.4799E-03
           29987     31.3801E-03
           29988     35.8854E-03
           29989     31.9506E-03
           29990     15.1697E-03
           29991         2.67748
           29992         2.67577
           29993         2.67626
           29994         2.67957
           29995         2.68083
           29996         2.68053
           29997         2.67318
           29998         2.67479
           29999         2.67256
           30000         2.67559
           30001         2.67418
           30002         2.68052
           30003         2.68025
           30004         2.67932
           30005         2.67690
           30006         2.67635
           30007         4.14455
           30008         4.24367
           30009         4.35704
           30010         4.29814
           30011         4.36802
           30012         4.25273
           30013         4.31226
           30014         5.86188
           30015         5.88531
           30016         5.96145
           30017         5.89157
           30018         5.93329
           30019         5.81508
           30020         5.82125
           30021         5.86150
           30022         5.77662
           30023         5.85389
           30024     290.327E-03
           30025     282.409E-03
           30026     137.008E-03
           30027     171.340E-03
           30028     146.749E-03
           30029         5.89146
           30030         5.81934
           30031         5.88309
           30032         5.80589
           30033         5.73167
           30034         5.75358
           30035         5.73594
           30036         5.80765
           30037         5.78580
           30038         5.79215
           30039         5.77040
           30040         5.86376
           30041         5.84679
           30042         5.76178
           30043         5.73468
           30044         5.78514
           30045         5.75955
           30046         6.22154
           30047         6.36619
           30048         6.24931
           30049         6.24019
           30050         6.34470
           30051         4.95471
           30052         4.89955
           30053         5.02158
           30054         4.95280
           30055         5.00927
           30056         4.88672
           30057         5.00197
           30058         4.93667
           30059         4.87922
           30060         4.74487
           30061         4.80430
           30062         4.73524
           30063         4.86979
           30064         4.80945
           30065         5.14370
           30066         5.13065
           30067         5.02086
           30068         5.03417
           30069         5.01002
           30070         4.94841
           30071         4.93840
           30072         5.07923
           30073     896.419E-03
           30074     877.085E-03
           30075     853.233E-03
           30076     798.335E-03
           30077     817.415E-03
           30078     840.874E-03
           30079     753.467E-03
           30080     706.651E-03
           30081     715.295E-03
           30082     666.833E-03
           30083     714.558E-03
           30084     704.832E-03
           30085         2.24852
           30086         1.98623
           30087         2.09308
           30088         2.31007
           30089     794.917E-03
           30090     786.684E-03
           30091     788.444E-03
           30092     830.219E-03
           30093         5.09204
           30094         5.15173
           30095         5.05671
           30096         5.09588
           30097         5.03556
           30098         5.13048
           30099     754.150E-03
           30100         5.14787
           30101         5.01968
           30102         5.02516
           30103         4.92724
           30104         5.06009
           30105         5.05309
           30106         5.12154
           30107         5.07409
           30108         5.04320
           30109         4.97863
           30110         5.02896
           30111         4.93011
           30112         4.87119
           30113         4.94310
           30114         4.81415
           30115         4.87594
           30116         4.92304
           30117         4.99167
           30118         4.82547
           30119         4.95179
           30120         5.00881
           30121         4.96775
           30122         4.94479
           30123         4.88695
           30124         2.54461
           30125         2.54362
           30126         2.55300
           30127         2.54828
           30128         2.54939
           30129         2.53938
           30130         2.55394
           30131         2.55865
           30132         2.55880
           30133         2.56293
           30134         2.56300
           30135         2.55368
           30136         2.55462
           30137         2.56362
           30138         2.54636
           30139         2.53526
           30140         2.54223
           30141         2.53674
           30142         2.54104
           30143         2.54113
           30144         2.53558
           30145         2.54604
           30146         2.54842
           30147         2.55503
           30148         2.54376
           30149         2.57097
           30150         2.56362
           30151         2.55586
           30152         2.56499
           30153         2.57239
           30154         2.56409
           30155         2.55504
           30156         2.54912
           30157         5.63407
           30158         5.64010
           30159         5.59681
           30160         5.64272
           30161         5.64001
           30162         5.67841
           30163         5.57154
           30164         5.55335
           30165         5.57478
           30166         5.59835
           30167         5.61129
           30168         5.59057
           30169         5.65208
           30170         5.67219
           30171         5.60914
           30172         5.65171
           30173         5.63635
           30174         5.69601
           30175         5.65339
           30176         5.69992
           30177         5.63479
           30178         5.67430
           30179         5.63415
           30180         5.69308
           30181         5.55608
           30182         5.57339
           30183         5.59152
           30184         5.59652
           30185     377.242E-03
           30186     446.309E-03
           30187     490.324E-03
           30188     487.934E-03
           30189     417.942E-03
           30190         5.55065
           30191         5.59087
           30192         5.56963
           30193         5.51227
           30194         5.53098
           30195         5.53315
           30196         2.58901
           30197         2.64641
           30198         2.59077
           30199         2.52690
           30200         2.65259
           30201         2.66361
           30202         2.59748
           30203         2.64709
           30204         2.71849
           30205         2.72843
           30206         2.80581
           30207         2.72895
           30208         2.71897
           30209         2.66286
           30210         2.73524
           30211         2.72577
           30212         2.65372
           30213         2.65948
           30214         2.65758
           30215         2.64694
           30216         2.59021
           30217         4.35936
           30218         4.45185
           30219         4.31386
           30220         4.50332
           30221         4.41041
           30222         4.55019
           30223         4.15444
           30224         4.24362
           30225         4.26976
           30226         4.18051
           30227         4.11314
           30228         4.29438
           30229         4.25730
           30230         4.16252
           30231         4.27920
           30232         4.30969
           30233         4.34733
           30234         4.46755
           30235         4.48050
           30236         3.81667
           30237         3.99283
           30238         4.26513
           30239         4.08893
           30240         4.29879
           30241         3.52282
           30242         3.52076
           30243         3.63178
           30244         4.11755
           30245         3.84688
           30246         4.07019
           30247         3.57906
           30248         7.41829
           30249         7.68113
           30250         7.54716
           30251         7.69135
           30252         7.42827
           30253         7.55920
           30254         7.21584
           30255         7.36768
           30256         7.43992
           30257         7.26067
           30258         7.10902
           30259         7.18797
           30260         7.07428
           30261         7.16971
           30262         7.29961
           30263         7.31880
           30264         7.70969
           30265         7.44590
           30266         7.59171
           30267         7.07934
           30268         7.14935
           30269         7.30751
           30270         7.37341
           30271         2.59655
           30272         2.59968
           30273         2.59434
           30274         2.59765
           30275         2.59501
           30276         2.59998
           30277         2.39509
           30278         2.40120
           30279         2.59393
           30280         2.59257
           30281         2.58707
           30282         2.58570
           30283         2.58802
           30284         2.59636
           30285         2.59420
           30286         2.59972
           30287         2.89995
           30288         2.77308
           30289         2.86663
           30290         2.90354
           30291         3.03044
           30292         2.61231
           30293         2.49004
           30294         2.62678
           30295         2.75298
           30296         3.07071
           30297         3.20036
           30298         3.23688
           30299         3.12740
           30300         3.33547
           30301         3.39292
           30302         3.18733
           30303         3.31999
           30304         3.19822
           30305         3.15542
           30306         2.94372
           30307         3.13671
           30308         3.39782
           30309         3.06948
           30310         3.28566
           30311         3.40509
           30312         3.27754
           30313         5.85587
           30314         5.79853
           30315         5.79750
           30316         5.88730
           30317         5.85312
           30318         5.71608
           30319         5.73841
           30320         5.76277
           30321         5.74199
           30322         5.68105
           30323         5.73621
           30324         5.75332
           30325         5.72909
           30326         5.68749
           30327         5.69143
           30328         5.76036
           30329         5.67413
           30330         5.68909
           30331         5.75819
           30332         5.74164
           30333         5.69851
           30334         2.47021
           30335         2.57716
           30336         2.54315
           30337         2.49844
           30338         2.39093
           30339         2.43068
           30340         2.44609
           30341         2.55151
           30342         2.62962
           30343         2.52777
           30344         2.52653
           30345         2.71614
           30346         2.61657
           30347         2.70795
           30348         2.54745
           30349         2.52504
           30350         2.62632
           30351         2.44015
           30352         2.36120
           30353         2.31981
           30354         2.40467
           30355         2.48432
           30356         3.86704
           30357         3.79841
           30358         3.76874
           30359         3.60160
           30360         3.63226
           30361         3.59067
           30362         3.49657
           30363         3.62643
           30364         3.69373
           30365         3.66203
           30366         3.70653
           30367         3.70699
           30368         3.75722
           30369         3.80627
           30370         3.75581
           30371         3.84735
           30372         3.79510
           30373         3.61472
           30374         3.60164
           30375         3.69502
           30376         3.64605
           30377         5.38083
           30378         5.39790
           30379         5.42894
           30380         5.41297
           30381         5.26549
           30382         5.16971
           30383         5.25147
           30384         5.21089
           30385         5.34557
           30386         5.30390
           30387         3.86723
           30388         3.84538
           30389         3.87882
           30390         3.93306
           30391         3.95596
           30392         3.92118
           30393         3.05887
           30394         3.07815
           30395         3.04484
           30396         3.12475
           30397         3.05056
           30398         3.02078
           30399         3.09608
           30400         3.06740
           30401         3.23784
           30402         3.22947
           30403         3.17836
           30404         3.26328
           30405     343.955E-03
           30406     328.864E-03
           30407     316.645E-03
           30408     333.036E-03
           30409     320.408E-03
           30410     288.707E-03
           30411     301.108E-03
           30412     262.578E-03
           30413     351.078E-03
           30414     292.596E-03
           30415     244.917E-03
           30416     323.773E-03
           30417     300.932E-03
           30418     393.235E-03
           30419     370.992E-03
           30420     340.876E-03
           30421     357.077E-03
           30422     399.409E-03
           30423     385.955E-03
           30424         2.19334
           30425         2.16732
           30426         2.16155
           30427         2.16708
           30428         2.19022
           30429         2.19616
           30430     327.838E-03
           30431     305.694E-03
           30432     377.721E-03
           30433     399.302E-03
           30434     352.241E-03
           30435         3.06277
           30436         3.06145
           30437         3.03093
           30438         3.09902
           30439         3.10143
           30440         3.13235
           30441         3.05783
           30442         3.05653
           30443         2.96664
           30444         2.96592
           30445         2.99147
           30446         3.07713
           30447         3.14912
           30448         3.12746
           30449         3.10287
           30450     727.564E-03
           30451     476.622E-03
           30452         5.51627
           30453         5.52038
           30454         5.50408
           30455         5.53645
           30456         5.53211
           30457         5.54903
           30458     445.666E-03
           30459         5.51284
           30460         5.50590
           30461         5.49474
           30462         5.48832
           30463         5.49541
           30464         5.50761
           30465         5.49354
           30466         5.48786
           30467         5.49572
           30468         5.47760
           30469         5.48075
           30470         5.47221
           30471         5.48010
           30472         5.47291
           30473         5.49665
           30474         5.47584
           30475         5.48430
           30476         3.95644
           30477         3.89222
           30478         3.98592
           30479         4.05124
           30480         3.79823
           30481         3.89304
           30482         3.82859
           30483         5.02912
           30484         5.03878
           30485         5.04860
           30486         5.03605
           30487         5.02633
           30488         5.01581
           30489         5.02938
           30490         5.03375
           30491         5.04213
           30492         5.02885
           30493         5.01611
           30494         5.04942
           30495         5.04669
           30496         5.03626
           30497         5.03304
           30498         5.05640
           30499         5.06489
           30500         5.04833
           30501         5.05380
           30502         5.06318
           30503         5.05826
           30504         5.05138
           30505         5.04772
           30506         5.06496
           30507         5.04765
           30508         5.06487
           30509         5.05477
           30510         2.66130
           30511         2.65926
           30512         2.67237
           30513         2.67789
           30514         2.67745
           30515         2.66635
           30516         2.68468
           30517         2.68317
           30518         2.68885
           30519         2.66948
           30520         2.67393
           30521         2.65703
           30522         2.67344
           30523         2.66897
           30524         2.66786
           30525         2.66451
           30526         2.66574
           30527         2.66024
           30528     627.966E-03
           30529     717.373E-03
           30530     843.937E-03
           30531     874.685E-03
           30532     782.924E-03
           30533     939.322E-03
           30534     906.496E-03
           30535     841.377E-03
           30536     809.587E-03
           30537     797.905E-03
           30538     775.980E-03
           30539     868.092E-03
           30540     783.627E-03
           30541     692.925E-03
           30542     655.141E-03
           30543     732.822E-03
           30544         9.20685
           30545         8.94961
           30546         10.1781
           30547         11.2293
           30548         10.3786
           30549         11.0142
           30550         10.1022
           30551         10.7921
           30552         12.7222
           30553         10.3812
           30554         12.1815
           30555         10.6267
           30556         13.1111
           30557         1.88122
           30558         1.77992
           30559         1.85354
           30560         1.96096
           30561         2.06326
           30562         1.98953
           30563         9.94737
           30564         9.98103
           30565         9.21040
           30566         9.05972
           30567         10.1869
           30568         10.0211
           30569         3.13625
           30570         3.10799
           30571         3.01635
           30572         3.13153
           30573         3.09034
           30574         3.05239
           30575         2.77751
           30576         2.79773
           30577         2.83156
           30578         2.90726
           30579         2.82760
           30580         2.76348
           30581         2.80743
           30582         2.09835
           30583         2.09169
           30584         2.13275
           30585         2.16838
           30586         2.17567
           30587         2.13352
           30588         2.32926
           30589         2.32918
           30590         2.34419
           30591         2.26998
           30592         2.27042
           30593         2.26135
           30594         2.06355
           30595         2.02190
           30596         2.03928
           30597         2.08432
           30598         2.00461
           30599         2.03076
           30600         2.08416
           30601         2.00462
           30602         2.04095
           30603         2.09942
           30604         2.02251
           30605         2.65582
           30606         2.65401
           30607         2.65206
           30608         2.65562
           30609         2.66004
           30610         2.65834
           30611         2.65631
           30612         2.65404
           30613         2.65549
           30614         2.65057
           30615         2.65264
           30616         2.65423
           30617         2.66121
           30618         2.64689
           30619         2.65033
           30620         2.65099
           30621         2.64828
           30622         2.66353
           30623         2.66323
           30624         2.66685
           30625         2.66563
           30626         2.85299
           30627         2.80981
           30628         2.59035
           30629         2.69441
           30630         2.45524
           30631         2.48438
           30632         2.38044
           30633         2.62079
           30634         2.82006
           30635         2.85191
           30636         2.80658
           30637         2.83191
           30638         2.80093
           30639         2.85281
           30640         2.82326
           30641         2.87993
           30642         2.87992
           30643         2.90647
           30644         2.84389
           30645         2.79916
           30646         2.79439
           30647         2.80701
           30648         2.76099
           30649         2.78837
           30650         2.77971
           30651         2.62770
           30652         2.63867
           30653         2.63528
           30654         2.63575
           30655         2.62908
           30656         2.63163
           30657         2.62407
           30658         7.81012
           30659         7.95155
           30660         7.64930
           30661         7.99693
           30662         7.85455
           30663         8.16489
           30664         7.93477
           30665         7.79330
           30666         8.14741
           30667         7.48679
           30668         7.61820
           30669         7.77853
           30670         7.62820
           30671         7.54204
           30672         7.43126
           30673         7.32347
           30674         7.40380
           30675         7.51435
           30676         7.21205
           30677         7.13057
           30678         7.40316
           30679         7.18379
           30680         7.63737
           30681         7.64513
           30682         7.76602
           30683         7.53387
           30684         7.40631
           30685         7.56260
           30686         7.70426
           30687         2.98116
           30688         2.98147
           30689         2.94091
           30690         3.01664
           30691         3.14285
           30692         3.15102
           30693         2.94775
           30694         3.02062
           30695         2.96519
           30696         2.99987
           30697         2.92627
           30698         3.11981
           30699         3.16576
           30700         3.13424
           30701         3.10449
           30702         2.94609
           30703         2.95816
           30704         2.99375
           30705         2.99593
           30706         2.98435
           30707         2.94828
           30708         3.02959
           30709         3.03449
           30710         3.05997
           30711         3.09852
           30712         3.09606
           30713         3.06793
           30714         3.09190
           30715         3.04126
           30716         3.03664
           30717         3.06833
           30718         2.27693
           30719         2.84533
           30720         2.23900
           30721         2.32822
           30722         2.37482
           30723         1.36594
           30724         1.80745
           30725         1.88635
           30726         2.76982
           30727         2.21310
           30728         2.30893
           30729     686.349E-03
           30730     533.845E-03
           30731     682.542E-03
           30732     514.421E-03
           30733     432.438E-03
           30734     445.594E-03
           30735     339.229E-03
           30736     418.864E-03
           30737     407.475E-03
           30738     666.678E-03
           30739     802.642E-03
           30740     645.905E-03
           30741     633.271E-03
           30742     726.444E-03
           30743     575.137E-03
           30744     631.772E-03
           30745     466.144E-03
           30746     521.802E-03
           30747     511.889E-03
           30748     385.002E-03
           30749     477.390E-03
           30750     498.101E-03
           30751         6.41402
           30752         6.52377
           30753         6.32554
           30754         6.40381
           30755         6.29465
           30756         6.49305
           30757         6.27795
           30758         6.20648
           30759         6.14582
           30760         5.95840
           30761         6.02997
           30762         6.08837
           30763         6.22260
           30764         6.30297
           30765         6.37476
           30766         6.45415
           30767         6.47619
           30768         6.37931
           30769         6.31767
           30770         6.51553
           30771         6.57590
           30772         11.3382
           30773         10.7665
           30774         10.8098
           30775         10.2160
           30776         10.8016
           30777         10.4263
           30778         10.9891
           30779         10.4259
           30780         9.45923
           30781         9.70260
           30782         9.03074
           30783         9.43086
           30784         9.48835
           30785         9.88078
           30786         9.62096
           30787     722.772E-03
           30788     679.446E-03
           30789         1.12682
           30790         1.25916
           30791         1.40133
           30792         1.23074
           30793         1.46723
           30794         1.34947
           30795         3.52637
           30796         3.57003
           30797         3.55971
           30798         3.66474
           30799         3.62085
           30800         3.63132
           30801         3.46282
           30802         3.47303
           30803         3.46868
           30804         3.45826
           30805         3.40538
           30806         9.07966
           30807         9.22409
           30808         8.90756
           30809         8.97084
           30810         8.82557
           30811         9.14553
           30812         9.18746
           30813         9.10351
           30814         9.36665
           30815         8.91440
           30816         8.83586
           30817         8.60306
           30818         8.73397
           30819         9.04066
           30820         8.82910
           30821         8.88843
           30822         9.10290
           30823         9.25991
           30824         2.04694
           30825         1.84443
           30826         1.96356
           30827         1.83351
           30828         2.03015
           30829         1.90891
           30830         2.14926
           30831         2.31374
           30832         2.32692
           30833         2.31178
           30834         2.14713
           30835         2.28961
           30836         2.45692
           30837         2.33401
           30838         2.35726
           30839         2.18855
           30840         2.31508
           30841         2.18731
           30842         2.06815
           30843         1.83860
           30844         1.95818
           30845         1.97650
           30846         2.33339
           30847         2.45604
           30848         2.31354
           30849         2.35513
           30850         2.55176
           30851         2.58521
           30852         2.55739
           30853         2.57018
           30854         2.53554
           30855         2.56457
           30856         2.56024
           30857         2.53111
           30858         2.56600
           30859         2.50119
           30860         2.47810
           30861         2.49805
           30862         2.48642
           30863         2.50943
           30864         2.48977
           30865         2.46759
           30866         2.46425
           30867         2.49451
           30868         2.50431
           30869         2.50706
           30870         2.47673
           30871         2.52151
           30872         2.50618
           30873         2.51827
           30874         2.53276
           30875         2.53505
           30876         2.53309
           30877         2.54904
           30878         5.22753
           30879         5.26330
           30880         5.13524
           30881         5.18749
           30882         5.20184
           30883         5.23706
           30884         5.28391
           30885         5.21966
           30886         5.17400
           30887         5.23999
           30888         5.14071
           30889         5.09928
           30890         5.12977
           30891         5.14640
           30892         5.04720
           30893         5.05919
           30894         5.16961
           30895         5.21736
           30896         5.20805
           30897         4.18494
           30898         4.18344
           30899         4.24446
           30900         4.17611
           30901         4.17823
           30902         4.11821
           30903         4.15397
           30904         4.07801
           30905         4.16862
           30906         4.10221
           30907         4.08686
           30908         4.20106
           30909         4.10887
           30910         4.17801
           30911         4.27269
           30912         4.22616
           30913         4.29640
           30914         4.30049
           30915         4.37566
           30916         4.32342
           30917         4.31854
           30918         4.28723
           30919         4.38427
           30920         4.34363
           30921         4.47784
           30922         4.37737
           30923         4.41783
           30924         4.42156
           30925         4.45512
           30926         4.21401
           30927         4.30974
           30928         4.37033
           30929         4.23916
           30930         5.52960
           30931         5.48924
           30932         5.49535
           30933         5.50790
           30934         5.54378
           30935         5.52435
           30936         5.47097
           30937         5.48525
           30938         5.43521
           30939         5.49164
           30940         5.47830
           30941         5.54144
           30942         5.48930
           30943         5.53412
           30944         1.83804
           30945         1.41934
           30946         1.84374
           30947         1.60943
           30948         2.43521
           30949         1.64419
           30950         2.59088
           30951         3.56264
           30952         3.53830
           30953         3.52777
           30954         2.47102
           30955         3.02695
           30956         3.00938
           30957         3.91293
           30958         4.11321
           30959         3.02400
           30960         3.49293
           30961         1.90647
           30962         1.84531
           30963         1.87888
           30964         1.87839
           30965         1.90499
           30966         1.96943
           30967         1.94611
           30968         2.04258
           30969         1.95084
           30970         1.87527
           30971         1.96033
           30972         1.91132
           30973         1.91289
           30974         1.94847
           30975         1.98754
           30976         2.11887
           30977         2.16793
           30978         2.11056
           30979         2.14151
           30980         2.09152
           30981         2.14915
           30982         2.04683
           30983         5.40773
           30984         5.51170
           30985         5.48005
           30986         5.52177
           30987         5.42490
           30988         5.45351
           30989         5.36559
           30990         5.28444
           30991         5.29890
           30992         5.31546
           30993         5.40037
           30994         5.38342
           30995         5.60634
           30996         5.51035
           30997         5.55164
           30998         5.65740
           30999         5.67836
           31000         5.68324
           31001         5.67768
           31002         5.65327
           31003         5.64905
           31004         5.61885
           31005         5.55653
           31006         5.60120
           31007         5.58973
           31008         5.65316
           31009         5.60918
           31010         5.55943
           31011         5.62267
           31012         5.56947
           31013         5.61204
           31014         5.54671
           31015         5.67029
           31016         5.70572
           31017         5.69805
           31018         5.70788
           31019         5.67043
           31020         5.67850
           31021         5.71778
           31022         5.71241
           31023         5.69192
           31024         5.72646
           31025         5.68762
           31026         5.72325
           31027         5.69519
           31028         5.67419
           31029         5.70936
           31030         5.70309
           31031         3.26806
           31032         3.23936
           31033         3.25841
           31034         3.31496
           31035         3.34254
           31036         3.32393
           31037         3.35950
           31038         3.41959
           31039         3.44275
           31040         3.38277
           31041         3.45917
           31042         3.43963
           31043         3.37862
           31044         3.47907
           31045         3.23211
           31046         3.22651
           31047         3.27875
           31048         3.31065
           31049         3.31853
           31050         3.26396
           31051         3.33811
           31052         3.28169
           31053         3.37467
           31054     245.273E-03
           31055     335.520E-03
           31056     345.780E-03
           31057     356.725E-03
           31058     267.212E-03
           31059     255.582E-03
           31060     148.128E-03
           31061     137.603E-03
           31062     158.765E-03
           31063     147.208E-03
           31064     136.269E-03
           31065     42.1047E-03
           31066     294.926E-03
           31067     232.115E-03
           31068     193.720E-03
           31069     192.773E-03
           31070     246.814E-03
           31071     284.830E-03
           31072     266.469E-03
           31073     254.735E-03
           31074     156.597E-03
           31075         1.17708
           31076         1.27529
           31077         1.18483
           31078         1.10700
           31079         1.19495
           31080         1.29382
           31081         1.20114
           31082         1.29917
           31083         1.11194
           31084         1.22617
           31085         1.19630
           31086         1.08261
           31087         1.10668
           31088     985.830E-03
           31089     898.804E-03
           31090     999.690E-03
           31091         1.01904
           31092     897.861E-03
           31093     999.281E-03
           31094     911.346E-03
           31095         1.10132
           31096         1.01163
           31097         4.72780
           31098         4.80009
           31099         4.68087
           31100         4.70629
           31101         4.63374
           31102         4.75620
           31103         4.65806
           31104         4.78010
           31105         4.68757
           31106         4.51697
           31107         4.57019
           31108         4.54494
           31109         1.84967
           31110         1.87818
           31111         1.84305
           31112         1.96910
           31113         1.93959
           31114         1.54322
           31115         1.56668
           31116         1.64194
           31117         1.73913
           31118         1.71716
           31119         1.64061
           31120         1.51407
           31121         1.61150
           31122         1.58985
           31123         1.76669
           31124         1.74463
           31125         1.50735
           31126         1.45472
           31127         1.55766
           31128         1.61083
           31129         1.45719
           31130         9.13087
           31131         7.71919
           31132         7.80203
           31133         8.41950
           31134         9.94545
           31135         9.66877
           31136         10.1314
           31137         10.3514
           31138         9.04565
           31139         9.03353
           31140         8.72667
           31141         9.92324
           31142         7.40268
           31143         7.43700
           31144         7.25855
           31145         8.57292
           31146         8.55503
           31147         6.47428
           31148         6.77819
           31149         8.03785
           31150         7.05176
           31151         11.0274
           31152         9.80843
           31153         10.1066
           31154         11.3654
           31155         9.84129
           31156         9.41041
           31157         2.59114
           31158         2.60374
           31159         2.58957
           31160         2.59175
           31161         2.58021
           31162         2.59319
           31163         2.57229
           31164         2.55811
           31165         2.56392
           31166         2.55946
           31167         2.57324
           31168         2.56814
           31169         2.55892
           31170         2.57278
           31171         2.56417
           31172         2.56880
           31173         2.55552
           31174         2.58050
           31175         2.57526
           31176         2.57519
           31177         2.57674
           31178         2.58145
           31179         2.58254
           31180         2.57969
           31181         2.57271
           31182         2.55977
           31183         2.56536
           31184     923.343E-03
           31185     967.442E-03
           31186         1.02103
           31187     976.589E-03
           31188     938.428E-03
           31189     891.612E-03
           31190     830.401E-03
           31191     877.774E-03
           31192     846.384E-03
           31193         1.01604
           31194         1.07327
           31195         1.02759
           31196         1.04454
           31197     986.708E-03
           31198         1.03229
           31199     963.379E-03
           31200         1.06919
           31201         1.01151
           31202         3.18096
           31203         3.23325
           31204         3.21012
           31205         3.23816
           31206         3.18596
           31207         3.20864
           31208         3.15072
           31209         3.17675
           31210         3.18619
           31211         3.15934
           31212         3.13360
           31213         3.12479
           31214         3.23867
           31215         3.20086
           31216         3.11887
           31217         3.15693
           31218         3.17854
           31219         3.13942
           31220     429.955E-03
           31221     364.657E-03
           31222     250.103E-03
           31223     256.615E-03
           31224     245.552E-03
           31225     298.317E-03
           31226     309.783E-03
           31227     306.299E-03
           31228     251.066E-03
           31229     239.537E-03
           31230     325.095E-03
           31231         4.23864
           31232         4.14095
           31233         4.17521
           31234         4.21339
           31235         4.31308
           31236         4.27745
           31237         4.21867
           31238         4.10311
           31239         4.15761
           31240         4.01387
           31241         4.12633
           31242         4.07203
           31243         4.32261
           31244         4.30108
           31245         4.25403
           31246         4.19759
           31247         4.26528
           31248         4.43316
           31249         4.47287
           31250         4.37694
           31251         4.33763
           31252         4.49762
           31253         4.39369
           31254         4.55786
           31255         4.49019
           31256         4.32911
           31257         4.44994
           31258         4.35005
           31259         4.47148
           31260         4.44370
           31261         4.39884
           31262         4.09238
           31263         4.18398
           31264         4.20448
           31265         4.08845
           31266         4.14814
           31267         4.18356
           31268         3.14420
           31269         3.19833
           31270         3.19148
           31271         3.20402
           31272         3.14970
           31273         3.15604
           31274         3.09004
           31275         3.07886
           31276         3.09414
           31277         3.10557
           31278         3.14766
           31279         3.05524
           31280         3.04495
           31281         3.10835
           31282         3.11188
           31283         3.05000
           31284         3.09776
           31285         3.05935
           31286         3.12354
           31287         3.13405
           31288         3.08115
           31289         8.39586
           31290         8.12763
           31291         8.28063
           31292         8.65956
           31293         8.50148
           31294         9.02627
           31295         8.86998
           31296         8.72504
           31297         9.04852
           31298         8.47786
           31299         8.38066
           31300         8.70286
           31301         2.48835
           31302         2.47639
           31303         2.47889
           31304         2.48403
           31305         2.49716
           31306         2.49405
           31307         2.46746
           31308         2.48444
           31309         2.47860
           31310         2.46237
           31311         2.47032
           31312         2.48096
           31313         2.48545
           31314         2.46855
           31315         2.50678
           31316         2.51231
           31317         2.49751
           31318         2.50238
           31319         2.51172
           31320         5.38566
           31321         5.39438
           31322         5.36853
           31323         4.98330
           31324         4.79537
           31325         4.96993
           31326         4.93247
           31327         5.11854
           31328         4.94157
           31329         5.16972
           31330         4.98250
           31331         4.82446
           31332         5.01379
           31333         5.02198
           31334         3.88884
           31335         3.89620
           31336         3.81335
           31337         3.74437
           31338         3.82649
           31339         3.79017
           31340         3.87251
           31341         3.72920
           31342         3.52860
           31343         3.58771
           31344         3.63091
           31345         3.66765
           31346         3.68943
           31347         3.70364
           31348         3.81190
           31349         1.24891
           31350         1.31252
           31351         1.25511
           31352         1.29529
           31353         1.22207
           31354         1.27944
           31355         1.25085
           31356         1.32908
           31357         1.26930
           31358         1.29499
           31359         1.21638
           31360         1.27447
           31361         1.24313
           31362         1.18343
           31363         1.31567
           31364         1.24968
           31365         1.32720
           31366         1.25319
           31367         1.33989
           31368         1.23314
           31369         1.30723
           31370         1.22240
           31371         1.38622
           31372         1.39121
           31373         1.41806
           31374         1.45608
           31375         1.42962
           31376         1.31235
           31377         1.27998
           31378         1.38236
           31379         1.37697
           31380         1.42268
           31381         1.45831
           31382         1.34477
           31383         1.28983
           31384         1.30318
           31385         2.96569
           31386         2.91779
           31387         2.96187
           31388         2.94119
           31389         2.99301
           31390         2.94693
           31391         2.91959
           31392         2.97090
           31393         2.94877
           31394         2.72391
           31395         2.73560
           31396         2.74083
           31397         2.73943
           31398         2.72817
           31399         2.74451
           31400         2.75179
           31401         2.74070
           31402         2.73613
           31403         2.74000
           31404         2.67617
           31405         2.68020
           31406         2.67331
           31407         2.70287
           31408         2.69346
           31409         2.69276
           31410         2.72732
           31411         2.72707
           31412         2.72807
           31413         2.73693
           31414         2.73667
           31415     531.132E-03
           31416     516.279E-03
           31417     366.628E-03
           31418     536.725E-03
           31419         2.73083
           31420         2.75071
           31421         2.74315
           31422         2.73969
           31423         2.70728
           31424         2.71371
           31425         2.71663
           31426         2.72097
           31427         3.40643
           31428         3.18298
           31429         3.30187
           31430         3.22677
           31431         3.45095
           31432         3.33078
           31433         3.47838
           31434         3.39559
           31435         3.44176
           31436         3.60397
           31437         3.68628
           31438         3.64360
           31439         3.25496
           31440         3.40433
           31441         3.21784
           31442         3.22871
           31443         3.45114
           31444         3.36660
           31445         4.46777
           31446         4.35886
           31447         4.46304
           31448         4.52688
           31449         4.42015
           31450         4.58734
           31451         4.53827
           31452         4.52715
           31453         4.59167
           31454         4.64095
           31455         4.65113
           31456         4.41629
           31457         4.46262
           31458         4.35867
           31459         4.42168
           31460         4.59716
           31461         4.48328
           31462         4.60837
           31463         3.01044
           31464         3.10838
           31465         3.05026
           31466         2.99425
           31467         3.10553
           31468         3.02475
           31469         3.02147
           31470         3.32090
           31471         3.27002
           31472         3.19857
           31473         3.26592
           31474         3.31666
           31475         3.39202
           31476         3.27181
           31477         3.24117
           31478         3.36017
           31479         3.26585
           31480         3.29660
           31481         3.27013
           31482         3.20969
           31483         2.68891
           31484         2.67197
           31485         2.67196
           31486         2.66176
           31487         2.64530
           31488         2.64306
           31489         2.63843
           31490         2.64924
           31491         2.64050
           31492         2.65129
           31493         2.64309
           31494         2.64545
           31495         2.63529
           31496         2.64051
           31497         2.64619
           31498         2.64357
           31499         5.39246
           31500         5.37222
           31501         5.34389
           31502         5.39753
           31503         5.36313
           31504         5.39808
           31505         5.43152
           31506         5.45591
           31507         5.49010
           31508         5.45733
           31509         5.42846
           31510         5.45117
           31511         5.52287
           31512         5.49501
           31513         5.53088
           31514         5.48517
           31515         1.74961
           31516         1.71794
           31517         1.75700
           31518         1.75421
           31519         1.78478
           31520         1.74696
           31521         1.81646
           31522         1.81425
           31523         1.78564
           31524         1.92359
           31525         1.70422
           31526         1.83923
           31527         1.86575
           31528         1.72423
           31529         1.69834
           31530         1.75788
           31531         1.72035
           31532         1.68767
           31533         1.79035
           31534         1.77138
           31535         1.76335
           31536         1.80313
           31537         1.82243
           31538         1.83069
           31539         1.76580
           31540         1.73805
           31541         2.45821
           31542         2.48824
           31543         2.47430
           31544         2.41239
           31545         2.39918
           31546         2.43052
           31547         2.44277
           31548         2.42003
           31549         2.41841
           31550         2.39454
           31551         2.42727
           31552         2.45042
           31553         2.43326
           31554         2.45097
           31555         2.44891
           31556         2.43268
           31557         2.37515
           31558         2.39910
           31559         2.38076
           31560         2.54935
           31561         2.57329
           31562         2.58271
           31563         2.55889
           31564         2.54508
           31565         2.63698
           31566         2.63922
           31567         2.65768
           31568         2.66450
           31569         2.64430
           31570         2.68578
           31571         2.57319
           31572         2.61759
           31573         2.57103
           31574         2.58068
           31575     269.608E-03
           31576     291.618E-03
           31577     251.447E-03
           31578     142.660E-03
           31579     137.630E-03
           31580     120.481E-03
           31581     180.769E-03
           31582     172.667E-03
           31583     192.454E-03
           31584     85.2929E-03
           31585     86.2053E-03
           31586     56.6211E-03
           31587     212.717E-03
           31588     147.887E-03
           31589     198.975E-03
           31590     85.8968E-03
           31591     87.9693E-03
           31592     59.1120E-03
           31593     140.550E-03
           31594     214.369E-03
           31595     152.325E-03
           31596         3.24177
           31597         3.37514
           31598         3.22599
           31599         3.18502
           31600         3.32070
           31601         3.07456
           31602         3.23135
           31603         3.38851
           31604         3.23950
           31605         3.22122
           31606         2.93462
           31607         2.78785
           31608         2.94006
           31609         2.97923
           31610         3.12385
           31611         2.96894
           31612         3.21977
           31613         3.06232
           31614         3.19577
           31615         2.62436
           31616         2.69946
           31617         2.48362
           31618         2.60546
           31619         2.40953
           31620         2.72653
           31621         2.51208
           31622         2.60606
           31623         2.82268
           31624         2.85010
           31625         2.84693
           31626         2.62632
           31627         2.91893
           31628         2.95956
           31629         2.86265
           31630         3.10027
           31631         3.15680
           31632         3.44435
           31633         3.11104
           31634         3.06877
           31635         3.30895
           31636         2.88982
           31637         3.09789
           31638         2.66396
           31639         2.67024
           31640         2.67445
           31641         2.67065
           31642         2.66939
           31643         2.66499
           31644         2.97518
           31645         2.80764
           31646         2.93306
           31647         2.73419
           31648         2.90358
           31649         2.78033
           31650         2.66837
           31651         2.66772
           31652         2.66482
           31653         2.67009
           31654         2.67130
           31655         2.65272
           31656         2.66055
           31657         2.65384
           31658         2.65903
           31659         2.66091
           31660         2.66382
           31661         2.66327
           31662         2.65953
           31663         3.64979
           31664         3.50796
           31665         3.60593
           31666         3.39696
           31667         3.54474
           31668         3.44153
           31669         3.68371
           31670         3.80611
           31671         3.86587
           31672         3.75622
           31673         3.62814
           31674         3.56748
           31675         3.66790
           31676         3.45873
           31677         3.41905
           31678         3.55063
           31679         3.53411
           31680         3.47511
           31681         3.97625
           31682         4.04551
           31683         4.03374
           31684         3.92954
           31685         3.85394
           31686     326.222E-03
           31687     315.972E-03
           31688         2.14186
           31689         2.10965
           31690         2.13381
           31691         2.09833
           31692         2.12928
           31693         2.10609
           31694         3.47687
           31695         3.47724
           31696         3.38735
           31697         3.45376
           31698         3.51198
           31699         3.25130
           31700         3.26844
           31701         3.36998
           31702         3.31149
           31703         3.29474
           31704         3.19586
           31705         3.28794
           31706         3.16361
           31707         3.22460
           31708         3.25885
           31709         3.19719
           31710         3.39141
           31711         3.12788
           31712         3.18967
           31713     301.984E-03
           31714     398.811E-03
           31715     330.114E-03
           31716     340.149E-03
           31717     250.429E-03
           31718     189.815E-03
           31719     140.773E-03
           31720     186.266E-03
           31721     136.886E-03
           31722     186.492E-03
           31723     147.876E-03
           31724     104.910E-03
           31725     151.548E-03
           31726     118.281E-03
           31727     317.993E-03
           31728     384.057E-03
           31729     247.513E-03
           31730     321.007E-03
           31731     203.510E-03
           31732     164.930E-03
           31733     515.494E-03
           31734     493.513E-03
           31735     465.514E-03
           31736     314.556E-03
           31737     292.344E-03
           31738     333.196E-03
           31739     290.776E-03
           31740     313.567E-03
           31741     272.897E-03
           31742     370.314E-03
           31743     407.063E-03
           31744     444.867E-03
           31745     313.613E-03
           31746     334.821E-03
           31747     356.596E-03
           31748     336.202E-03
           31749     441.659E-03
           31750     460.854E-03
           31751     484.227E-03
           31752         5.72610
           31753         5.64192
           31754         5.70852
           31755         5.65581
           31756         5.74235
           31757         5.67574
           31758         3.95411
           31759         3.80802
           31760         3.76682
           31761         3.91598
           31762         3.89957
           31763         5.78127
           31764         5.83739
           31765         5.84756
           31766         5.91236
           31767         5.85888
           31768         5.84306
           31769         7.32931
           31770         7.64663
           31771         7.77835
           31772         7.64001
           31773         7.37754
           31774         7.20160
           31775         7.50532
           31776         8.02157
           31777         7.84147
           31778         8.02622
           31779         7.98129
           31780         8.16534
           31781         7.97620
           31782         7.67065
           31783         7.57341
           31784         7.41516
           31785         7.22466
           31786         7.32043
           31787         7.47767
           31788         8.14829
           31789         8.34305
           31790         1.90826
           31791         1.91475
           31792         1.89556
           31793         1.91836
           31794         1.90633
           31795         1.92881
           31796         1.89362
           31797         1.90601
           31798         1.89960
           31799         1.90550
           31800         1.89168
           31801         1.89707
           31802         1.90171
           31803         1.92193
           31804         1.91370
           31805         1.90678
           31806         1.88305
           31807         1.88768
           31808         1.89122
           31809         1.88436
           31810         1.87997
           31811         1.87644
           31812         1.89364
           31813         1.91435
           31814         1.91177
           31815         8.00684
           31816         8.67087
           31817         8.87273
           31818         9.68589
           31819         8.87530
           31820         8.65324
           31821         6.71945
           31822         7.13259
           31823         7.34903
           31824         6.76855
           31825         6.33570
           31826         8.02790
           31827         7.19487
           31828         9.11241
           31829         7.85640
           31830         8.82978
           31831         6.89193
           31832         6.90580
           31833         5.96005
           31834         6.42905
           31835         7.32706
           31836         6.15785
           31837         6.52699
           31838         8.41901
           31839         8.24494
           31840         7.53448
           31841         7.78453
           31842         2.56736
           31843         2.35626
           31844         2.35065
           31845         2.29191
           31846         2.50602
           31847         2.50846
           31848         2.03689
           31849         2.10445
           31850         2.09719
           31851         2.15499
           31852         2.08530
           31853         2.09442
           31854         1.93652
           31855         1.95277
           31856         1.93558
           31857         1.98653
           31858         1.96954
           31859         1.98727
           31860     620.423E-03
           31861     610.824E-03
           31862     691.890E-03
           31863         2.70283
           31864         2.65854
           31865         2.60513
           31866         2.11227
           31867         2.04512
           31868         2.12556
           31869         2.11075
           31870         2.17934
           31871         2.08712
           31872         2.02450
           31873         2.04014
           31874     121.349E-03
           31875     128.241E-03
           31876     121.322E-03
           31877     60.6169E-03
           31878     55.7734E-03
           31879     60.3915E-03
           31880     121.053E-03
           31881     166.116E-03
           31882     161.038E-03
           31883     165.093E-03
           31884     128.388E-03
           31885     73.2827E-03
           31886     72.6480E-03
           31887     109.783E-03
           31888     116.749E-03
           31889     121.158E-03
           31890     81.3347E-03
           31891     61.2047E-03
           31892     57.8456E-03
           31893     62.7605E-03
           31894         6.24442
           31895         6.42737
           31896         6.48474
           31897         6.49823
           31898         6.32856
           31899         6.27493
           31900         6.39583
           31901         6.27462
           31902         6.32875
           31903         6.49467
           31904         6.49447
           31905         1.19276
           31906         1.10758
           31907         1.17885
           31908         1.20662
           31909         1.29263
           31910         1.22069
           31911         1.17886
           31912         1.26351
           31913         1.17711
           31914         1.10590
           31915         1.21013
           31916         1.28157
           31917         1.19444
           31918         1.07573
           31919         1.16224
           31920         1.07739
           31921         1.09191
           31922         3.61953
           31923         3.68474
           31924         3.55708
           31925         3.73251
           31926         3.82995
           31927         3.75900
           31928         3.69128
           31929         3.78669
           31930         3.86685
           31931         3.76850
           31932         3.62573
           31933         3.48678
           31934         3.56960
           31935         3.59267
           31936         3.68152
           31937         6.54681
           31938         6.26829
           31939         6.39164
           31940         6.31637
           31941         6.59221
           31942         6.46539
           31943         6.62251
           31944         6.70489
           31945         6.72276
           31946         6.68807
           31947         6.61008
           31948         6.47184
           31949         6.55636
           31950         6.57888
           31951     284.955E-03
           31952     203.907E-03
           31953     305.816E-03
           31954         7.15304
           31955         7.37229
           31956         7.24247
           31957         7.05114
           31958         6.86235
           31959         6.98090
           31960         1.68991
           31961         1.71508
           31962         1.48933
           31963         1.61552
           31964         1.59901
           31965         1.81985
           31966         1.26433
           31967         1.19988
           31968         1.41603
           31969         1.43068
           31970         1.56093
           31971         1.59686
           31972         1.56391
           31973         1.72168
           31974         1.55991
           31975         3.25664
           31976         3.33267
           31977         3.31303
           31978         3.20598
           31979         3.19621
           31980         3.16955
           31981         3.14567
           31982         3.27988
           31983         3.12001
           31984         3.03599
           31985         2.99844
           31986         3.04627
           31987         3.09117
           31988         3.17596
           31989         3.04929
           31990         2.92460
           31991         3.23404
           31992         3.22539
           31993         3.10906
           31994         3.22330
           31995         3.25730
           31996         3.29509
           31997         3.16988
           31998         3.16954
           31999         3.25853
           32000         3.29929
           32001         3.19262
           32002         3.31376
           32003         3.14622
           32004         5.08755
           32005         5.11645
           32006         5.08221
           32007         5.08536
           32008         3.27111
           32009         3.20932
           32010         3.24853
           32011         3.21190
           32012         3.27634
           32013         3.23458
           32014         3.36272
           32015         3.34276
           32016         3.29312
           32017         3.34264
           32018         3.36279
           32019         3.41459
           32020         3.31257
           32021         3.24887
           32022         3.27148
           32023         3.44973
           32024         3.39610
           32025         3.43213
           32026         3.34547
           32027         3.39589
           32028         3.36059
           32029         1.42610
           32030         1.58174
           32031         1.40207
           32032         2.55067
           32033         2.56790
           32034         2.56129
           32035         2.54393
           32036         2.58192
           32037         2.53984
           32038         2.56081
           32039         2.52403
           32040         2.53646
           32041         2.51716
           32042         2.55202
           32043         2.56223
           32044         2.55089
           32045         2.51535
           32046         2.53625
           32047         2.57728
           32048         2.53954
           32049         2.55529
           32050         2.53022
           32051         2.56625
           32052         1.21916
           32053         2.49917
           32054         2.44880
           32055         2.46440
           32056         2.44160
           32057         2.47515
           32058         2.45291
           32059         2.44249
           32060         2.47615
           32061         3.63214
           32062         3.73116
           32063         3.67519
           32064         3.69427
           32065         3.59851
           32066         3.65116
           32067         3.53617
           32068         3.53169
           32069         3.57490
           32070         3.52714
           32071         3.53187
           32072         3.48945
           32073         3.44603
           32074         3.49010
           32075         3.44772
           32076         3.44297
           32077         3.52917
           32078         3.48637
           32079         3.52035
           32080         3.57118
           32081         3.52779
           32082         2.46969
           32083         2.42209
           32084         2.46156
           32085         2.44178
           32086         2.48859
           32087         2.44901
           32088         2.48650
           32089         2.49776
           32090         2.51810
           32091         2.48075
           32092         2.46811
           32093         2.44902
           32094         2.51783
           32095         2.53905
           32096         2.54953
           32097         2.55692
           32098         2.58012
           32099         2.52926
           32100         2.55734
           32101         2.53720
           32102         2.58522
           32103         2.54729
           32104         2.51773
           32105         2.49937
           32106         2.58662
           32107         2.56460
           32108         1.21405
           32109         1.24022
           32110         1.16204
           32111         1.21110
           32112         1.18400
           32113         1.26226
           32114         1.20086
           32115         1.28026
           32116         1.24887
           32117         1.12394
           32118         1.06096
           32119         1.07276
           32120         1.09630
           32121         1.15880
           32122         1.14729
           32123         1.04107
           32124         1.10432
           32125         1.12741
           32126         1.22666
           32127         1.23784
           32128         3.55587
           32129         3.66689
           32130         3.61535
           32131         3.62814
           32132         3.60344
           32133         3.58073
           32134         3.48090
           32135         3.54517
           32136         3.56898
           32137         3.66906
           32138         3.68082
           32139         3.63302
           32140         3.71525
           32141         3.65481
           32142         3.57257
           32143         3.50160
           32144         3.55094
           32145         3.51740
           32146         3.58857
           32147         3.53848
           32148         3.64952
           32149         3.73673
           32150         3.71010
           32151         3.75908
           32152         3.67135
           32153         3.69744
           32154         3.55207
           32155         3.64109
           32156         3.53561
           32157         3.57456
           32158         3.48850
           32159         3.59150
           32160         3.48659
           32161         3.46604
           32162         1.39275
           32163         1.42519
           32164         1.35058
           32165         1.40365
           32166         1.36963
           32167         1.44411
           32168         1.29383
           32169         1.32745
           32170         1.29571
           32171         1.26056
           32172         1.23720
           32173         1.40215
           32174         1.35174
           32175         1.42551
           32176         5.25556
           32177         5.35021
           32178         5.31850
           32179         5.43220
           32180         5.39938
           32181         5.22344
           32182         5.17694
           32183         5.17534
           32184         5.20600
           32185         5.27338
           32186         5.24331
           32187         5.34035
           32188         5.17373
           32189         5.17061
           32190         5.11647
           32191         5.11078
           32192         5.15810
           32193         5.17938
           32194         5.12810
           32195         5.32610
           32196         5.21483
           32197         5.29691
           32198         5.23897
           32199         5.28175
           32200         5.09185
           32201         5.15446
           32202         5.14757
           32203         5.10829
           32204         5.84919
           32205         5.68904
           32206         5.90842
           32207         5.83016
           32208         5.99325
           32209         5.79561
           32210         5.73857
           32211         6.17695
           32212         6.36183
           32213         6.25397
           32214         6.49031
           32215         6.41063
           32216         6.43767
           32217         6.17284
           32218         5.99422
           32219         6.07939
           32220         6.15837
           32221         6.34249
           32222         5.95870
           32223         6.14515
           32224         6.20349
           32225         2.61274
           32226         2.62892
           32227         2.62773
           32228         2.62844
           32229         2.61477
           32230         2.61375
           32231         2.63783
           32232         2.63833
           32233         2.62950
           32234         2.65306
           32235         2.62911
           32236         2.63700
           32237         2.63550
           32238         2.62791
           32239         2.63143
           32240         2.64404
           32241         2.65098
           32242         2.64708
           32243         2.66330
           32244         2.65254
           32245         2.64835
           32246         2.65364
           32247         2.66433
           32248         2.64868
           32249         2.63719
           32250         2.65104
           32251         6.40096
           32252         6.45904
           32253         6.41490
           32254         7.02170
           32255         6.76702
           32256         6.94878
           32257         6.79209
           32258         7.04616
           32259         6.55620
           32260         6.58497
           32261         6.53818
           32262         6.74298
           32263         6.71415
           32264         6.76120
           32265         1.10899
           32266         1.19593
           32267         1.27250
           32268         1.24133
           32269         1.15446
           32270         1.07745
           32271         6.78005
           32272         6.93654
           32273         7.03396
           32274         6.81679
           32275         6.63977
           32276         6.41901
           32277         6.59115
           32278         6.39058
           32279         6.76646
           32280         2.64634
           32281         2.62460
           32282         2.61994
           32283         2.61417
           32284         2.63283
           32285         2.63806
           32286         2.57899
           32287         2.58825
           32288         2.58530
           32289         2.62808
           32290         2.61479
           32291         2.61884
           32292         2.60588
           32293         2.61809
           32294         2.60972
           32295         2.58659
           32296         2.57397
           32297         2.58164
           32298         2.59622
           32299         2.60156
           32300         2.58627
           32301         1.98332
           32302         2.27412
           32303     333.037E-03
           32304     346.078E-03
           32305     353.641E-03
           32306     385.991E-03
           32307     385.028E-03
           32308     368.511E-03
           32309     353.516E-03
           32310     359.469E-03
           32311     397.978E-03
           32312     410.351E-03
           32313     440.964E-03
           32314     390.684E-03
           32315     391.944E-03
           32316     446.716E-03
           32317     382.882E-03
           32318     356.887E-03
           32319     496.810E-03
           32320     447.285E-03
           32321     614.592E-03
           32322     458.647E-03
           32323     511.083E-03
           32324         1.66826
           32325         1.57850
           32326         1.53597
           32327         1.61881
           32328         1.50224
           32329         1.53896
           32330         1.35691
           32331         1.24812
           32332         1.10902
           32333         1.37907
           32334         1.27515
           32335         1.39320
           32336         2.18559
           32337         1.79242
           32338         2.16832
           32339         1.90536
           32340         3.73060
           32341         1.63479
           32342         1.72068
           32343         1.76304
           32344         2.80442
           32345         1.48768
           32346         1.72900
           32347         2.01674
           32348         1.83315
           32349         1.72433
           32350         2.55484
           32351         2.75472
           32352         4.44313
           32353         4.43385
           32354         4.36502
           32355         4.43663
           32356         4.43959
           32357         4.46856
           32358         2.43990
           32359         2.41489
           32360         2.42135
           32361         2.44028
           32362         4.25832
           32363         4.24538
           32364         4.29046
           32365         4.30966
           32366         4.14586
           32367         4.25122
           32368         4.19242
           32369         8.16485
           32370         8.35817
           32371         8.19467
           32372         8.05449
           32373         7.86409
           32374         8.02129
           32375         8.36596
           32376         8.56354
           32377         8.19335
           32378         8.43451
           32379         8.23786
           32380         8.60631
           32381         7.69700
           32382         7.90579
           32383         7.80415
           32384         7.89849
           32385         8.60953
           32386         8.24150
           32387         8.43870
           32388         8.56446
           32389         5.81365
           32390         5.83154
           32391         5.89867
           32392         5.89931
           32393         5.88191
           32394         5.81565
           32395         5.70523
           32396         5.77255
           32397         5.78876
           32398         6.28587
           32399         6.22277
           32400         6.10534
           32401         6.08946
           32402         6.15114
           32403         6.26903
           32404         6.19068
           32405         6.06261
           32406         6.00587
           32407         6.02306
           32408         6.20784
           32409         5.64605
           32410         5.75307
           32411         5.83248
           32412         5.96210
           32413         5.85028
           32414         4.87368
           32415         4.62321
           32416         4.70610
           32417         4.62321
           32418         4.87563
           32419         4.78932
           32420         4.62312
           32421         4.87656
           32422         4.81045
           32423         4.61458
           32424         4.86569
           32425         4.78070
           32426         7.01454
           32427         7.36420
           32428         7.13451
           32429         7.50166
           32430         7.13507
           32431         7.36356
           32432         6.87313
           32433         6.93112
           32434         6.72263
           32435         6.60922
           32436         6.74644
           32437         6.61434
           32438         7.15234
           32439         6.80431
           32440         7.03334
           32441         6.55243
           32442         6.36817
           32443         6.57008
           32444         6.59157
           32445         6.57618
           32446         7.01760
           32447         6.78951
           32448         7.13663
           32449         1.72354
           32450         1.90596
           32451         1.82550
           32452         1.96431
           32453         1.78760
           32454         1.85913
           32455         1.74370
           32456         1.68022
           32457         1.76578
           32458         1.88215
           32459         1.65290
           32460         1.55764
           32461         1.69051
           32462         2.00558
           32463         1.63707
           32464         1.39178
           32465         1.40102
           32466         1.31710
           32467         1.54603
           32468         1.81267
           32469         1.81561
           32470         1.98708
           32471         1.78639
           32472         1.77926
           32473         1.29969
           32474         1.15154
           32475         1.38356
           32476         2.55219
           32477         2.55394
           32478         2.52939
           32479         2.54482
           32480         2.54324
           32481         2.52888
           32482         2.52038
           32483         2.51661
           32484         2.49897
           32485         2.50890
           32486         2.51124
           32487         2.55340
           32488         2.53227
           32489         4.20147
           32490         4.23041
           32491         4.09067
           32492         4.39778
           32493         4.46204
           32494         4.38900
           32495         4.39887
           32496         4.38057
           32497         4.51723
           32498         4.53773
           32499         4.45513
           32500         4.21298
           32501         4.29906
           32502         4.16680
           32503     19.6264E-03
           32504     21.8049E-03
           32505     21.5727E-03
           32506     21.6230E-03
           32507     22.6488E-03
           32508     19.2227E-03
           32509     21.5539E-03
           32510     19.6365E-03
           32511     21.1511E-03
           32512     21.6540E-03
           32513     33.2167E-03
           32514         4.55804
           32515         4.51927
           32516         4.44314
           32517         4.51674
           32518         4.26428
           32519         4.12943
           32520         4.25719
           32521         4.11411
           32522         4.25249
           32523         4.12115
           32524         4.11599
           32525         4.24425
           32526         4.25027
           32527         4.39493
           32528         4.26994
           32529         4.27364
           32530         4.39771
           32531         4.26692
           32532         4.29868
           32533         4.42127
           32534         4.43207
           32535         2.53815
           32536         2.57544
           32537         2.55434
           32538         2.55739
           32539         2.52094
           32540         2.54105
           32541         2.46848
           32542         2.49630
           32543         2.46006
           32544         2.48365
           32545         2.44511
           32546         2.45621
           32547         2.47939
           32548         2.51668
           32549         2.49856
           32550         2.49304
           32551         2.50938
           32552         2.49402
           32553         2.50834
           32554         2.49217
           32555         2.50769
           32556         2.46465
           32557         2.45027
           32558         2.46780
           32559         2.46879
           32560         2.49737
           32561         2.49659
           32562         1.91212
           32563         2.00904
           32564         2.13278
           32565         2.18842
           32566         2.09116
           32567         2.49578
           32568         2.48013
           32569         2.47266
           32570         2.46897
           32571         2.45669
           32572         2.46828
           32573         2.20009
           32574         2.08180
           32575         2.01260
           32576         2.00563
           32577         2.02850
           32578         2.07251
           32579         4.14772
           32580         4.02017
           32581         4.00334
           32582         3.98744
           32583         4.00359
           32584         4.43333
           32585         4.41847
           32586         4.40926
           32587         4.26440
           32588         4.27981
           32589         4.28898
           32590     245.955E-03
           32591     197.369E-03
           32592     161.778E-03
           32593     218.795E-03
           32594         4.15007
           32595         4.29583
           32596         4.30563
           32597         3.97891
           32598         3.84912
           32599         4.02235
           32600         3.99736
           32601         2.36748
           32602         2.25705
           32603         2.28884
           32604         2.25037
           32605         2.28377
           32606         2.18391
           32607         2.09435
           32608         2.13431
           32609         2.09645
           32610         2.18417
           32611         2.14328
           32612         2.14692
           32613         2.18377
           32614         2.09425
           32615         2.14231
           32616         2.18305
           32617         2.09552
           32618         2.27347
           32619         2.20757
           32620         2.26482
           32621         2.31455
           32622         2.33389
           32623         2.33806
           32624         2.30411
           32625         2.28470
           32626         2.28674
           32627         2.40665
           32628         2.48956
           32629         2.40068
           32630         2.48947
           32631         2.40649
           32632         2.49995
           32633         2.41619
           32634         2.33484
           32635         2.42162
           32636         2.41949
           32637         2.42516
           32638         2.43642
           32639         2.41993
           32640         2.42507
           32641         2.40829
           32642         2.38692
           32643         2.39608
           32644         2.42409
           32645         2.39339
           32646         2.38436
           32647         2.35737
           32648         2.43246
           32649         2.40546
           32650         2.43781
           32651         2.44791
           32652         2.47483
           32653         2.43252
           32654         2.44366
           32655         2.40451
           32656         2.49938
           32657         2.46779
           32658         2.48459
           32659         2.00870
           32660         1.72790
           32661         1.93946
           32662         1.74857
           32663         2.02912
           32664         1.81550
           32665         2.27250
           32666         2.33130
           32667         2.23677
           32668         2.49031
           32669         2.42390
           32670         2.52976
           32671         2.35337
           32672         2.42823
           32673         2.14433
           32674         2.06450
           32675         2.26140
           32676         2.21992
           32677         2.12718
           32678         1.95559
           32679         1.97425
           32680         2.05842
           32681         1.99448
           32682         2.20007
           32683         1.98114
           32684     845.849E-03
           32685     840.268E-03
           32686     753.422E-03
           32687     673.284E-03
           32688     679.158E-03
           32689     764.419E-03
           32690         1.88642
           32691         1.90439
           32692         2.22438
           32693         1.88394
           32694         2.49617
           32695         2.81235
           32696         2.65272
           32697         2.97392
           32698         2.64331
           32699         2.80990
           32700         3.49897
           32701         3.17078
           32702         3.37140
           32703         3.17410
           32704         3.52075
           32705         2.34638
           32706         2.64748
           32707         2.53555
           32708         2.85474
           32709         2.53963
           32710         3.46588
           32711         3.06910
           32712         3.12356
           32713         5.45934
           32714         5.49749
           32715         5.37241
           32716         5.49675
           32717         5.45911
           32718         5.58573
           32719         2.64360
           32720         2.77680
           32721         2.96482
           32722         2.92886
           32723         2.61472
           32724         2.59379
           32725         2.60351
           32726         2.59765
           32727         2.61953
           32728         2.57136
           32729         2.56464
           32730         2.58016
           32731         2.57652
           32732         2.56593
           32733         2.57319
           32734         2.58163
           32735         2.62353
           32736         2.60022
           32737         2.59616
           32738         2.58986
           32739         2.64467
           32740         2.63477
           32741         2.64472
           32742         2.63858
           32743         2.64774
           32744         2.61272
           32745         2.62280
           32746         5.68531
           32747         5.77271
           32748         5.66263
           32749         5.72208
           32750         5.63467
           32751         5.74611
           32752         5.71931
           32753         5.63117
           32754         5.64312
           32755         5.59316
           32756         5.67931
           32757         2.61776
           32758         2.62106
           32759         2.61877
           32760         2.61988
           32761         2.61720
           32762         2.61645
           32763         2.61415
           32764         2.61463
           32765         2.61532
           32766         2.61511
           32767         2.61256
           32768         2.61460
           32769         2.61758
           32770         2.61585
           32771         2.60895
           32772         2.62123
           32773         2.61997
           32774         2.61819
           32775         2.61215
           32776         2.61336
           32777         2.63466
           32778         2.63851
           32779         2.63631
           32780         2.63088
           32781         2.63289
           32782         2.64190
           32783         2.63787
           32784         2.63600
           32785         2.64207
           32786         2.63880
           32787         2.64165
           32788         2.63631
           32789         2.63918
           32790         2.64534
           32791         2.64175
           32792         2.63873
           32793         2.63118
           32794         2.62755
           32795         2.62489
           32796         2.62931
           32797         2.60948
           32798         2.60605
           32799         2.61581
           32800         2.60539
           32801         2.60880
           32802         2.59969
           32803         2.63193
           32804         2.64464
           32805         2.64823
           32806         2.64693
           32807         2.64335
           32808         2.64959
           32809     300.379E-03
           32810     480.757E-03
           32811         2.57609
           32812         2.58171
           32813         2.57704
           32814         2.57705
           32815         2.57632
           32816         2.56951
           32817         2.57291
           32818         2.57284
           32819         2.57909
           32820         2.59135
           32821         2.59163
           32822         2.58932
           32823         2.58714
           32824         2.58699
           32825         2.58889
           32826         2.56616
           32827         2.56840
           32828         2.58434
           32829         2.58221
           32830         2.57825
           32831         2.58126
           32832         2.58470
           32833         2.58715
           32834         2.58542
           32835         2.58772
           32836         2.58818
           32837         2.57521
           32838         2.59244
           32839         2.58877
           32840         2.59157
           32841         2.58431
           32842         2.59113
           32843         2.58867
           32844         2.58556
           32845         2.58170
           32846         2.57797
           32847         2.65925
           32848         2.66872
           32849         2.66932
           32850         2.65982
           32851         2.67191
           32852         2.63652
           32853         2.63662
           32854         2.64832
           32855         2.63774
           32856         2.63748
           32857         2.62673
           32858         2.63803
           32859         2.63187
           32860         2.64172
           32861         2.64936
           32862         2.65766
           32863         2.65834
           32864         2.66122
           32865         2.66843
           32866         2.65064
           32867         2.66231
           32868         2.65086
           32869         2.65308
           32870         2.62506
           32871         2.63555
           32872         2.63479
           32873         2.63561
           32874         4.94698
           32875         5.05711
           32876         5.03719
           32877         5.17922
           32878         5.05727
           32879         5.07539
           32880         4.92583
           32881         4.85313
           32882         4.85097
           32883         4.93564
           32884         5.01551
           32885         5.01885
           32886         5.03103
           32887         5.02951
           32888         4.93353
           32889         4.85610
           32890         4.72701
           32891         4.79915
           32892         4.80356
           32893         1.82854
           32894         1.85668
           32895         1.81495
           32896         1.77369
           32897         1.81564
           32898         1.79557
           32899         1.83440
           32900         1.82505
           32901         1.86436
           32902         1.83448
           32903     40.0360E-03
           32904     22.8657E-03
           32905     26.6619E-03
           32906     35.4565E-03
           32907     28.3566E-03
           32908     27.0911E-03
           32909         1.77677
           32910         1.80821
           32911         1.87592
           32912         1.84592
           32913         1.83728
           32914         1.75928
           32915         1.68736
           32916         1.71565
           32917         1.63654
           32918         1.70963
           32919         1.68007
           32920         2.61633
           32921         2.60704
           32922         2.57844
           32923         2.51970
           32924         2.53303
           32925         2.55704
           32926         2.48708
           32927         2.50431
           32928         2.49113
           32929         2.55012
           32930         2.54570
           32931         2.56870
           32932         2.52378
           32933         2.55928
           32934         2.60237
           32935         2.58064
           32936         2.53716
           32937         2.57832
           32938         2.53472
           32939     186.712E-03
           32940     133.450E-03
           32941     134.398E-03
           32942     103.504E-03
           32943     156.457E-03
           32944     153.627E-03
           32945         2.33157
           32946         2.33136
           32947         2.29365
           32948     849.919E-03
           32949     792.197E-03
           32950     839.749E-03
           32951     841.681E-03
           32952     895.729E-03
           32953     847.473E-03
           32954     853.278E-03
           32955     832.450E-03
           32956     877.764E-03
           32957     915.247E-03
           32958     932.572E-03
           32959     887.065E-03
           32960     898.781E-03
           32961     844.810E-03
           32962     795.482E-03
           32963     853.851E-03
           32964         2.45857
           32965         2.46257
           32966         2.45634
           32967         2.42118
           32968         2.42809
           32969         2.49715
           32970         2.50544
           32971         2.46883
           32972         2.49304
           32973         2.48410
           32974         2.44955
           32975         2.43235
           32976         2.42785
           32977         2.45666
           32978         2.44389
           32979         2.44729
           32980         2.48471
           32981         2.48486
           32982         2.46742
           32983         2.48137
           32984         2.46622
           32985         2.48525
           32986         2.48491
           32987         2.47924
           32988         1.01709
           32989     988.152E-03
           32990     904.003E-03
           32991     907.896E-03
           32992     935.932E-03
           32993         1.02094
           32994     872.817E-03
           32995     856.220E-03
           32996     916.921E-03
           32997     961.419E-03
           32998     975.332E-03
           32999     914.139E-03
           33000     745.501E-03
           33001     795.457E-03
           33002         1.17819
           33003         1.04569
           33004     938.774E-03
           33005     622.871E-03
           33006         1.07025
           33007         1.21948
           33008         1.07354
           33009         1.11788
           33010     977.345E-03
           33011     963.499E-03
           33012     831.151E-03
           33013     845.990E-03
           33014     890.280E-03
           33015         1.12018
           33016         1.06282
           33017         1.15947
           33018     110.351E-03
           33019     210.060E-03
           33020     177.114E-03
           33021     52.0310E-03
           33022     134.287E-03
           33023     62.8600E-03
           33024     79.3374E-03
           33025     42.0896E-03
           33026     37.9868E-03
           33027     40.9489E-03
           33028     38.1287E-03
           33029     42.7319E-03
           33030     61.8622E-03
           33031     50.3270E-03
           33032     33.8738E-03
           33033     47.9036E-03
           33034     43.9544E-03
           33035     33.2468E-03
           33036     22.5987E-03
           33037     36.4834E-03
           33038     63.5826E-03
           33039     79.1987E-03
           33040     59.6808E-03
           33041     78.6693E-03
           33042     114.687E-03
           33043     25.6431E-03
           33044     20.0186E-03
           33045     36.0735E-03
           33046     31.6463E-03
           33047         4.73808
           33048         4.83297
           33049         4.73587
           33050         4.58202
           33051         4.48297
           33052         4.58427
           33053         4.63382
           33054         4.45246
           33055         4.45536
           33056         4.35907
           33057         4.53982
           33058         4.53549
           33059         4.52321
           33060         4.51961
           33061         4.73098
           33062         4.73072
           33063         4.61888
           33064         4.74320
           33065         4.83989
           33066         4.55148
           33067         4.44961
           33068         4.55647
           33069         6.42610
           33070         6.30504
           33071         6.29801
           33072         6.28826
           33073         6.40362
           33074         6.40535
           33075         6.44272
           33076         6.33798
           33077         6.31170
           33078         6.14961
           33079         6.26212
           33080         6.28784
           33081         6.25641
           33082         6.36570
           33083         6.21430
           33084         6.15986
           33085         6.30581
           33086         6.33243
           33087         6.25364
           33088         6.19911
           33089         6.26204
           33090         5.91065
           33091         5.98719
           33092         5.98135
           33093         5.98363
           33094         5.98909
           33095         5.98181
           33096         5.91257
           33097         5.78620
           33098         6.00166
           33099         5.88836
           33100         5.80522
           33101         6.01227
           33102         5.89837
           33103         5.97366
           33104         6.09596
           33105         5.73609
           33106         5.81570
           33107         3.20458
           33108         3.18239
           33109         3.13332
           33110         3.22145
           33111         3.24363
           33112         3.29762
           33113         3.39617
           33114         3.45353
           33115         3.37798
           33116         3.41728
           33117         3.36088
           33118         3.43596
           33119         3.36741
           33120         3.42945
           33121         3.49832
           33122         3.40525
           33123         3.43406
           33124         3.38776
           33125         3.32638
           33126         3.29920
           33127         3.34667
           33128         3.24870
           33129         3.28675
           33130         3.31616
           33131         3.36928
           33132         3.32918
           33133         3.36223
           33134         3.32465
           33135         3.97949
           33136         4.08626
           33137         4.08714
           33138         4.11088
           33139         4.00280
           33140         4.00129
           33141         3.90929
           33142         3.79249
           33143         3.85993
           33144         3.76133
           33145         3.87720
           33146         3.80932
           33147         3.93340
           33148         3.84388
           33149         3.88831
           33150         3.81998
           33151         3.86441
           33152         4.12070
           33153         4.23298
           33154         4.16674
           33155         4.05726
           33156         4.20103
           33157         3.89938
           33158         3.93138
           33159         3.77168
           33160         3.85965
           33161         3.79192
           33162         3.74427
           33163         3.97882
           33164         4.01223
           33165         4.01339
           33166         4.15475
           33167         4.11914
           33168         4.02592
           33169         4.05976
           33170         3.96675
           33171         3.97882
           33172         3.87728
           33173         3.91423
           33174         4.04789
           33175         4.01370
           33176         3.75349
           33177         3.59118
           33178         3.60870
           33179         3.64561
           33180         3.77450
           33181         3.71572
           33182         3.50734
           33183         3.51160
           33184         3.32895
           33185         3.62131
           33186         3.75655
           33187         3.35152
           33188         3.50768
           33189         3.48354
           33190         3.78334
           33191         3.84910
           33192         3.83821
           33193         4.01906
           33194         3.77697
           33195         2.58684
           33196         2.57829
           33197         2.58262
           33198         2.57558
           33199         2.58390
           33200         2.57992
           33201         2.06415
           33202         2.33234
           33203         2.23255
           33204         2.58999
           33205         2.58144
           33206         2.58588
           33207         2.57745
           33208         2.58566
           33209         2.57877
           33210         2.59932
           33211         2.60377
           33212         2.59564
           33213         2.59291
           33214         2.58837
           33215         2.59637
           33216         2.58360
           33217         2.58619
           33218         2.58279
           33219         2.58865
           33220         2.58090
           33221         2.57831
           33222         2.58159
           33223         2.59322
           33224         2.57985
           33225         2.58722
           33226         5.40820
           33227         5.45957
           33228         5.35310
           33229         5.63119
           33230         5.55243
           33231         5.66830
           33232         5.49511
           33233         5.57465
           33234         5.49810
           33235         5.67124
           33236         5.62306
           33237         5.45140
           33238         5.56901
           33239         4.29932
           33240         4.34527
           33241         4.24086
           33242         4.29927
           33243         4.25342
           33244         4.35761
           33245         4.01000
           33246         3.89965
           33247         3.99253
           33248         3.99308
           33249         4.10785
           33250         4.01097
           33251         3.88350
           33252         3.99293
           33253         3.98362
           33254         4.09772
           33255         3.98315
           33256         3.87835
           33257         4.00777
           33258         4.10464
           33259         3.96750
           33260         3.86238
           33261         3.99160
           33262     157.317E-03
           33263     189.707E-03
           33264     226.540E-03
           33265     206.532E-03
           33266     192.611E-03
           33267     223.512E-03
           33268     254.566E-03
           33269     241.669E-03
           33270     304.161E-03
           33271     271.041E-03
           33272     284.264E-03
           33273     247.637E-03
           33274     229.445E-03
           33275     217.265E-03
           33276     168.635E-03
           33277     176.969E-03
           33278     209.404E-03
           33279     149.217E-03
           33280     191.346E-03
           33281     157.842E-03
           33282     160.312E-03
           33283     180.106E-03
           33284     146.790E-03
           33285     172.695E-03
           33286     193.108E-03
           33287     160.996E-03
           33288         6.52869
           33289         6.51273
           33290         6.42486
           33291         6.28611
           33292         6.37208
           33293         6.72304
           33294         6.63196
           33295         6.61568
           33296         6.52687
           33297         6.54278
           33298         6.40419
           33299         6.30289
           33300         6.57879
           33301         6.62568
           33302         6.73345
           33303         6.68616
           33304         6.82564
           33305         6.51222
           33306         6.59353
           33307         6.64097
           33308         6.39125
           33309         6.47785
           33310     44.8236E-03
           33311     45.9522E-03
           33312     43.9941E-03
           33313     42.8227E-03
           33314     39.5118E-03
           33315     42.5106E-03
           33316         3.57973
           33317         4.06397
           33318         4.28710
           33319         4.24665
           33320         3.78866
           33321         3.54074
           33322         5.21541
           33323         5.32497
           33324         5.29959
           33325         5.41106
           33326         5.29976
           33327         5.32567
           33328         3.85854
           33329         3.61182
           33330         3.21158
           33331         3.46485
           33332         3.50588
           33333         3.67632
           33334         3.80184
           33335         3.97485
           33336         4.11339
           33337         3.97979
           33338         3.81544
           33339         2.64988
           33340         2.65085
           33341         2.64777
           33342         2.65230
           33343         2.65125
           33344         2.65503
           33345         2.65016
           33346         2.64559
           33347         2.64881
           33348     139.567E-03
           33349     218.346E-03
           33350     164.620E-03
           33351     217.933E-03
           33352     140.346E-03
           33353         2.63811
           33354         2.64077
           33355         2.64251
           33356         2.64346
           33357         2.64041
           33358         2.63863
           33359         2.64019
           33360         2.63906
           33361         2.64411
           33362         2.64320
           33363         2.53794
           33364         2.52581
           33365         2.53252
           33366         2.52313
           33367         2.53638
           33368         2.52878
           33369         2.53481
           33370         2.53081
           33371         2.56814
           33372         2.56796
           33373         2.56004
           33374         2.57223
           33375         2.57248
           33376         2.58047
           33377         2.57148
           33378         2.57805
           33379         2.56499
           33380         2.56528
           33381         2.55948
           33382         2.57170
           33383         2.53152
           33384         2.54214
           33385         2.53595
           33386         2.53833
           33387         2.52617
           33388         2.55339
           33389         2.55206
           33390         2.54372
           33391         2.55011
           33392         1.24369
           33393         1.28940
           33394         1.42309
           33395         1.33418
           33396         1.29065
           33397         1.15584
           33398         1.14919
           33399         1.07363
           33400         1.01889
           33401     902.963E-03
           33402     976.020E-03
           33403         1.03043
           33404         2.74979
           33405         2.75198
           33406         2.75494
           33407         2.74080
           33408         2.73858
           33409         2.73580
           33410         2.71192
           33411         2.70053
           33412         2.71241
           33413         2.70749
           33414         2.71943
           33415         2.70745
           33416         2.74404
           33417         2.74210
           33418         2.72416
           33419         2.73967
           33420         2.76018
           33421         2.73071
           33422         2.73176
           33423         2.72250
           33424         2.71565
           33425         2.71525
           33426         2.75928
           33427         2.74630
           33428         2.75041
           33429         1.31926
           33430         1.18846
           33431     930.290E-03
           33432         1.00184
           33433         1.23973
           33434     827.739E-03
           33435     793.071E-03
           33436         1.06443
           33437     799.367E-03
           33438     821.029E-03
           33439         1.01669
           33440         1.02727
           33441         1.40085
           33442     921.356E-03
           33443         1.25164
           33444         3.58067
           33445         3.73060
           33446         3.31232
           33447         3.53545
           33448         3.55122
           33449         3.67816
           33450         3.75768
           33451         2.68166
           33452         2.36502
           33453         2.51949
           33454         6.67146
           33455         6.56894
           33456         6.71770
           33457         6.68095
           33458         6.98804
           33459         6.84128
           33460         6.59530
           33461         6.32797
           33462         2.31782
           33463         2.25433
           33464         2.26301
           33465         2.25066
           33466         2.31397
           33467         2.30640
           33468         2.32810
           33469         2.27560
           33470         2.27219
           33471         2.28325
           33472         2.33620
           33473         2.33961
           33474         2.21444
           33475         2.26614
           33476         2.84965
           33477         2.85676
           33478         2.87088
           33479         2.87488
           33480         2.86561
           33481         2.85103
           33482         2.91544
           33483         2.94563
           33484         2.96325
           33485         2.93276
           33486         2.93092
           33487         2.97459
           33488         2.95788
           33489         2.88958
           33490         2.89878
           33491         2.91057
           33492         2.89190
           33493         2.88356
           33494         2.85924
           33495         2.87811
           33496         2.90932
           33497         2.88410
           33498         2.88953
           33499     41.0532E-03
           33500     45.7196E-03
           33501     38.8258E-03
           33502     40.8064E-03
           33503     44.0116E-03
           33504         2.17015
           33505         2.14635
           33506         2.18896
           33507         2.20028
           33508         2.22266
           33509         2.18111
           33510         2.60295
           33511         2.59267
           33512         2.60014
           33513         2.59707
           33514         2.60649
           33515         2.59940
           33516         2.61160
           33517         2.61579
           33518         2.61497
           33519         2.61953
           33520         2.61492
           33521         2.61581
           33522         2.61877
           33523         2.62406
           33524         2.62044
           33525         2.61467
           33526         2.62458
           33527         2.60633
           33528         2.60846
           33529         2.61293
           33530         2.61866
           33531         2.61033
           33532         2.62300
           33533         2.61326
           33534         2.61878
           33535         2.62397
           33536         2.16065
           33537         2.12431
           33538         2.14623
           33539         2.23092
           33540         2.24558
           33541         2.21447
           33542         2.21422
           33543         2.23021
           33544         2.19792
           33545         2.18574
           33546         2.21603
           33547         2.19939
           33548         2.21374
           33549         2.24680
           33550         2.25975
           33551         2.27673
           33552         2.24594
           33553         2.26228
           33554         2.18181
           33555         2.19829
           33556         2.21452
           33557         2.18422
           33558         2.27644
           33559         2.27527
           33560         2.24627
           33561         2.26146
           33562         4.00341
           33563         3.85267
           33564         3.95393
           33565         3.93295
           33566         4.08755
           33567         3.98252
           33568         3.97275
           33569         3.82357
           33570         3.87130
           33571         4.10389
           33572         4.16517
           33573         4.17008
           33574         4.26707
           33575         4.20525
           33576         4.19873
           33577         4.06397
           33578         3.91013
           33579         3.92893
           33580         2.57714
           33581         2.58106
           33582         2.57229
           33583         2.57210
           33584         2.56825
           33585         2.57675
           33586         2.58853
           33587         2.59544
           33588         2.58901
           33589         1.71749
           33590         1.52698
           33591         1.76066
           33592         1.63302
           33593         1.82645
           33594         1.59306
           33595         2.58284
           33596         2.58852
           33597         2.58628
           33598         1.45232
           33599         1.50909
           33600         1.42866
           33601         1.47377
           33602         1.41610
           33603         1.49711
           33604         1.44226
           33605         1.38357
           33606         1.42767
           33607         1.41719
           33608         1.45880
           33609         1.41190
           33610         1.43530
           33611         1.38211
           33612         1.42918
           33613         1.38352
           33614         1.44202
           33615         1.47482
           33616         1.42822
           33617         1.35092
           33618         1.58169
           33619         1.50493
           33620         1.75099
           33621         1.59046
           33622         1.16372
           33623         1.23225
           33624         1.07882
           33625         1.00960
           33626     883.889E-03
           33627         2.45944
           33628         2.45972
           33629         2.38042
           33630     484.402E-03
           33631     352.077E-03
           33632     397.268E-03
           33633     439.334E-03
           33634     393.476E-03
           33635     627.783E-03
           33636     763.288E-03
           33637     662.876E-03
           33638     713.855E-03
           33639     577.671E-03
           33640     677.556E-03
           33641     457.618E-03
           33642     363.206E-03
           33643     496.029E-03
           33644     424.558E-03
           33645     277.546E-03
           33646     410.362E-03
           33647     375.279E-03
           33648     253.454E-03
           33649     258.753E-03
           33650     279.873E-03
           33651     376.801E-03
           33652     348.296E-03
           33653     320.049E-03
           33654     353.607E-03
           33655     383.118E-03
           33656     411.501E-03
           33657     293.255E-03
           33658     290.754E-03
           33659     320.059E-03
           33660     264.212E-03
           33661     234.509E-03
           33662     191.289E-03
           33663     171.295E-03
           33664     139.977E-03
           33665     52.9004E-03
           33666     64.3985E-03
           33667     94.8139E-03
           33668     405.060E-03
           33669     376.853E-03
           33670     347.490E-03
           33671     348.434E-03
           33672         5.43173
           33673         5.46715
           33674         5.45114
           33675         5.46782
           33676         5.42925
           33677         5.44402
           33678         5.35413
           33679         5.38027
           33680         5.40447
           33681         5.36857
           33682         5.37852
           33683         5.43163
           33684         5.40749
           33685         5.42303
           33686         5.40574
           33687         5.40434
           33688         5.39429
           33689         1.16493
           33690         1.14077
           33691         1.19040
           33692         1.10435
           33693         1.13022
           33694         1.07886
           33695         1.25699
           33696         1.33648
           33697         1.29463
           33698         1.36233
           33699         1.28325
           33700         1.32376
           33701         1.27718
           33702         1.35652
           33703         1.33087
           33704         1.25132
           33705         1.31211
           33706         1.14605
           33707         1.14534
           33708         1.21384
           33709         1.20444
           33710         1.20570
           33711         1.13711
           33712         1.22648
           33713         1.29288
           33714         1.23260
           33715         5.75150
           33716         5.68684
           33717         5.70002
           33718         5.64665
           33719         5.69295
           33720         5.80121
           33721         5.78978
           33722         5.74097
           33723         5.70330
           33724         5.74196
           33725         5.72661
           33726         5.79144
           33727         5.93358
           33728         5.93743
           33729         5.90922
           33730         5.74747
           33731         5.75203
           33732         5.79535
           33733         5.79242
           33734         5.86911
           33735         2.21400
           33736         2.23271
           33737         2.20556
           33738         2.21563
           33739         2.19686
           33740         2.22536
           33741         2.19426
           33742         2.22334
           33743         2.20713
           33744         2.19151
           33745         2.16362
           33746         2.18409
           33747         2.18152
           33748         2.18205
           33749         2.15834
           33750     81.3110E-03
           33751     62.7943E-03
           33752     43.6043E-03
           33753     44.2480E-03
           33754     46.3705E-03
           33755         2.22173
           33756         2.21698
           33757         5.76103
           33758         5.65364
           33759         5.78190
           33760         5.83455
           33761         5.94438
           33762         5.81451
           33763         5.99664
           33764         5.88580
           33765         5.71164
           33766         5.81878
           33767         5.92419
           33768         5.63661
           33769         5.70651
           33770         5.61468
           33771         5.79668
           33772         5.72711
           33773     532.925E-03
           33774     629.340E-03
           33775     593.245E-03
           33776     497.672E-03
           33777         5.96217
           33778         5.96342
           33779         5.89150
           33780         5.82477
           33781         5.82453
           33782         5.89588
           33783         5.73148
           33784         5.79489
           33785         5.73080
           33786         5.70274
           33787         1.18264
           33788         1.11754
           33789         1.17255
           33790         1.14555
           33791         1.06934
           33792         1.05972
           33793     989.019E-03
           33794         1.01433
           33795         1.02294
           33796         1.09363
           33797         1.07099
           33798     992.704E-03
           33799         1.06415
           33800         1.07449
           33801     980.630E-03
           33802         1.02591
           33803         1.15785
           33804         1.17484
           33805         1.11014
           33806         1.11564
           33807     993.988E-03
           33808         1.04319
           33809     25.5487E-03
           33810     31.1740E-03
           33811     40.7183E-03
           33812     31.3405E-03
           33813     23.7208E-03
           33814     11.4941E-03
           33815     66.8703E-03
           33816     52.8014E-03
           33817     42.0449E-03
           33818     27.4934E-03
           33819     25.5124E-03
           33820     28.0038E-03
           33821     28.2222E-03
           33822     41.1200E-03
           33823     24.2350E-03
           33824     31.4946E-03
           33825     35.4405E-03
           33826     21.2738E-03
           33827     36.1727E-03
           33828     34.7338E-03
           33829     28.8485E-03
           33830     29.2930E-03
           33831     50.8325E-03
           33832     73.6978E-03
           33833     87.8856E-03
           33834     32.6538E-03
           33835     808.940E-03
           33836     833.874E-03
           33837     808.746E-03
           33838     875.690E-03
           33839     900.950E-03
           33840     996.750E-03
           33841         1.05488
           33842         1.07684
           33843         1.01955
           33844         1.04596
           33845     851.633E-03
           33846     837.437E-03
           33847     790.859E-03
           33848         5.61028
           33849         5.67670
           33850         5.65896
           33851         5.67679
           33852         5.60778
           33853         5.62643
           33854         5.65109
           33855         5.63477
           33856         5.70023
           33857         5.62096
           33858         5.68860
           33859         5.70853
           33860         5.63983
           33861         5.66956
           33862     40.2624E-03
           33863     33.4346E-03
           33864     27.6216E-03
           33865     39.4681E-03
           33866         2.30938
           33867         2.25466
           33868         2.30044
           33869         2.31118
           33870         2.37097
           33871         2.32132
           33872         2.36261
           33873         2.33722
           33874         2.33104
           33875         2.36359
           33876         2.39036
           33877         2.39501
           33878         2.37689
           33879         2.43643
           33880         2.41643
           33881         2.45730
           33882         2.39432
           33883         2.41441
           33884         2.32360
           33885         2.32986
           33886         2.38197
           33887         2.34322
           33888         2.58878
           33889         2.58731
           33890         2.59292
           33891         2.59118
           33892         2.59496
           33893         2.59287
           33894         2.59725
           33895         2.59211
           33896         1.91158
           33897         2.03819
           33898         1.89369
           33899         1.81631
           33900         1.92411
           33901         1.98448
           33902         1.87450
           33903         1.78144
           33904         1.92757
           33905         1.78454
           33906         1.94321
           33907         2.04756
           33908         2.15544
           33909         1.95148
           33910         1.70857
           33911         1.81010
           33912         5.66552
           33913         5.68329
           33914         5.66282
           33915         5.62756
           33916         5.61065
           33917         5.63020
           33918         5.57279
           33919         5.52021
           33920         5.51890
           33921         5.49902
           33922         5.55234
           33923         5.52363
           33924         5.57575
           33925         5.48223
           33926         5.53467
           33927         5.53917
           33928     46.5140E-03
           33929     46.9654E-03
           33930         5.62744
           33931         5.67973
           33932         5.62892
           33933         5.62833
           33934         5.53257
           33935         5.53135
           33936         5.47878
           33937         2.74659
           33938         2.75390
           33939         2.81544
           33940         2.81240
           33941         2.80439
           33942         2.74212
           33943         2.77924
           33944         2.76748
           33945         2.72487
           33946         2.70619
           33947         2.71859
           33948         2.63557
           33949         2.64274
           33950         2.82318
           33951         2.78926
           33952         2.83501
           33953         2.79624
           33954         2.85336
           33955         2.77747
           33956         2.78450
           33957         2.68692
           33958         2.77144
           33959         2.75737
           33960         3.04993
           33961         3.01772
           33962         3.06606
           33963         3.04515
           33964         3.07972
           33965         3.02918
           33966         3.08728
           33967         3.05303
           33968         3.04662
           33969         3.08087
           33970         3.06739
           33971         3.13275
           33972         3.14415
           33973         3.11238
           33974         3.14941
           33975         3.13726
           33976         3.17006
           33977         3.10536
           33978         3.13704
           33979         3.15538
           33980         3.12354
           33981         3.12796
           33982         6.40171
           33983         7.26643
           33984         5.48993
           33985         5.24708
           33986         4.88621
           33987         5.43383
           33988         8.76497
           33989         10.0943
           33990         8.98597
           33991         9.93735
           33992         8.88487
           33993         7.74248
           33994         8.49052
           33995         6.66094
           33996         5.29332
           33997         6.16027
           33998         6.01666
           33999         7.68706
           34000         6.60190
           34001         7.50715
           34002         9.13805
           34003         8.49486
           34004         6.38293
           34005         6.82308
           34006         8.04658
           34007         3.17867
           34008         3.27977
           34009         3.18522
           34010         3.22530
           34011         3.37242
           34012         3.31826
           34013         3.42085
           34014         3.16160
           34015         3.15542
           34016         3.08991
           34017         3.15361
           34018         3.15965
           34019         3.14643
           34020         3.08031
           34021         3.08240
           34022         3.08519
           34023         3.15859
           34024         3.18109
           34025         3.24283
           34026         3.16901
           34027         3.16675
           34028         3.16985
           34029         3.09476
           34030         3.34518
           34031         3.24275
           34032         3.26880
           34033         3.34517
           34034         1.18262
           34035         1.21356
           34036         1.13758
           34037         1.18057
           34038         1.14751
           34039         1.39801
           34040         1.42869
           34041         1.37729
           34042         1.43268
           34043         1.40288
           34044         1.45389
           34045         1.42567
           34046         1.39506
           34047         1.45101
           34048         1.35997
           34049         1.37974
           34050         1.21634
           34051         1.27234
           34052         1.23795
           34053         1.20339
           34054         1.35750
           34055         1.32672
           34056         1.37446
           34057         1.36885
           34058         1.34627
           34059         1.29479
           34060         1.32138
           34061         8.56404
           34062         9.06987
           34063         8.71871
           34064         9.07064
           34065         8.62903
           34066         8.92647
           34067         8.36391
           34068         8.86383
           34069         8.77748
           34070         9.23241
           34071         8.80661
           34072         8.73325
           34073         8.42833
           34074         8.89961
           34075         8.14367
           34076         8.21958
           34077         8.32091
           34078         7.96220
           34079         7.88798
           34080         7.79955
           34081         8.55952
           34082         7.52751
           34083         7.61011
           34084         7.78837
           34085         7.36464
           34086         7.50841
           34087         7.28177
           34088         7.43171
           34089         5.92039
           34090         5.85771
           34091         5.89918
           34092         5.96482
           34093         5.86168
           34094         6.24811
           34095         6.10504
           34096         6.16121
           34097         6.08558
           34098         6.11165
           34099         6.03234
           34100     28.6174E-03
           34101     36.6346E-03
           34102     40.7151E-03
           34103         6.04910
           34104         5.98673
           34105         7.89844
           34106         7.77571
           34107         7.59412
           34108         7.51674
           34109         7.63815
           34110         7.81963
           34111         7.59124
           34112         7.34502
           34113         7.46839
           34114         7.18975
           34115         7.43093
           34116         7.30743
           34117         7.78091
           34118         7.65228
           34119         7.66380
           34120         7.79276
           34121         7.85707
           34122         7.31057
           34123         7.54109
           34124         7.66352
           34125         7.37889
           34126         4.07913
           34127         3.98976
           34128         4.05235
           34129         4.13429
           34130         4.08299
           34131         4.17941
           34132         4.29261
           34133         4.23716
           34134         4.29887
           34135         4.18649
           34136         4.24049
           34137         4.03956
           34138         4.10906
           34139         4.05310
           34140         4.06590
           34141         4.04818
           34142     816.041E-03
           34143     733.164E-03
           34144     762.762E-03
           34145     769.687E-03
           34146     739.540E-03
           34147     61.9620E-03
           34148     58.9764E-03
           34149     42.1551E-03
           34150     45.3422E-03
           34151     47.2060E-03
           34152     77.2486E-03
           34153     769.010E-03
           34154     739.491E-03
           34155     894.294E-03
           34156     977.353E-03
           34157     925.019E-03
           34158     973.105E-03
           34159     889.828E-03
           34160     941.493E-03
           34161     891.145E-03
           34162     839.082E-03
           34163     923.577E-03
           34164     846.837E-03
           34165     875.217E-03
           34166     921.077E-03
           34167     858.942E-03
           34168     834.200E-03
           34169     851.500E-03
           34170     926.327E-03
           34171         2.23562
           34172         2.44196
           34173         2.33947
           34174         2.47895
           34175         2.27615
           34176         2.37538
           34177         2.17157
           34178         2.27052
           34179         2.23886
           34180         2.44477
           34181         2.41219
           34182         2.20288
           34183         2.30853
           34184         2.09196
           34185         2.16488
           34186         2.30584
           34187         2.19509
           34188         3.27060
           34189         3.28865
           34190         3.34222
           34191         3.28136
           34192         3.21064
           34193         3.21254
           34194         3.24436
           34195         3.18551
           34196         3.16319
           34197         3.19057
           34198         3.35739
           34199         3.44018
           34200         3.40473
           34201         3.42635
           34202         3.37808
           34203         3.40810
           34204         3.11673
           34205         3.26025
           34206         3.29650
           34207         3.32949
           34208         3.34607
           34209         2.46960
           34210         2.51919
           34211         2.50129
           34212         2.48757
           34213         2.43901
           34214         2.45522
           34215         2.44531
           34216         2.43015
           34217         2.41027
           34218         2.38831
           34219         2.42528
           34220         2.43926
           34221         2.41152
           34222         2.42424
           34223         2.38299
           34224         2.39692
           34225         2.47207
           34226         2.53304
           34227         2.51335
           34228         2.53360
           34229         2.47381
           34230         2.49237
           34231         2.42433
           34232         4.15917
           34233         4.31804
           34234         4.25224
           34235         4.39723
           34236         4.23926
           34237         4.30659
           34238         4.39096
           34239         4.23313
           34240         4.33994
           34241         4.20500
           34242         4.36034
           34243         3.90866
           34244         3.79213
           34245         3.98518
           34246         3.91871
           34247         4.03396
           34248         3.85245
           34249         4.30000
           34250         4.10355
           34251         4.17308
           34252         5.95744
           34253         5.86486
           34254         5.80658
           34255         5.82045
           34256         5.91151
           34257         5.97853
           34258         6.01256
           34259         6.08886
           34260         6.13473
           34261         6.05373
           34262         6.19065
           34263         5.93820
           34264         5.89576
           34265         5.85437
           34266         5.82455
           34267         5.85933
           34268         5.90397
           34269         5.72397
           34270         5.78026
           34271         5.82589
           34272         5.79421
           34273         5.75408
           34274         5.97225
           34275         6.05661
           34276         6.06263
           34277         5.94001
           34278         5.98196
           34279         6.10658
           34280     265.351E-03
           34281     224.878E-03
           34282     254.289E-03
           34283         2.65631
           34284         2.65911
           34285         2.65766
           34286         2.65465
           34287         2.65156
           34288         2.65430
           34289         2.65603
           34290         2.65162
           34291         5.95938
           34292         5.79576
           34293         5.73943
           34294         5.84085
           34295         5.82893
           34296         5.80216
           34297         5.86273
           34298         5.85715
           34299         5.91712
           34300         5.85800
           34301         5.85874
           34302         6.17141
           34303         6.31000
           34304         6.27199
           34305         6.40375
           34306         6.30184
           34307         6.26795
           34308         6.40626
           34309         6.31881
           34310         6.18028
           34311         6.31340
           34312         2.61899
           34313         2.60453
           34314         2.61736
           34315         2.58428
           34316         2.59195
           34317         2.58478
           34318         2.59105
           34319         2.57669
           34320         2.58620
           34321         2.57897
           34322         2.59145
           34323         2.59010
           34324         2.58483
           34325         5.85924
           34326         5.81227
           34327         5.87544
           34328         5.88970
           34329         5.95135
           34330         5.87991
           34331         5.83670
           34332         5.78985
           34333         5.82187
           34334         5.78681
           34335         5.90991
           34336         5.81451
           34337         5.83548
           34338         5.75660
           34339         5.81569
           34340         6.03184
           34341         6.01170
           34342         6.04167
           34343         6.04502
           34344         6.06692
           34345         5.98925
           34346         6.02092
           34347         6.05749
           34348         5.98093
           34349         6.04399
           34350         5.92173
           34351         6.00045
           34352         1.84755
           34353         1.89454
           34354         1.93610
           34355         1.93967
           34356         1.89193
           34357         1.84869
           34358         1.88948
           34359         1.82656
           34360         1.82715
           34361         1.78538
           34362         1.84997
           34363         1.84917
           34364         1.91852
           34365         1.92036
           34366         1.85684
           34367         1.74702
           34368         1.81204
           34369         1.77023
           34370         1.97259
           34371         1.99950
           34372         1.96068
           34373         1.93276
           34374         2.01331
           34375         1.11390
           34376         1.07238
           34377         1.14517
           34378         1.16160
           34379         1.20491
           34380         1.13144
           34381         1.02983
           34382         1.10365
           34383         1.10066
           34384         1.02726
           34385         1.01672
           34386         1.05859
           34387     972.302E-03
           34388     985.851E-03
           34389         1.17333
           34390         1.20966
           34391         1.13863
           34392         1.10925
           34393         1.14297
           34394         1.24379
           34395         1.18418
           34396         1.22656
           34397     979.646E-03
           34398     27.3471E-03
           34399     24.5555E-03
           34400     20.0739E-03
           34401     25.0393E-03
           34402     27.0083E-03
           34403     45.9722E-03
           34404     19.9316E-03
           34405     43.5548E-03
           34406     37.2502E-03
           34407     42.4509E-03
           34408     19.3191E-03
           34409     23.0763E-03
           34410     15.2005E-03
           34411     14.8295E-03
           34412     19.5793E-03
           34413     23.1259E-03
           34414     22.9313E-03
           34415     22.8104E-03
           34416     14.7535E-03
           34417     13.9635E-03
           34418         2.09185
           34419         2.11601
           34420         2.11951
           34421         2.14271
           34422         2.12074
           34423         2.11572
           34424         2.13146
           34425         2.15246
           34426         2.11867
           34427         2.13370
           34428         2.11232
           34429         2.14909
           34430         2.14052
           34431         2.11094
           34432         2.08662
           34433         2.10827
           34434         2.15452
           34435         2.10966
           34436         2.13314
           34437     533.728E-03
           34438     579.493E-03
           34439     533.722E-03
           34440     624.978E-03
           34441     576.090E-03
           34442     622.410E-03
           34443     509.366E-03
           34444     555.415E-03
           34445     578.837E-03
           34446     533.289E-03
           34447     555.110E-03
           34448     509.395E-03
           34449     478.763E-03
           34450     403.418E-03
           34451     495.953E-03
           34452     440.080E-03
           34453     544.108E-03
           34454     507.053E-03
           34455     497.999E-03
           34456     546.192E-03
           34457     442.511E-03
           34458     464.535E-03
           34459     412.048E-03
           34460         5.80565
           34461         5.79395
           34462         5.83013
           34463         5.83480
           34464         5.81250
           34465         5.78163
           34466         5.79738
           34467         5.81755
           34468         3.55202
           34469         3.63374
           34470         3.68477
           34471         3.60104
           34472         3.61730
           34473         3.58456
           34474         3.80852
           34475         3.82949
           34476         3.72104
           34477         3.73463
           34478         3.71426
           34479         3.82228
           34480         3.72326
           34481         3.70678
           34482         3.74908
           34483         3.76569
           34484         3.78915
           34485         3.71592
           34486         3.69946
           34487         3.64824
           34488         3.65548
           34489         3.63386
           34490         3.61777
           34491         3.67295
           34492         3.59509
           34493         3.63480
           34494         3.64763
           34495         3.15694
           34496         3.20181
           34497         3.18813
           34498         3.22011
           34499         3.17391
           34500         3.18833
           34501         3.13009
           34502         3.14594
           34503         3.11566
           34504         3.07368
           34505         3.14870
           34506         3.19887
           34507         3.19239
           34508         3.22970
           34509         3.17844
           34510         3.18478
           34511         3.23993
           34512         3.22538
           34513         3.18097
           34514         3.13657
           34515         3.17158
           34516         3.22490
           34517         3.29467
           34518         3.36784
           34519         3.43541
           34520         3.45955
           34521         3.35829
           34522         3.34292
           34523         3.24465
           34524         3.17818
           34525         3.27257
           34526         3.22628
           34527         3.23635
           34528         3.33488
           34529         3.21842
           34530         3.24027
           34531         3.33657
           34532         3.27744
           34533         3.51148
           34534         3.44404
           34535         3.38568
           34536         3.40161
           34537         3.51809
           34538         3.57205
           34539         3.44442
           34540         3.49404
           34541         3.57105
           34542         2.97167
           34543         2.98813
           34544         2.96168
           34545         2.94648
           34546         2.91292
           34547         3.02843
           34548         3.07309
           34549         3.04701
           34550         3.01496
           34551         2.99589
           34552         3.06529
           34553         3.12419
           34554         3.14844
           34555         3.11921
           34556         2.98746
           34557         3.02699
           34558         3.04053
           34559         2.97744
           34560         3.01710
           34561         3.00138
           34562         2.96200
           34563         2.93654
           34564         2.66571
           34565         2.66468
           34566         2.66003
           34567         2.65614
           34568         2.65697
           34569         2.63683
           34570         2.64469
           34571         2.64047
           34572         2.64428
           34573         2.66109
           34574     60.5293E-03
           34575     45.7973E-03
           34576     23.5495E-03
           34577     9.22533E-03
           34578     23.0864E-03
           34579     45.1868E-03
           34580         2.17573
           34581         2.18488
           34582         2.19983
           34583         2.19401
           34584         2.19330
           34585     81.8922E-03
           34586     44.0416E-03
           34587     15.5178E-03
           34588     16.0693E-03
           34589     42.2059E-03
           34590     12.6666E-03
           34591     75.3581E-03
           34592     53.0173E-03
           34593     37.9593E-03
           34594         2.56663
           34595         2.63055
           34596         2.54713
           34597         2.55594
           34598         2.57456
           34599         2.42938
           34600         2.36405
           34601         2.35537
           34602         2.42575
           34603         2.33093
           34604         2.34439
           34605         2.42233
           34606     882.263E-03
           34607         1.07846
           34608     965.871E-03
           34609         1.09785
           34610     910.750E-03
           34611         1.02538
           34612     264.681E-03
           34613     571.180E-03
           34614     633.337E-03
           34615     597.227E-03
           34616     430.734E-03
           34617     204.481E-03
           34618         1.42559
           34619         1.36900
           34620         1.41879
           34621         2.30960
           34622         2.26536
           34623         2.25882
           34624         2.24313
           34625         2.28700
           34626         2.29318
           34627         1.47805
           34628         1.50079
           34629         1.49697
           34630         1.49401
           34631         1.52510
           34632         1.45714
           34633         1.47099
           34634         1.33144
           34635         2.57062
           34636         2.52715
           34637         2.53710
           34638         2.51725
           34639         2.55968
           34640         2.55012
           34641         2.57780
           34642         2.58808
           34643         2.62111
           34644         2.61465
           34645         2.60276
           34646         2.54853
           34647         2.59730
           34648         2.61032
           34649         2.59351
           34650         2.56089
           34651         2.53703
           34652         2.49299
           34653         2.52709
           34654         7.04751
           34655         7.22167
           34656         7.10650
           34657         7.39068
           34658         7.21369
           34659         6.93390
           34660         7.09433
           34661         6.97918
           34662         7.05688
           34663         7.00331
           34664         6.88527
           34665         7.07137
           34666         7.12587
           34667         7.24682
           34668         6.90884
           34669         6.79273
           34670         6.73732
           34671         6.94965
           34672         6.84112
           34673         7.00682
           34674         5.81191
           34675         5.86551
           34676         5.83276
           34677         5.86631
           34678         5.81517
           34679         5.79222
           34680         5.81285
           34681         5.79039
           34682         5.85671
           34683         5.83376
           34684         5.79386
           34685         5.86121
           34686         5.83782
           34687     31.7995E-03
           34688     23.7729E-03
           34689     32.0816E-03
           34690     28.0624E-03
           34691     118.715E-03
           34692     50.3533E-03
           34693     82.9047E-03
           34694     77.2199E-03
           34695     80.9242E-03
           34696     52.0678E-03
           34697     55.8123E-03
           34698         4.96174
           34699         5.06073
           34700         4.85997
           34701         4.92902
           34702         4.83079
           34703         5.03151
           34704         4.69344
           34705         4.60206
           34706         4.67014
           34707         4.73772
           34708         4.76111
           34709         4.66330
           34710         4.52726
           34711         4.62458
           34712         4.55684
           34713         4.59560
           34714         4.53333
           34715         4.57255
           34716         4.70874
           34717         4.61821
           34718         5.01992
           34719         4.81819
           34720         4.91683
           34721         4.92788
           34722         5.06381
           34723         4.98471
           34724         5.11049
           34725         4.96917
           34726         4.97785
           34727         5.23188
           34728         5.14812
           34729         5.10400
           34730         5.01735
           34731         5.14442
           34732         5.01083
           34733         4.95902
           34734         5.06542
           34735         5.31226
           34736         5.24830
           34737         5.12653
           34738         2.78294
           34739         2.75584
           34740         2.73014
           34741         2.75557
           34742         2.78306
           34743         2.80990
           34744         2.75421
           34745         2.77397
           34746         2.77554
           34747         2.80300
           34748         2.78133
           34749         2.83325
           34750         2.81244
           34751         2.84043
           34752         2.67880
           34753         2.70414
           34754         2.72806
           34755         2.71818
           34756         2.69128
           34757         2.66914
           34758         2.21655
           34759         2.21133
           34760         2.21604
           34761         2.78561
           34762         2.81215
           34763         2.83918
           34764         2.84294
           34765         2.47245
           34766         2.40768
           34767         2.43502
           34768         2.37697
           34769         2.44335
           34770         2.46438
           34771         2.40443
           34772         2.39544
           34773         2.46707
           34774         2.44445
           34775         2.61117
           34776         2.59789
           34777         2.56970
           34778         2.68036
           34779         2.68986
           34780         2.62191
           34781         2.67027
           34782         1.05862
           34783         1.23093
           34784         1.04393
           34785         2.43366
           34786         2.45604
           34787         2.59137
           34788     471.014E-03
           34789     541.512E-03
           34790     493.756E-03
           34791     442.565E-03
           34792     420.729E-03
           34793         5.86793
           34794         5.83599
           34795         5.83111
           34796         5.76445
           34797         5.79738
           34798         5.79864
           34799         5.87017
           34800         5.87033
           34801         5.86703
           34802         5.83819
           34803         5.89163
           34804         5.90902
           34805         5.90131
           34806         5.87761
           34807         5.92931
           34808         5.96299
           34809         5.90386
           34810         5.97318
           34811         5.94059
           34812         5.99877
           34813         5.82424
           34814         5.85624
           34815         5.84836
           34816         5.89708
           34817         5.92384
           34818         7.24358
           34819         7.30614
           34820         7.12273
           34821         7.44772
           34822         7.36760
           34823         7.56593
           34824         7.04216
           34825         7.10549
           34826         7.10400
           34827         7.04789
           34828         7.01436
           34829         6.90065
           34830         6.70992
           34831         6.87535
           34832         6.71049
           34833         6.89563
           34834         6.73701
           34835         7.45037
           34836         7.26715
           34837         7.33005
           34838         7.13148
           34839         7.30726
           34840         6.92464
           34841         7.01249
           34842         6.97901
           34843         6.84223
           34844         1.46258
           34845         1.40813
           34846         1.42856
           34847         1.41131
           34848         1.46597
           34849         1.54917
           34850         1.52902
           34851         1.50169
           34852         1.52260
           34853         1.58448
           34854         1.53400
           34855         1.52764
           34856         1.51544
           34857         1.55149
           34858         1.45104
           34859         1.39295
           34860         1.42765
           34861         1.63137
           34862         1.57001
           34863         1.60931
           34864         1.52618
           34865         1.58798
           34866         1.59919
           34867         1.60557
           34868     410.017E-03
           34869     455.302E-03
           34870     473.304E-03
           34871     375.145E-03
           34872     358.977E-03
           34873         2.51295
           34874         2.49952
           34875         2.51216
           34876         2.51031
           34877         2.51098
           34878         2.50634
           34879         2.49483
           34880         2.50543
           34881         2.51695
           34882         2.50247
           34883         2.52807
           34884         2.51860
           34885         2.51541
           34886         2.52641
           34887         1.66494
           34888         1.74101
           34889         1.66109
           34890         1.81145
           34891         1.77163
           34892         1.77835
           34893     44.6356E-03
           34894         1.90474
           34895         1.88688
           34896         1.92292
           34897         1.88098
           34898         1.90007
           34899         1.92795
           34900         1.89165
           34901         1.90889
           34902         1.91849
           34903         1.95836
           34904         1.92264
           34905         1.98004
           34906         1.92781
           34907         1.96163
           34908         1.77311
           34909         1.81209
           34910         1.78310
           34911         4.93418
           34912         4.82530
           34913         4.82584
           34914         4.71250
           34915         4.82477
           34916         4.82531
           34917         4.92535
           34918         4.97690
           34919         4.98272
           34920         5.08321
           34921         5.03416
           34922         5.02685
           34923         4.88874
           34924         4.94850
           34925         4.99368
           34926         4.99962
           34927         4.94020
           34928         4.89712
           34929         5.03841
           34930         5.08758
           34931         4.98606
           34932         5.04007
           34933         3.89099
           34934         3.79942
           34935         3.80897
           34936         3.73864
           34937         3.82726
           34938         3.81700
           34939         4.01253
           34940         4.06894
           34941         4.07471
           34942         4.01865
           34943         4.13516
           34944         3.79480
           34945         3.80579
           34946         3.93541
           34947         3.88174
           34948         3.84879
           34949         4.00026
           34950         3.89001
           34951         3.94378
           34952     289.572E-03
           34953     248.417E-03
           34954     297.563E-03
           34955     288.114E-03
           34956     283.705E-03
           34957     293.119E-03
           34958     228.819E-03
           34959     238.314E-03
           34960     273.579E-03
           34961     232.155E-03
           34962     241.681E-03
           34963     212.575E-03
           34964     202.402E-03
           34965     196.340E-03
           34966     204.156E-03
           34967     214.994E-03
           34968     211.961E-03
           34969     200.816E-03
           34970     281.487E-03
           34971         4.30788
           34972         3.93232
           34973         3.93398
           34974         3.97757
           34975         4.02472
           34976         4.02340
           34977         4.13475
           34978         4.04908
           34979         4.16835
           34980         4.16354
           34981         4.22790
           34982         4.26201
           34983         4.16549
           34984         4.25435
           34985         4.28477
           34986         4.13954
           34987         1.68239
           34988         1.62482
           34989         1.68118
           34990         1.65309
           34991         1.71026
           34992         1.65475
           34993         1.77267
           34994         1.82802
           34995         1.79367
           34996         1.85534
           34997         1.80049
           34998         1.83851
           34999         1.82882
           35000         1.77348
           35001         1.84008
           35002         1.76443
           35003         1.81958
           35004         1.79823
           35005         1.75016
           35006         1.69764
           35007         1.72286
           35008         1.70698
           35009         1.72013
           35010         1.79026
           35011         1.74354
           35012         2.66140
           35013         2.66418
           35014         2.66172
           35015         2.66308
           35016         2.66017
           35017         2.66229
           35018         1.16882
           35019         1.01437
           35020         1.12940
           35021         1.02333
           35022         1.17624
           35023         1.06132
           35024         1.02497
           35025         1.15521
           35026         1.09022
           35027         1.13658
           35028         1.00723
           35029         1.06993
           35030         1.08185
           35031         1.19702
           35032         1.08970
           35033         3.89629
           35034         4.53693
           35035         4.18325
           35036         4.48852
           35037         3.80183
           35038         3.48369
           35039         3.72168
           35040         4.04119
           35041         3.79552
           35042         3.71209
           35043         3.94206
           35044         3.62837
           35045         4.15786
           35046         4.36847
           35047     954.554E-03
           35048         1.08258
           35049     966.584E-03
           35050     993.842E-03
           35051     901.262E-03
           35052     964.665E-03
           35053     817.070E-03
           35054     846.818E-03
           35055     833.737E-03
           35056     740.526E-03
           35057     722.217E-03
           35058     727.752E-03
           35059     679.190E-03
           35060     726.309E-03
           35061     740.945E-03
           35062     725.076E-03
           35063     677.995E-03
           35064     667.102E-03
           35065     733.106E-03
           35066     753.291E-03
           35067     750.090E-03
           35068     829.007E-03
           35069     776.751E-03
           35070     787.690E-03
           35071     705.978E-03
           35072     757.199E-03
           35073     728.616E-03
           35074         2.52392
           35075         2.51523
           35076         2.53358
           35077         2.52170
           35078         2.53132
           35079         2.51198
           35080         2.52622
           35081         2.53363
           35082         2.54208
           35083         2.54192
           35084         2.54157
           35085         2.52614
           35086         2.62183
           35087         2.61752
           35088         2.61542
           35089         2.60970
           35090         2.61306
           35091         2.61526
           35092         2.61299
           35093         2.60968
           35094         2.61690
           35095         2.62115
           35096         2.61457
           35097         2.62802
           35098         2.62833
           35099         2.63665
           35100         2.64516
           35101         2.63360
           35102         2.65125
           35103         2.65457
           35104         2.64624
           35105         2.63782
           35106         2.65577
           35107         2.61073
           35108         2.60000
           35109         2.61942
           35110         2.62954
           35111         2.61601
           35112         2.64217
           35113         4.54850
           35114         4.56307
           35115         4.49560
           35116         4.46857
           35117         4.13630
           35118         4.06683
           35119         4.44175
           35120         4.16269
           35121         4.26519
           35122         4.58286
           35123         3.98218
           35124         4.01012
           35125         4.18797
           35126         4.00761
           35127         4.61746
           35128         4.60521
           35129         4.65283
           35130     865.489E-03
           35131     910.616E-03
           35132     896.083E-03
           35133     967.265E-03
           35134     898.924E-03
           35135     743.517E-03
           35136     800.359E-03
           35137     828.752E-03
           35138     828.296E-03
           35139     775.001E-03
           35140     743.222E-03
           35141     825.265E-03
           35142     772.981E-03
           35143     794.493E-03
           35144     756.515E-03
           35145     812.073E-03
           35146     786.773E-03
           35147     812.918E-03
           35148     757.653E-03
           35149     773.128E-03
           35150     825.239E-03
           35151     788.728E-03
           35152         3.23397
           35153         3.26318
           35154         3.19678
           35155         3.20674
           35156         3.17813
           35157         3.24384
           35158         3.17403
           35159         3.14699
           35160         3.15548
           35161         3.22174
           35162         3.15859
           35163         3.18913
           35164         3.20055
           35165         3.26454
           35166         3.12731
           35167         3.15743
           35168         3.11716
           35169     45.9719E-03
           35170     44.0870E-03
           35171     43.0210E-03
           35172         6.01784
           35173         6.18619
           35174         6.21221
           35175         6.23281
           35176         6.06407
           35177         6.03913
           35178         6.20885
           35179         6.38761
           35180         6.20649
           35181         6.03802
           35182         6.59261
           35183         6.59887
           35184         6.78613
           35185         6.58382
           35186         6.57742
           35187         6.17821
           35188         5.97820
           35189         6.16241
           35190         6.36766
           35191         6.14373
           35192         6.57299
           35193         6.77442
           35194         6.59018
           35195         6.39453
           35196         6.56381
           35197         6.19460
           35198         5.97619
           35199         6.13675
           35200         6.36060
           35201         6.15297
           35202         6.48330
           35203         6.39740
           35204         6.56431
           35205         6.55874
           35206         6.64530
           35207         6.42183
           35208         6.50462
           35209         6.34522
           35210         6.76224
           35211         6.67009
           35212         6.40655
           35213         6.61304
           35214     84.4072E-03
           35215     183.983E-03
           35216     215.370E-03
           35217     164.871E-03
           35218     117.068E-03
           35219     216.455E-03
           35220     185.102E-03
           35221     177.797E-03
           35222     126.371E-03
           35223     156.843E-03
           35224     160.487E-03
           35225     212.633E-03
           35226     236.004E-03
           35227     211.130E-03
           35228     86.2564E-03
           35229     114.373E-03
           35230     149.123E-03
           35231     122.437E-03
           35232     173.122E-03
           35233         5.60887
           35234         5.69776
           35235         5.60317
           35236         5.66917
           35237         5.58126
           35238         5.68366
           35239         5.75254
           35240         5.73566
           35241         5.72312
           35242         5.64973
           35243         5.62420
           35244         5.65284
           35245         5.65413
           35246         5.68146
           35247         5.65001
           35248     33.8525E-03
           35249     40.2931E-03
           35250         5.74358
           35251         5.78015
           35252         5.72097
           35253         5.77387
           35254         5.79897
           35255         1.27028
           35256         1.28415
           35257         1.36695
           35258         1.21570
           35259         1.20175
           35260         1.12100
           35261         1.51179
           35262         1.57015
           35263         1.41253
           35264         1.42405
           35265         1.52471
           35266         1.36262
           35267         1.30475
           35268         1.23726
           35269         1.29344
           35270         1.26304
           35271         1.14063
           35272         1.84006
           35273         1.85702
           35274         1.90277
           35275         1.96858
           35276         1.95430
           35277         1.90552
           35278         1.93091
           35279         2.03755
           35280         2.12261
           35281         2.01806
           35282         2.05895
           35283         1.92555
           35284         1.91681
           35285         1.84926
           35286         1.83193
           35287         1.86072
           35288         2.02186
           35289         1.90795
           35290         1.85481
           35291         1.86184
           35292         2.02296
           35293         1.87495
           35294         1.87469
           35295         1.77512
           35296         3.45747
           35297         3.57512
           35298         3.50091
           35299         3.33546
           35300     310.536E-03
           35301     256.847E-03
           35302     220.468E-03
           35303     248.220E-03
           35304     311.339E-03
           35305     337.130E-03
           35306         3.13455
           35307         3.28892
           35308         3.16522
           35309         3.01121
           35310         3.07163
           35311         3.24400
           35312         3.05960
           35313         2.99951
           35314         3.10736
           35315         3.84760
           35316         4.02659
           35317         4.07123
           35318         3.89651
           35319         3.99085
           35320         2.80165
           35321         2.86036
           35322         2.83200
           35323         2.85899
           35324         2.79920
           35325         2.82727
           35326         3.81931
           35327         3.99277
           35328         3.95683
           35329         3.78129
           35330         3.85143
           35331         3.68210
           35332         3.74452
           35333         4.01045
           35334         4.24599
           35335         4.12985
           35336         4.20351
           35337         3.96930
           35338         4.08568
           35339         4.11587
           35340         2.05424
           35341         2.02139
           35342         2.05638
           35343         2.04654
           35344         2.07862
           35345         2.04679
           35346         2.08393
           35347         2.10176
           35348         2.10444
           35349         2.09700
           35350         2.07797
           35351         2.07663
           35352         2.11006
           35353         2.10534
           35354         2.08010
           35355         2.07451
           35356         2.10233
           35357         2.13492
           35358         2.11353
           35359         2.10951
           35360         2.08414
           35361         2.10833
           35362         3.00740
           35363         2.95047
           35364         2.98564
           35365         3.02868
           35366         3.08919
           35367         3.05069
           35368         3.04758
           35369         2.99252
           35370         2.99029
           35371         2.95401
           35372         3.00974
           35373         2.08712
           35374         2.05235
           35375         2.06635
           35376         2.09051
           35377         2.12739
           35378         2.11275
           35379         2.14364
           35380         2.17170
           35381         2.12028
           35382         2.09431
           35383         2.13646
           35384         2.19899
           35385         2.21077
           35386         2.17420
           35387         2.16954
           35388         2.15979
           35389         2.19567
           35390         2.10948
           35391         2.10627
           35392         2.06711
           35393         2.07580
           35394         2.14138
           35395         2.12652
           35396         6.71045
           35397         6.05043
           35398         5.81639
           35399         5.80296
           35400         6.08631
           35401         6.13115
           35402         6.16690
           35403         5.86662
           35404         6.60029
           35405         7.01778
           35406         6.51621
           35407         6.48218
           35408         6.53828
           35409         6.54541
           35410         7.24372
           35411         6.79935
           35412         6.84476
           35413         5.11690
           35414         5.14786
           35415         5.48909
           35416         5.38864
           35417         5.37151
           35418         5.05164
           35419         5.41160
           35420         5.68293
           35421         5.73633
           35422         5.83680
           35423         5.52516
           35424         4.66671
           35425         4.91471
           35426         4.59286
           35427         3.82774
           35428         3.82685
           35429         3.77768
           35430         3.72465
           35431         3.72440
           35432         3.77441
           35433         3.84332
           35434         3.84400
           35435         3.79093
           35436         3.72447
           35437         3.72479
           35438         3.67860
           35439         3.67851
           35440         3.62831
           35441         3.62831
           35442         3.63724
           35443         6.65823
           35444         8.80938
           35445         7.67286
           35446         18.0566
           35447         15.8613
           35448         16.1473
           35449         11.6342
           35450         13.7196
           35451         13.7360
           35452     34.3798E-03
           35453     24.0380E-03
           35454     29.7889E-03
           35455         9.13468
           35456         10.3362
           35457         11.7948
           35458         9.91786
           35459     19.1160E-03
           35460     22.4301E-03
           35461     30.7348E-03
           35462     31.2795E-03
           35463     19.3212E-03
           35464         3.22792
           35465         3.29084
           35466         3.34047
           35467         3.38421
           35468         3.31875
           35469         3.32776
           35470         3.41717
           35471         3.42510
           35472         3.47256
           35473         3.38115
           35474         3.37385
           35475         3.36309
           35476         3.35590
           35477         3.26378
           35478         3.29830
           35479         3.46490
           35480         3.50322
           35481         3.42483
           35482         3.44927
           35483         3.41144
           35484         3.48919
           35485         3.26539
           35486         3.31823
           35487         2.88730
           35488         2.89529
           35489         2.88071
           35490         2.99518
           35491         2.99772
           35492         2.93536
           35493         2.96458
           35494         2.96205
           35495         3.02708
           35496         3.03987
           35497         3.02803
           35498         2.91543
           35499         2.95566
           35500     755.776E-03
           35501     784.475E-03
           35502     663.746E-03
           35503         2.79011
           35504         2.80647
           35505         2.78382
           35506         2.80823
           35507         2.79161
           35508         2.81545
           35509         2.75648
           35510         2.75214
           35511         2.75199
           35512         2.76999
           35513         2.75660
           35514         2.79059
           35515         2.78395
           35516         2.28643
           35517         2.28981
           35518         2.26645
           35519         2.29577
           35520         2.29325
           35521         2.31632
           35522         2.26580
           35523         2.26295
           35524         2.26066
           35525         2.28457
           35526         2.28908
           35527         4.37568
           35528         4.34853
           35529         4.55880
           35530         3.97516
           35531         3.96911
           35532         3.81803
           35533         4.87473
           35534         5.09361
           35535         5.06099
           35536         4.75083
           35537         5.38394
           35538         5.12476
           35539         5.00733
           35540         4.41752
           35541         4.65170
           35542         4.19530
           35543         4.43798
           35544         4.44489
           35545         4.19923
           35546         3.90929
           35547         3.84892
           35548         3.36822
           35549         3.69326
           35550         3.75401
           35551         3.56667
           35552         4.10714
           35553         3.55941
           35554         4.05053
           35555         2.74745
           35556         2.84697
           35557         2.78442
           35558         2.79601
           35559         2.69543
           35560         2.75769
           35561         2.67939
           35562         2.63646
           35563         2.64016
           35564         2.62542
           35565         2.70555
           35566         2.80642
           35567         2.86062
           35568         2.76018
           35569         2.78092
           35570         2.67723
           35571         2.67845
           35572         2.67514
           35573         2.67590
           35574         2.67686
           35575         2.67908
           35576         2.67827
           35577         2.68120
           35578         2.67875
           35579         2.67962
           35580         2.67599
           35581         2.67265
           35582         2.67300
           35583         2.67122
           35584         2.67390
           35585         2.67369
           35586         2.67539
           35587         2.67408
           35588         2.67653
           35589         4.81076
           35590         4.79137
           35591         4.78949
           35592         4.71851
           35593         4.85150
           35594         4.85432
           35595         4.92103
           35596         4.99824
           35597         4.94038
           35598         4.86156
           35599         4.95366
           35600         4.80462
           35601         4.89319
           35602     13.0047E-03
           35603     10.4345E-03
           35604     6.52286E-03
           35605     26.8034E-03
           35606     28.7492E-03
           35607     32.9038E-03
           35608     61.8894E-03
           35609     41.3853E-03
           35610     44.8050E-03
           35611     13.2701E-03
           35612     10.4700E-03
           35613     15.2842E-03
           35614     13.5977E-03
           35615     8.95709E-03
           35616     41.1271E-03
           35617     61.5619E-03
           35618     33.1958E-03
           35619     44.8542E-03
           35620         1.76720
           35621         1.77574
           35622         1.89403
           35623         1.82750
           35624         1.88334
           35625         1.96554
           35626         2.08152
           35627         1.85646
           35628         1.93217
           35629         1.94389
           35630         1.90154
           35631         1.88306
           35632         1.99559
           35633         1.71525
           35634         1.65412
           35635         1.65968
           35636         1.72070
           35637         1.60987
           35638         1.76494
           35639         1.71071
           35640         1.76951
           35641         1.66610
           35642         1.72303
           35643         1.82772
           35644         1.77486
           35645         4.08021
           35646         4.22023
           35647         4.16426
           35648         4.22217
           35649         3.97201
           35650         4.11940
           35651         4.13215
           35652         3.90469
           35653         3.78372
           35654         3.75280
           35655         3.60845
           35656         3.76169
           35657     37.3212E-03
           35658     38.6050E-03
           35659     43.8452E-03
           35660         3.72670
           35661         3.88294
           35662         5.24515
           35663         5.28095
           35664         5.29879
           35665         5.24339
           35666         5.22545
           35667         5.36416
           35668         5.33830
           35669         5.25740
           35670         5.29360
           35671         5.32013
           35672         5.26441
           35673         5.21489
           35674         5.24203
           35675     749.178E-03
           35676     759.030E-03
           35677     720.674E-03
           35678     761.704E-03
           35679     754.232E-03
           35680     790.201E-03
           35681     723.246E-03
           35682     761.900E-03
           35683     754.775E-03
           35684     764.906E-03
           35685     698.802E-03
           35686     632.519E-03
           35687     646.577E-03
           35688     601.069E-03
           35689     667.279E-03
           35690     653.316E-03
           35691         2.45413
           35692         2.46622
           35693         2.48480
           35694         2.49551
           35695         2.48421
           35696         2.46334
           35697         2.45208
           35698         2.43343
           35699         2.51974
           35700         2.52958
           35701         2.51297
           35702         2.50489
           35703         2.47675
           35704         2.50629
           35705         2.53794
           35706         2.53508
           35707         2.54944
           35708         2.59101
           35709         2.56554
           35710         2.56773
           35711         2.53557
           35712         2.54581
           35713         2.50582
           35714         2.53106
           35715         2.54049
           35716         2.76582
           35717         2.74847
           35718         2.73976
           35719         2.75528
           35720         2.75182
           35721         2.82769
           35722         2.81848
           35723         2.81912
           35724         2.79997
           35725         2.80848
           35726         2.79627
           35727         2.77436
           35728         2.79509
           35729         5.49999
           35730         5.49839
           35731         5.50146
           35732         5.53448
           35733         5.53827
           35734         5.53503
           35735         5.44606
           35736         5.44314
           35737         5.61584
           35738         5.63446
           35739         5.58716
           35740         5.61218
           35741         5.59718
           35742         5.64196
           35743         5.52105
           35744         5.54867
           35745         5.57608
           35746         5.56140
           35747         2.59985
           35748         2.60521
           35749         2.60720
           35750         2.60348
           35751         2.59794
           35752         2.59869
           35753         2.60087
           35754         2.60568
           35755         2.60620
           35756         2.59607
           35757         2.59538
           35758         2.60009
           35759         2.60466
           35760         2.61886
           35761         2.61121
           35762         2.60997
           35763         2.61265
           35764         2.61274
           35765         2.62060
           35766         2.60646
           35767         2.60464
           35768         2.59850
           35769         2.59760
           35770         2.60252
           35771         2.66032
           35772         2.66020
           35773         2.66023
           35774         2.65928
           35775         2.65890
           35776         2.65893
           35777     916.033E-03
           35778     945.847E-03
           35779         1.09193
           35780     989.221E-03
           35781     959.331E-03
           35782         2.66038
           35783         2.65936
           35784         2.65840
           35785         2.65971
           35786         2.65946
           35787         2.66001
           35788         2.66026
           35789         2.65902
           35790     730.295E-03
           35791     773.342E-03
           35792     613.557E-03
           35793         2.65711
           35794         2.65922
           35795         2.65751
           35796         2.66011
           35797         2.65836
           35798         2.65948
           35799         2.66005
           35800         2.65772
           35801         2.65806
           35802         2.65744
           35803         2.65953
           35804         2.65780
           35805         2.66006
           35806         2.65963
           35807         2.66055
           35808         2.65937
           35809         2.66011
           35810         1.25185
           35811         1.34216
           35812         1.27512
           35813         1.31947
           35814         1.22905
           35815         1.39414
           35816         1.36008
           35817         1.34924
           35818         1.39033
           35819         1.42536
           35820         1.43561
           35821         1.31730
           35822         1.30374
           35823         1.26982
           35824         1.21365
           35825         1.25902
           35826         1.29013
           35827         1.68180
           35828         1.65760
           35829         1.61762
           35830         1.62331
           35831         1.64717
           35832         1.59448
           35833         1.60165
           35834         1.63276
           35835         1.56948
           35836         1.62664
           35837         1.69527
           35838         1.73310
           35839         1.70371
           35840         1.80437
           35841         1.80681
           35842         1.76878
           35843     910.809E-03
           35844     941.579E-03
           35845     974.908E-03
           35846         1.68945
           35847         1.68606
           35848         1.71369
           35849     62.7264E-03
           35850     53.9951E-03
           35851     36.7333E-03
           35852         5.39890
           35853         5.40071
           35854         5.44518
           35855         5.36520
           35856         5.31626
           35857         5.35043
           35858         5.35289
           35859         5.36725
           35860         5.36894
           35861         5.32039
           35862         5.31643
           35863         5.33438
           35864         5.38001
           35865         5.38610
           35866         5.44095
           35867         5.43051
           35868         5.35269
           35869         5.40620
           35870         5.41570
           35871         5.38516
           35872         5.38636
           35873         1.64917
           35874         1.70415
           35875         1.67592
           35876         1.56691
           35877         1.57222
           35878         1.55150
           35879         1.61728
           35880         1.61219
           35881         1.63078
           35882         1.60489
           35883         1.59230
           35884         1.82101
           35885         1.76598
           35886         1.78104
           35887         1.80983
           35888         1.83641
           35889         1.57363
           35890         1.65170
           35891         1.64983
           35892         1.59958
           35893         1.73237
           35894         1.73670
           35895         5.18740
           35896         5.12321
           35897         5.24209
           35898         5.18303
           35899         5.17613
           35900         5.20821
           35901         5.14985
           35902         5.19707
           35903         5.16447
           35904         5.22339
           35905         5.22192
           35906         5.22679
           35907         5.18731
           35908         5.25100
           35909     44.8522E-03
           35910     39.9773E-03
           35911     41.2374E-03
           35912     38.8360E-03
           35913     40.3982E-03
           35914     44.5668E-03
           35915         5.22563
           35916         5.24368
           35917         5.25486
           35918         6.03995
           35919         5.97959
           35920         5.86415
           35921         5.98430
           35922         5.60724
           35923         5.66492
           35924         5.74535
           35925         5.51553
           35926         5.37948
           35927         5.60596
           35928         5.52592
           35929         5.43591
           35930         5.56635
           35931         5.62250
           35932         2.72240
           35933         2.73083
           35934         2.74905
           35935         2.79202
           35936         2.78212
           35937         2.76458
           35938         2.64431
           35939         2.59124
           35940         2.67958
           35941         2.68194
           35942         2.73797
           35943         2.64703
           35944         2.69176
           35945         2.57491
           35946         2.61743
           35947         2.53175
           35948         2.60187
           35949         2.78056
           35950         2.84074
           35951         2.79714
           35952         2.79671
           35953         2.66989
           35954         2.62541
           35955         2.70630
           35956         2.75275
           35957         2.68342
           35958         2.79840
           35959         2.84308
           35960         2.74784
           35961         2.80848
           35962         2.61357
           35963         2.66086
           35964         2.72797
           35965         2.67053
           35966         2.64391
           35967         2.64110
           35968         2.64237
           35969         2.63555
           35970         2.62948
           35971         2.63074
           35972         2.62782
           35973         2.63477
           35974         2.63263
           35975         2.64288
           35976         2.64601
           35977         2.63844
           35978         2.64023
           35979         7.20700
           35980         7.78640
           35981         7.38415
           35982         7.47185
           35983         6.91818
           35984         7.30877
           35985         7.07903
           35986         7.43307
           35987         7.25879
           35988         6.86516
           35989         7.09480
           35990         6.62562
           35991         6.20992
           35992         6.25128
           35993         6.51290
           35994         6.11827
           35995         6.28222
           35996         3.44054
           35997         3.57671
           35998         3.58465
           35999         3.52326
           36000         3.38631
           36001         3.38257
           36002         3.45829
           36003         3.25804
           36004         3.24876
           36005         3.23566
           36006         3.43455
           36007         3.44706
           36008     949.580E-03
           36009     938.132E-03
           36010         1.13345
           36011         3.74435
           36012         3.77053
           36013         3.80318
           36014         3.63840
           36015         3.61446
           36016         3.54345
           36017         3.73558
           36018         3.60678
           36019         3.62648
           36020     988.219E-03
           36021     902.145E-03
           36022     839.610E-03
           36023     756.134E-03
           36024     840.024E-03
           36025     901.481E-03
           36026     891.671E-03
           36027         1.00844
           36028         1.03930
           36029     955.358E-03
           36030     923.109E-03
           36031     929.104E-03
           36032     838.583E-03
           36033         1.00685
           36034         1.04635
           36035         1.09744
           36036         1.05831
           36037         1.13428
           36038         1.01710
           36039         1.10479
           36040     919.540E-03
           36041     900.957E-03
           36042     988.191E-03
           36043     841.056E-03
           36044     843.600E-03
           36045     928.041E-03
           36046         1.00557
           36047         1.00916
           36048     811.697E-03
           36049     905.280E-03
           36050     934.200E-03
           36051         1.47254
           36052         1.53416
           36053         1.58064
           36054         1.66171
           36055         1.59871
           36056         1.55188
           36057         1.70224
           36058         1.61934
           36059         1.60611
           36060         1.50279
           36061         1.58228
           36062         1.55294
           36063         1.49453
           36064         1.45974
           36065         1.35571
           36066         1.07577
           36067     948.089E-03
           36068     921.306E-03
           36069         1.04780
           36070     906.378E-03
           36071         1.52581
           36072         1.54448
           36073         1.60041
           36074         1.66368
           36075         5.59731
           36076         5.70726
           36077         5.64409
           36078         5.67141
           36079         5.56917
           36080         5.61693
           36081         5.48914
           36082         5.48173
           36083         5.53611
           36084         5.46198
           36085         5.46997
           36086         5.42280
           36087         5.71917
           36088         5.60891
           36089         5.63307
           36090         5.57190
           36091         5.67304
           36092         5.42718
           36093         5.47460
           36094         5.47601
           36095         5.54318
           36096         5.49309
           36097         5.58607
           36098         5.58453
           36099         5.60097
           36100         5.65346
           36101         2.56566
           36102         2.57023
           36103         2.57083
           36104         2.56293
           36105         2.55966
           36106         2.55753
           36107         2.56189
           36108         2.55020
           36109         2.55473
           36110         2.54612
           36111         2.55336
           36112         2.55646
           36113         2.56452
           36114         2.55801
           36115         2.56541
           36116         2.57126
           36117         2.57270
           36118         2.56762
           36119         2.56160
           36120         2.56034
           36121         2.55314
           36122         2.55892
           36123         5.35099
           36124         6.10603
           36125         5.34681
           36126         8.28848
           36127         7.23459
           36128         8.22888
           36129         5.23019
           36130         6.10109
           36131         5.60153
           36132         8.55677
           36133         7.99116
           36134         4.05735
           36135         3.64411
           36136         4.39578
           36137         3.97937
           36138         4.41872
           36139         3.64812
           36140         4.18263
           36141         4.64760
           36142         3.85547
           36143         4.49554
           36144         4.92684
           36145         4.64720
           36146         4.59484
           36147         4.14031
           36148         2.40556
           36149         2.39057
           36150         2.40104
           36151         2.38587
           36152         2.41715
           36153         2.34679
           36154         2.31436
           36155         2.34359
           36156         2.33250
           36157         2.36450
           36158         2.33454
           36159         2.36638
           36160         2.32616
           36161         2.33288
           36162         2.32702
           36163         2.36589
           36164         2.35876
           36165         2.30550
           36166         2.30728
           36167         2.34867
           36168         2.32022
           36169         2.36678
           36170         2.39279
           36171         2.38872
           36172         2.38161
           36173         2.33036
           36174         2.24932
           36175         2.43842
           36176         1.88904
           36177         1.80514
           36178         2.08383
           36179         2.03436
           36180         2.14986
           36181         2.24274
           36182         2.21962
           36183         2.13829
           36184         2.04056
           36185         2.06132
           36186         2.11857
           36187         2.20809
           36188         2.38197
           36189         2.27800
           36190         1.86846
           36191         2.91161
           36192         2.99421
           36193         3.02792
           36194         3.03994
           36195         2.95215
           36196         2.91851
           36197         2.91405
           36198         3.03057
           36199         2.94738
           36200         3.01484
           36201         3.00262
           36202         3.01349
           36203         3.16888
           36204         3.09327
           36205         3.11645
           36206         3.09323
           36207         3.19290
           36208         3.19286
           36209         2.30947
           36210         2.20330
           36211         2.33005
           36212         2.27782
           36213         2.39336
           36214         2.25936
           36215         2.43448
           36216         2.37820
           36217         2.45038
           36218         2.23979
           36219         2.34736
           36220         2.34720
           36221         2.36542
           36222         2.25853
           36223         2.35346
           36224         2.36894
           36225         2.60631
           36226         1.89075
           36227         1.90228
           36228         1.96659
           36229         1.59388
           36230         1.65988
           36231         1.63987
           36232         1.57395
           36233         1.50804
           36234         1.52987
           36235         1.73672
           36236         1.67907
           36237         1.64237
           36238         1.70862
           36239         1.76665
           36240         1.80238
           36241         1.62189
           36242         1.48933
           36243         1.57682
           36244         1.56284
           36245         1.68527
           36246         1.51069
           36247         5.67010
           36248         5.66485
           36249         5.69553
           36250         5.72499
           36251         5.73224
           36252         5.69729
           36253         5.70102
           36254         5.67574
           36255         5.68095
           36256         5.68785
           36257         5.71673
           36258         5.71458
           36259         5.67691
           36260         5.70260
           36261         5.75016
           36262         5.75984
           36263         5.72894
           36264         5.78881
           36265         5.71893
           36266         5.73261
           36267         5.79406
           36268         5.77284
           36269         5.74831
           36270         5.73173
           36271         1.54956
           36272         1.46811
           36273         1.51529
           36274         1.51226
           36275         1.59067
           36276         1.40807
           36277         1.33595
           36278         1.39342
           36279         1.37584
           36280         1.44669
           36281         1.38915
           36282         1.40019
           36283         1.38597
           36284         1.38365
           36285         1.45421
           36286         1.39449
           36287         1.44664
           36288         1.41732
           36289         1.38816
           36290         1.44739
           36291         1.46228
           36292         1.50956
           36293         1.49413
           36294         1.52514
           36295         1.54558
           36296         1.55196
           36297         1.78858
           36298         1.74537
           36299         1.87147
           36300         1.91927
           36301         1.89486
           36302         1.88508
           36303         1.86299
           36304         1.92591
           36305         1.87813
           36306         1.87077
           36307         1.88004
           36308         1.92554
           36309         1.90222
           36310         1.92091
           36311         1.87508
           36312         1.90421
           36313         3.64456
           36314         3.88044
           36315         3.67337
           36316         3.79003
           36317         3.90388
           36318         3.66826
           36319         3.71331
           36320         3.99810
           36321         3.91986
           36322         3.99003
           36323         4.07053
           36324         4.08471
           36325         3.89602
           36326         3.79811
           36327         6.51825
           36328         6.65722
           36329         6.48887
           36330         6.50081
           36331         6.37058
           36332         6.52630
           36333         6.72742
           36334         6.70035
           36335         6.82581
           36336         6.88784
           36337         6.85345
           36338         6.88870
           36339         6.84663
           36340         6.83903
           36341         6.96860
           36342         6.89495
           36343         7.09704
           36344         6.96967
           36345         7.03985
           36346         6.82965
           36347         6.96237
           36348         6.78092
           36349         6.71354
           36350         6.67659
           36351         2.65250
           36352         2.65876
           36353         2.66046
           36354         2.64800
           36355         2.64193
           36356         2.64053
           36357         2.69076
           36358         2.66870
           36359         2.62229
           36360         2.61236
           36361         2.69059
           36362         2.67208
           36363         2.69427
           36364         2.62757
           36365         2.62861
           36366         2.61714
           36367         2.62972
           36368         2.61714
           36369         2.64205
           36370     887.486E-03
           36371     974.580E-03
           36372     891.804E-03
           36373     950.103E-03
           36374     863.036E-03
           36375     946.481E-03
           36376     861.178E-03
           36377     833.238E-03
           36378     869.093E-03
           36379     909.284E-03
           36380     901.156E-03
           36381     521.239E-03
           36382     427.109E-03
           36383     434.875E-03
           36384     419.277E-03
           36385     513.469E-03
           36386     503.240E-03
           36387     874.578E-03
           36388     961.728E-03
           36389     815.170E-03
           36390     883.866E-03
           36391     732.706E-03
           36392     750.842E-03
           36393     788.071E-03
           36394     796.773E-03
           36395     778.946E-03
           36396     740.843E-03
           36397     855.274E-03
           36398     845.638E-03
           36399     823.238E-03
           36400     904.923E-03
           36401         6.92056
           36402         7.03464
           36403         6.87246
           36404         6.77795
           36405         6.66849
           36406         6.57392
           36407         6.78961
           36408         6.62800
           36409         6.67036
           36410         6.45767
           36411         6.90282
           36412         6.94537
           36413         6.78259
           36414         6.68414
           36415         6.64191
           36416         6.47148
           36417         7.16168
           36418         6.91870
           36419         7.07207
           36420         6.98142
           36421         6.77105
           36422         2.47038
           36423         2.45543
           36424         2.44511
           36425         2.44078
           36426         2.45654
           36427         2.46639
           36428         2.47072
           36429         2.48143
           36430         2.50480
           36431         2.49026
           36432         2.50161
           36433         2.38937
           36434         2.37903
           36435         2.41262
           36436         2.39355
           36437         2.40555
           36438         2.37055
           36439         2.42865
           36440         2.43568
           36441         2.42215
           36442         2.39258
           36443         2.38536
           36444         2.39778
           36445         2.48690
           36446         2.47321
           36447         2.49042
           36448         2.46346
           36449         2.47099
           36450         2.46220
           36451         2.43412
           36452         2.42723
           36453         2.39012
           36454         6.14910
           36455         6.19311
           36456         5.94857
           36457         6.07541
           36458         6.04473
           36459         6.28171
           36460         5.86896
           36461         5.90071
           36462         6.07176
           36463         6.04172
           36464         5.99214
           36465         5.78879
           36466         5.51815
           36467         5.64973
           36468         5.53200
           36469         5.80181
           36470         5.67249
           36471         6.00921
           36472         6.12706
           36473         6.02111
           36474         5.90177
           36475         5.89309
           36476         5.85976
           36477         5.98726
           36478         6.52962
           36479         6.63702
           36480         6.74219
           36481         6.99578
           36482         6.75541
           36483         6.42535
           36484         6.53787
           36485         6.64839
           36486         2.78591
           36487         2.79516
           36488         2.76557
           36489         2.74327
           36490         2.73340
           36491         2.76297
           36492         5.87110
           36493         7.57623
           36494         7.64685
           36495         7.38914
           36496         7.45502
           36497         7.38197
           36498         7.64267
           36499         7.58032
           36500         7.67655
           36501         7.50715
           36502         7.34348
           36503         7.63901
           36504         7.83977
           36505         7.70673
           36506         7.44032
           36507         7.70263
           36508         7.19173
           36509         7.53772
           36510         5.01568
           36511         5.07245
           36512         5.05813
           36513         4.83163
           36514         4.90033
           36515         4.99043
           36516         4.85389
           36517         4.82004
           36518         4.95436
           36519         4.90735
           36520         4.75265
           36521         4.85644
           36522         4.93246
           36523         4.86910
           36524         5.04541
           36525         5.08490
           36526         5.11996
           36527         6.10381
           36528         6.08873
           36529         6.00110
           36530         6.03474
           36531         6.04705
           36532         6.13707
           36533         6.07296
           36534         6.13740
           36535         6.06833
           36536         5.96788
           36537         5.91061
           36538         5.97128
           36539         6.10867
           36540         6.04588
           36541         6.13630
           36542         6.14572
           36543         6.08020
           36544         6.03622
           36545         5.96483
           36546         6.02188
           36547         6.16217
           36548     71.4890E-03
           36549     71.4777E-03
           36550     75.6048E-03
           36551     111.033E-03
           36552     72.7496E-03
           36553     182.345E-03
           36554     258.648E-03
           36555     176.833E-03
           36556     202.833E-03
           36557     131.702E-03
           36558     208.751E-03
           36559     166.779E-03
           36560     141.748E-03
           36561     218.840E-03
           36562     113.156E-03
           36563     90.3293E-03
           36564     124.914E-03
           36565     71.8172E-03
           36566     53.3094E-03
           36567     92.3223E-03
           36568         8.53432
           36569         8.70153
           36570         7.87908
           36571         8.58566
           36572         8.44398
           36573         9.30472
           36574         7.43038
           36575         7.20473
           36576         7.54267
           36577         7.63191
           36578         7.55359
           36579         7.09873
           36580         7.74085
           36581         7.06783
           36582         8.62931
           36583         9.88072
           36584         8.81796
           36585         9.79639
           36586         9.52303
           36587         7.02229
           36588         7.78908
           36589         8.84976
           36590     18.4011E-03
           36591         5.37338
           36592         5.23874
           36593         5.44086
           36594         5.39575
           36595         5.32891
           36596         5.23051
           36597         5.37929
           36598         5.08296
           36599         5.14011
           36600         5.29745
           36601         5.14763
           36602         5.36448
           36603         5.51070
           36604         5.37246
           36605         5.64992
           36606         5.61629
           36607         5.60950
           36608         5.60764
           36609         5.64262
           36610         5.64803
           36611         5.65199
           36612         5.65524
           36613         5.64632
           36614         5.67292
           36615         5.66823
           36616         5.67541
           36617         5.69104
           36618         5.67053
           36619         5.67662
           36620         4.58301
           36621         4.53668
           36622         4.63731
           36623         4.54395
           36624         4.64499
           36625         4.67761
           36626         4.56761
           36627         4.43021
           36628         4.36807
           36629         4.34452
           36630         4.48102
           36631         4.40947
           36632         4.22859
           36633         4.22544
           36634         4.24914
           36635         4.43230
           36636         6.26019
           36637         6.15738
           36638         6.19420
           36639         6.18437
           36640         6.29311
           36641         6.25443
           36642         6.27157
           36643         6.16748
           36644         6.09738
           36645         6.20499
           36646         6.17541
           36647         6.64680
           36648         6.44270
           36649         6.48664
           36650         6.33990
           36651         6.52829
           36652         3.46406
           36653         3.43407
           36654         3.35151
           36655         3.37203
           36656         3.55092
           36657         3.56250
           36658         3.49811
           36659         3.56102
           36660         3.61393
           36661         3.49442
           36662         3.55860
           36663         3.60954
           36664         3.55291
           36665         3.39519
           36666     834.554E-03
           36667     907.208E-03
           36668     859.212E-03
           36669     926.544E-03
           36670     902.171E-03
           36671     793.297E-03
           36672     802.043E-03
           36673     859.994E-03
           36674     748.999E-03
           36675     697.809E-03
           36676     594.731E-03
           36677     662.058E-03
           36678     751.342E-03
           36679     796.263E-03
           36680     819.532E-03
           36681     546.427E-03
           36682     464.954E-03
           36683     627.393E-03
           36684     617.128E-03
           36685     533.798E-03
           36686     807.356E-03
           36687     911.531E-03
           36688     820.469E-03
           36689     640.510E-03
           36690     466.406E-03
           36691     545.486E-03
           36692     555.706E-03
           36693         2.63810
           36694         2.57997
           36695         2.64516
           36696         2.62493
           36697         2.56676
           36698         2.62411
           36699         2.61323
           36700     677.943E-03
           36701     781.956E-03
           36702     669.531E-03
           36703     687.109E-03
           36704     509.571E-03
           36705     510.134E-03
           36706     424.958E-03
           36707     483.018E-03
           36708     482.385E-03
           36709     431.535E-03
           36710     495.904E-03
           36711     654.655E-03
           36712     653.327E-03
           36713     553.506E-03
           36714     548.041E-03
           36715     902.439E-03
           36716     934.772E-03
           36717     768.084E-03
           36718     895.746E-03
           36719     863.931E-03
           36720     590.509E-03
           36721     457.091E-03
           36722     472.300E-03
           36723         5.31477
           36724         5.42446
           36725         5.39827
           36726         5.35191
           36727         5.24316
           36728         5.26802
           36729         5.44538
           36730         5.33554
           36731         5.28864
           36732         5.26121
           36733         5.14988
           36734         5.18034
           36735         5.22688
           36736         5.19693
           36737         5.47875
           36738         5.36923
           36739         5.41518
           36740         4.82048
           36741         4.82988
           36742         4.88033
           36743         4.94263
           36744         4.93221
           36745         4.88216
           36746         4.82513
           36747         4.81509
           36748         5.06810
           36749         5.22289
           36750         5.13898
           36751         5.21871
           36752         5.06444
           36753         4.87431
           36754         4.83561
           36755         4.95522
           36756         4.86920
           36757         4.90820
           36758         4.78888
           36759     625.763E-03
           36760     702.058E-03
           36761     634.831E-03
           36762     586.955E-03
           36763     559.568E-03
           36764         4.79668
           36765         4.73600
           36766         4.76400
           36767         5.07985
           36768         5.00677
           36769         5.15181
           36770         5.21509
           36771         5.09522
           36772         4.94388
           36773         5.01935
           36774         4.95399
           36775         5.01486
           36776         3.81415
           36777         3.80429
           36778         3.82067
           36779         3.83112
           36780         3.78431
           36781         3.86195
           36782         3.80516
           36783         3.73468
           36784         3.63075
           36785         3.66576
           36786         3.56925
           36787         3.58078
           36788         3.60562
           36789         3.61656
           36790         3.67094
           36791         3.71958
           36792     582.510E-03
           36793     652.739E-03
           36794     600.636E-03
           36795     553.645E-03
           36796     533.677E-03
           36797         3.80121
           36798         3.72622
           36799         3.80244
           36800         1.87173
           36801         1.88457
           36802         1.84765
           36803         1.89788
           36804         1.88463
           36805         1.92039
           36806         1.92896
           36807         1.98099
           36808         1.98365
           36809         1.99950
           36810         1.94904
           36811         1.94522
           36812         1.89613
           36813         1.93076
           36814         1.91959
           36815         2.00924
           36816         1.96433
           36817         1.95023
           36818         1.95497
           36819         1.95488
           36820         1.94904
           36821         1.97255
           36822         1.99860
           36823         1.99381
           36824         1.97778
           36825         1.99774
           36826         2.01796
           36827         2.48008
           36828         2.46425
           36829         2.45454
           36830         2.48427
           36831         2.45797
           36832         2.48965
           36833         2.54808
           36834         2.52721
           36835         2.54209
           36836         2.51036
           36837         2.53228
           36838         2.49608
           36839         2.50090
           36840         2.46943
           36841         2.52147
           36842         2.50379
           36843         6.25415
           36844         6.47242
           36845         6.37515
           36846         6.61775
           36847         6.90826
           36848         6.76972
           36849         6.75319
           36850         6.62179
           36851         6.89471
           36852         6.60254
           36853         6.61166
           36854         3.20276
           36855         3.11320
           36856         3.07099
           36857         3.03249
           36858         3.11895
           36859         3.16151
           36860     621.269E-03
           36861     536.785E-03
           36862         3.05058
           36863         3.10810
           36864         3.00021
           36865         2.94543
           36866         3.04057
           36867         3.27623
           36868         3.20326
           36869         3.27140
           36870         3.22611
           36871         3.34538
           36872         3.24954
           36873         3.37037
           36874         3.31959
           36875         3.00577
           36876         3.04368
           36877         3.15431
           36878         3.11408
           36879         3.11190
           36880         3.17731
           36881         3.15603
           36882         2.62685
           36883         2.63437
           36884         2.63028
           36885         2.63548
           36886         2.62836
           36887         2.63191
           36888         2.62193
           36889         2.62363
           36890         2.61721
           36891         2.61254
           36892         2.61158
           36893         2.61997
           36894         2.61465
           36895         2.61722
           36896         2.61710
           36897         2.05144
           36898         2.04806
           36899         2.02566
           36900         2.03785
           36901         2.03955
           36902         2.06165
           36903         2.00273
           36904         1.98231
           36905         2.01042
           36906         2.00103
           36907         2.02058
           36908         1.99453
           36909         2.02289
           36910         2.04160
           36911         2.06034
           36912         2.04640
           36913         2.02648
           36914         2.01774
           36915         2.00160
           36916         2.01319
           36917         2.01073
           36918         2.03465
           36919         2.03765
           36920         2.02061
           36921         2.04075
           36922         2.05421
           36923         2.01267
           36924         2.02346
           36925         12.1979
           36926         15.3333
           36927         14.2593
           36928         20.3593
           36929         19.7022
           36930         14.0476
           36931         15.8456
           36932         17.9914
           36933         15.9165
           36934         25.9998
           36935         28.9798
           36936         19.9165
           36937         19.3614
           36938         17.9984
           36939         25.6702
           36940         28.7622
           36941         25.8087
           36942         27.0894
           36943         33.5096
           36944         16.1902
           36945         14.5440
           36946         5.68534
           36947         5.65761
           36948         5.67763
           36949         5.67012
           36950         5.69434
           36951         5.67783
           36952         5.70458
           36953         5.71097
           36954         5.70609
           36955         5.70762
           36956         5.70418
           36957         5.70736
           36958         5.70657
           36959         5.70883
           36960         5.70073
           36961         5.70667
           36962         5.70934
           36963         5.71018
           36964         5.70710
           36965         5.71139
           36966         5.70200
           36967         5.69611
           36968         5.26851
           36969         5.41331
           36970         5.43779
           36971         5.39580
           36972         5.26121
           36973         5.48464
           36974         5.67731
           36975         5.50519
           36976         5.61377
           36977         5.68686
           36978         5.51515
           36979         5.59118
           36980         5.51272
           36981         5.67819
           36982         5.37344
           36983         5.31061
           36984         5.36976
           36985         5.32868
           36986         5.43012
           36987         2.70886
           36988         2.70290
           36989         2.71896
           36990         2.71768
           36991         2.72444
           36992         2.70791
           36993         2.66370
           36994         2.66232
           36995         2.66543
           36996         2.66441
           36997         2.66567
           36998         2.66297
           36999         2.66257
           37000         2.66520
           37001         2.66397
           37002         2.66552
           37003         2.66257
           37004         2.66714
           37005         2.66598
           37006         2.66840
           37007         2.67000
           37008         2.66784
           37009         2.66826
           37010         2.66881
           37011         2.54905
           37012         2.56868
           37013         2.57828
           37014         2.56705
           37015         2.55848
           37016         2.56439
           37017         2.57548
           37018         2.55308
           37019         2.56031
           37020         2.54267
           37021         2.54680
           37022         2.56113
           37023         2.55276
           37024         2.56160
           37025         2.54607
           37026         8.77403
           37027         8.84201
           37028         8.51344
           37029         8.50572
           37030         8.43713
           37031         8.76606
           37032         8.26014
           37033         8.26965
           37034         8.37443
           37035         8.36530
           37036         1.25017
           37037         1.24716
           37038         1.17996
           37039         1.25178
           37040         1.25127
           37041         1.08521
           37042         1.13778
           37043         1.09727
           37044         1.13756
           37045         1.08524
           37046         1.13269
           37047         1.13542
           37048         3.26639
           37049         3.21558
           37050         3.22171
           37051         3.19928
           37052         3.19296
           37053         3.35760
           37054         3.40398
           37055         3.31983
           37056         3.31297
           37057         3.35040
           37058         2.61029
           37059         2.61118
           37060         2.60943
           37061         2.61269
           37062         2.61114
           37063         2.61027
           37064         2.60930
           37065         2.61079
           37066         2.61064
           37067         1.76930
           37068         1.82896
           37069         1.72817
           37070         1.70735
           37071         1.64903
           37072         1.75013
           37073         1.46647
           37074         1.45431
           37075         1.61307
           37076         1.63269
           37077         1.48603
           37078         1.76621
           37079         1.86870
           37080         1.74701
           37081         1.96491
           37082         1.86126
           37083         1.95981
           37084         1.46821
           37085         1.42002
           37086         1.58157
           37087         1.42861
           37088         1.47508
           37089         1.31855
           37090         1.31645
           37091         1.42010
           37092         1.58177
           37093         1.51692
           37094         1.55873
           37095         1.42504
           37096         1.71565
           37097         1.65040
           37098         1.67208
           37099         1.70237
           37100         1.83465
           37101         12.7592
           37102         10.9135
           37103         11.4327
           37104         10.1238
           37105         10.8445
           37106         10.5760
           37107         10.5496
           37108         9.93909
           37109         10.7033
           37110         10.0499
           37111         9.28554
           37112         11.3464
           37113         12.0959
           37114         11.3797
           37115         10.6350
           37116         9.95719
           37117         12.1040
           37118         14.8029
           37119         13.2474
           37120         13.4459
           37121         11.6582
           37122         12.6241
           37123         3.19750
           37124         3.29842
           37125         3.62890
           37126         2.77961
           37127         2.63639
           37128         2.95797
           37129         2.70745
           37130         2.84592
           37131         2.53674
           37132         3.10199
           37133         2.75636
           37134         2.58564
           37135         2.91069
           37136         2.88393
           37137         3.17551
           37138         3.13909
           37139         3.21506
           37140         3.16164
           37141         2.99137
           37142         3.05574
           37143         2.99218
           37144         3.05123
           37145         3.05016
           37146         3.22908
           37147         3.17808
           37148         3.16331
           37149         3.18054
           37150         3.13563
           37151         3.09303
           37152         10.6448
           37153         11.3687
           37154         12.0655
           37155         12.1945
           37156         11.4698
           37157         11.9951
           37158     17.2628E-03
           37159     15.7569E-03
           37160     56.0060E-03
           37161     52.0624E-03
           37162     54.1958E-03
           37163     49.5666E-03
           37164     18.5206E-03
           37165     55.1011E-03
           37166     38.2475E-03
           37167     39.5988E-03
           37168     38.3025E-03
           37169     54.7305E-03
           37170     61.6944E-03
           37171     43.0374E-03
           37172     45.6089E-03
           37173     42.2370E-03
           37174     108.206E-03
           37175     109.409E-03
           37176     105.986E-03
           37177     51.7079E-03
           37178     54.7548E-03
           37179     100.201E-03
           37180     83.8697E-03
           37181     85.8304E-03
           37182         3.72420
           37183         3.60219
           37184         3.72171
           37185         3.64904
           37186         3.77650
           37187         3.64935
           37188         3.99884
           37189         4.14210
           37190         3.98716
           37191         4.11588
           37192         3.97125
           37193         4.12454
           37194         3.84592
           37195         3.96931
           37196         3.97228
           37197         3.84593
           37198         3.84856
           37199         3.95736
           37200         4.08511
           37201         3.95376
           37202         3.85574
           37203         3.78231
           37204         3.72641
           37205         3.86608
           37206         3.99076
           37207         4.00415
           37208         4.65139
           37209         4.73339
           37210         4.70883
           37211         4.74511
           37212         4.65710
           37213         4.68160
           37214         4.56657
           37215         4.48221
           37216         4.53744
           37217         4.46877
           37218         4.55410
           37219         4.49681
           37220         4.66164
           37221         4.75154
           37222         4.76824
           37223         4.68614
           37224         4.72188
           37225         4.77491
           37226         4.70924
           37227         4.66142
           37228         4.63606
           37229     27.8638E-03
           37230     19.5146E-03
           37231         4.79046
           37232         4.84411
           37233         4.78676
           37234         4.84255
           37235         4.74228
           37236     593.575E-03
           37237     625.007E-03
           37238     454.967E-03
           37239     16.4462E-03
           37240     33.8552E-03
           37241     621.299E-03
           37242     711.483E-03
           37243     672.908E-03
           37244     682.805E-03
           37245     632.615E-03
           37246     583.052E-03
           37247     633.326E-03
           37248     680.998E-03
           37249     541.422E-03
           37250         2.53874
           37251         2.54028
           37252         2.56764
           37253         2.58012
           37254         2.56655
           37255         2.57281
           37256         2.54325
           37257         2.54919
           37258         2.58571
           37259         2.59878
           37260         2.48726
           37261         2.53395
           37262         2.60366
           37263         2.57358
           37264         2.59087
           37265         2.58466
           37266         2.53621
           37267         2.58151
           37268         2.54878
           37269         2.48454
           37270         2.49284
           37271         2.50788
           37272         2.88201
           37273         2.82860
           37274         2.82954
           37275         2.76532
           37276         2.81677
           37277         2.81541
           37278         2.98787
           37279         2.99146
           37280         2.88703
           37281         2.93593
           37282         2.93299
           37283         3.04009
           37284         2.93941
           37285         2.93630
           37286         2.91032
           37287         2.86146
           37288         2.84844
           37289         2.89293
           37290         2.93425
           37291         2.89445
           37292         2.86413
           37293         2.90270
           37294         2.94808
           37295         2.77828
           37296         2.82167
           37297         2.79009
           37298         2.95927
           37299         2.93505
           37300         3.00807
           37301         2.94155
           37302         2.89529
           37303         5.09496
           37304         5.11722
           37305         5.12185
           37306         5.13606
           37307         5.18262
           37308         5.18662
           37309         5.12759
           37310         5.12300
           37311         5.13098
           37312         5.17647
           37313         5.22241
           37314         5.17773
           37315         5.16570
           37316         5.17695
           37317         5.18337
           37318         5.22742
           37319         5.13137
           37320         5.15505
           37321         5.13082
           37322         5.11981
           37323         5.09698
           37324         2.58476
           37325         2.57833
           37326         2.59755
           37327         2.57993
           37328         2.56945
           37329         2.61260
           37330         2.63661
           37331         2.62535
           37332         2.61888
           37333         2.64049
           37334         2.64221
           37335         2.65265
           37336         2.62799
           37337         2.61592
           37338         2.60774
           37339         2.60973
           37340         2.60247
           37341         2.63408
           37342         2.65330
           37343         2.63423
           37344         2.63185
           37345         2.61388
           37346         2.63183
           37347         3.05984
           37348         2.92180
           37349         2.96357
           37350         2.87866
           37351         3.01983
           37352         2.97522
           37353         2.76630
           37354         2.90811
           37355         2.82861
           37356         3.05529
           37357         2.97590
           37358         3.02022
           37359         3.14186
           37360         3.22119
           37361         3.17724
           37362         2.91894
           37363         3.05649
           37364         2.97221
           37365         2.87919
           37366         2.40459
           37367         2.40464
           37368         2.45424
           37369         2.41192
           37370         2.36254
           37371         2.38138
           37372         2.37474
           37373         2.42574
           37374         2.32401
           37375         2.31421
           37376         2.26586
           37377         2.30410
           37378         2.31374
           37379         2.30186
           37380         2.29737
           37381         2.34990
           37382         2.32778
           37383         2.33131
           37384         2.27907
           37385         2.35340
           37386         2.33926
           37387         2.66884
           37388         2.66797
           37389         2.66609
           37390         2.66202
           37391         2.66305
           37392         2.66485
           37393         2.67147
           37394         2.67042
           37395         2.67357
           37396         2.67069
           37397         2.67230
           37398         2.66729
           37399         2.66597
           37400         2.66911
           37401         2.67088
           37402         2.67262
           37403         2.67498
           37404         5.92441
           37405         5.86155
           37406         5.92263
           37407         5.90324
           37408         5.96934
           37409         5.90770
           37410         6.09276
           37411         6.33781
           37412         6.21880
           37413         6.44445
           37414         6.29890
           37415         6.17550
           37416         6.01746
           37417         6.07226
           37418         6.21439
           37419         6.08869
           37420         5.99050
           37421         6.08461
           37422         6.08865
           37423         6.19595
           37424         5.92665
           37425         5.97060
           37426         5.66258
           37427         5.64794
           37428         5.74138
           37429         5.71261
           37430         6.03193
           37431         5.97570
           37432         5.79581
           37433         5.78506
           37434         5.72159
           37435         5.77237
           37436         5.78528
           37437         1.42426
           37438         1.18073
           37439         1.44607
           37440         1.83695
           37441         1.50920
           37442         1.42005
           37443         1.14957
           37444         1.34271
           37445         1.83047
           37446         1.92630
           37447         1.75807
           37448         2.23408
           37449         2.32589
           37450         2.27408
           37451         2.46549
           37452         2.23446
           37453         2.43920
           37454         3.83135
           37455         3.78983
           37456         3.82644
           37457         3.88759
           37458         3.72711
           37459         4.09823
           37460         3.96691
           37461         3.97669
           37462         3.99520
           37463         2.62368
           37464         2.61674
           37465         2.61427
           37466         2.62434
           37467         2.62695
           37468         2.63026
           37469         2.63288
           37470         2.63473
           37471         2.64190
           37472         2.64010
           37473         2.61108
           37474         2.62148
           37475         2.61963
           37476         2.60907
           37477         2.61111
           37478         2.60157
           37479         2.60900
           37480         2.62282
           37481         2.62318
           37482         2.62348
           37483         2.62089
           37484         2.61873
           37485         2.62154
           37486         2.62347
           37487         2.63477
           37488         2.63908
           37489         2.63840
           37490         2.64281
           37491         2.63802
           37492         2.63857
           37493         2.64289
           37494         2.63862
           37495         2.63721
           37496         2.63669
           37497         2.63761
           37498         2.64225
           37499         2.63971
           37500         2.63540
           37501         2.63885
           37502         2.63783
           37503         2.64234
           37504         2.63688
           37505     942.679E-03
           37506     873.379E-03
           37507         1.04996
           37508         1.12022
           37509     973.810E-03
           37510     992.987E-03
           37511     848.455E-03
           37512         1.02190
           37513         1.19469
           37514         1.16655
           37515         1.06550
           37516         1.17596
           37517     982.332E-03
           37518         1.01800
           37519         1.10179
           37520         5.75339
           37521         5.86292
           37522         5.65444
           37523         5.60701
           37524         5.54202
           37525         5.52407
           37526         5.46367
           37527         5.52868
           37528         5.60986
           37529         5.68022
           37530         5.57955
           37531         5.66742
           37532         5.57026
           37533         5.60402
           37534         5.54351
           37535         5.43974
           37536     57.2626E-03
           37537         5.36363
           37538         5.26142
           37539         5.38546
           37540         5.32417
           37541         5.71453
           37542         5.56039
           37543     923.771E-03
           37544     877.419E-03
           37545     891.551E-03
           37546     821.209E-03
           37547     869.316E-03
           37548     853.448E-03
           37549         6.39266
           37550         6.62553
           37551         6.68791
           37552         6.81866
           37553         6.57864
           37554         6.51667
           37555         6.24277
           37556         6.20096
           37557         6.38616
           37558         6.26676
           37559         6.42946
           37560         6.85303
           37561         6.61209
           37562         6.74076
           37563         6.17039
           37564         6.35368
           37565         6.28893
           37566         2.96744
           37567         2.86953
           37568         2.78067
           37569         2.83200
           37570         2.87927
           37571         2.73295
           37572         2.68573
           37573         2.78903
           37574         2.83935
           37575         2.65207
           37576     762.177E-03
           37577     789.057E-03
           37578     741.141E-03
           37579     656.956E-03
           37580     989.234E-03
           37581         1.09133
           37582     914.194E-03
           37583     636.946E-03
           37584     606.943E-03
           37585         1.13805
           37586     935.899E-03
           37587     923.457E-03
           37588     812.968E-03
           37589         1.00835
           37590     541.932E-03
           37591     851.877E-03
           37592     734.437E-03
           37593     807.301E-03
           37594         1.49516
           37595         1.56342
           37596         1.43728
           37597         1.55226
           37598         1.48464
           37599         1.61008
           37600     392.442E-03
           37601     321.745E-03
           37602     310.597E-03
           37603     393.822E-03
           37604     380.612E-03
           37605     379.919E-03
           37606     446.623E-03
           37607     404.392E-03
           37608     366.786E-03
           37609     293.398E-03
           37610         5.18065
           37611         5.25438
           37612         5.16373
           37613         5.13553
           37614         5.12386
           37615         5.28512
           37616         5.08662
           37617         5.09810
           37618         5.04398
           37619         5.10327
           37620         5.08811
           37621         5.09408
           37622         5.10596
           37623         5.04590
           37624         3.16116
           37625         3.12325
           37626         3.14065
           37627         3.17969
           37628         3.24153
           37629         3.33833
           37630         3.33747
           37631         3.07501
           37632         3.02431
           37633         3.12096
           37634         3.34137
           37635         3.24506
           37636         3.34827
           37637         3.69766
           37638         3.72516
           37639         3.18215
           37640         3.25835
           37641         3.52623
           37642         3.48639
           37643         3.37600
           37644         3.46072
           37645         3.20882
           37646         3.05828
           37647         3.15219
           37648         3.01462
           37649         3.16621
           37650         3.37268
           37651         3.48307
           37652         3.60356
           37653         3.45242
           37654         1.54866
           37655         1.64202
           37656         1.58031
           37657         1.60160
           37658         1.57161
           37659         1.40280
           37660         1.51925
           37661         1.61357
           37662         1.58027
           37663         1.63816
           37664         1.54465
           37665         1.56738
           37666         1.48041
           37667         1.51922
           37668         1.48016
           37669         1.61380
           37670         1.57651
           37671         1.60944
           37672         1.65179
           37673         1.63166
           37674         1.72120
           37675         1.65938
           37676         1.66414
           37677         1.70593
           37678         1.73341
           37679         1.73890
           37680         1.46602
           37681         1.57151
           37682         1.60434
           37683         1.52588
           37684         1.70657
           37685         1.68543
           37686         4.00037
           37687         4.03138
           37688         3.95352
           37689         3.95902
           37690         3.92832
           37691         4.00495
           37692         3.79326
           37693         3.78741
           37694         3.73020
           37695         3.78941
           37696         3.75423
           37697         3.81209
           37698         3.86293
           37699         3.80338
           37700         5.60059
           37701         6.10122
           37702         5.74497
           37703         5.87862
           37704         5.40039
           37705         5.73691
           37706         5.04792
           37707         4.79148
           37708         5.00253
           37709         4.76402
           37710         5.00928
           37711         4.79842
           37712         5.49685
           37713         5.79099
           37714         5.55558
           37715         5.56785
           37716         5.29422
           37717         5.50391
           37718     50.6011E-03
           37719     38.2488E-03
           37720         5.21239
           37721         5.00190
           37722         4.94610
           37723         2.78024
           37724         2.75642
           37725         2.73932
           37726         2.75767
           37727         2.78101
           37728         5.61420
           37729         5.75713
           37730         5.71051
           37731         5.81968
           37732         5.66987
           37733         5.71832
           37734         5.50097
           37735         5.45679
           37736         5.52215
           37737         5.58636
           37738         5.63888
           37739         5.56305
           37740         5.51416
           37741         5.55544
           37742         5.63816
           37743         5.58602
           37744         5.45688
           37745         5.50269
           37746         5.56484
           37747         1.34972
           37748         1.17736
           37749         1.25364
           37750         1.22709
           37751         1.40032
           37752         1.32316
           37753         1.36039
           37754         1.27291
           37755         1.34098
           37756         1.16779
           37757         1.18612
           37758         1.57425
           37759         1.73535
           37760         1.58493
           37761         1.59818
           37762         1.43904
           37763         1.58478
           37764         1.48383
           37765         1.56229
           37766         1.45727
           37767         1.38129
           37768         1.59453
           37769         1.55219
           37770         1.51534
           37771         1.39030
           37772         1.54758
           37773         1.82357
           37774         1.67241
           37775         1.70139
           37776         2.74762
           37777         2.75847
           37778         2.74885
           37779         2.74618
           37780         2.73721
           37781         2.74458
           37782         2.73838
           37783         2.74607
           37784         2.74132
           37785         2.73416
           37786         2.73235
           37787         2.75113
           37788         2.76119
           37789         2.74999
           37790         2.72775
           37791         2.72597
           37792         2.72078
           37793         2.73038
           37794         2.72471
           37795         2.73203
           37796         2.72237
           37797         2.74099
           37798         2.73366
           37799         2.73216
           37800         8.66116
           37801         8.59512
           37802         8.66926
           37803         8.98165
           37804         8.90322
           37805         5.78093
           37806         5.77211
           37807         5.82402
           37808         5.79162
           37809         5.80270
           37810         5.74703
           37811         5.78771
           37812         5.88072
           37813         5.81750
           37814         5.91051
           37815         5.68302
           37816         5.74095
           37817         5.77145
           37818         5.73806
           37819         5.70143
           37820         5.74200
           37821         1.27565
           37822         1.48370
           37823         1.34265
           37824         5.68176
           37825         5.70142
           37826         5.63942
           37827     95.0480E-03
           37828     96.6486E-03
           37829     80.8560E-03
           37830     70.5295E-03
           37831     68.7578E-03
           37832     84.5207E-03
           37833     94.2437E-03
           37834     116.904E-03
           37835     114.795E-03
           37836     131.125E-03
           37837     98.3202E-03
           37838     126.244E-03
           37839     104.998E-03
           37840     66.4207E-03
           37841     85.3904E-03
           37842     66.7506E-03
           37843         6.42724
           37844         6.29606
           37845         6.28343
           37846         6.12271
           37847         6.24741
           37848         6.25991
           37849         6.37760
           37850         6.24768
           37851         6.39125
           37852         6.52197
           37853         6.49049
           37854         6.15461
           37855         6.18892
           37856         6.06447
           37857     479.019E-03
           37858     408.481E-03
           37859     392.552E-03
           37860     504.669E-03
           37861     457.582E-03
           37862     519.039E-03
           37863     416.589E-03
           37864     450.034E-03
           37865     390.203E-03
           37866     353.437E-03
           37867     316.002E-03
           37868     462.640E-03
           37869     393.631E-03
           37870     399.353E-03
           37871     511.528E-03
           37872         1.50670
           37873         1.43204
           37874         1.54726
           37875         1.73214
           37876         1.73524
           37877         1.73276
           37878         1.80300
           37879         1.80038
           37880         1.80403
           37881         1.87046
           37882         1.93318
           37883         1.93350
           37884         1.93805
           37885         1.87532
           37886         1.82277
           37887         1.75673
           37888         1.80289
           37889         1.86921
           37890         1.82175
           37891         1.87611
           37892         1.89726
           37893         1.89010
           37894         1.96826
           37895         1.94641
           37896         1.95330
           37897         1.88990
           37898         1.94604
           37899         2.02136
           37900         1.95259
           37901         1.77200
           37902         1.83812
           37903         1.83955
           37904         1.80398
           37905         1.79206
           37906         1.71442
           37907         1.80600
           37908         1.78604
           37909         2.45746
           37910         2.46547
           37911         2.47930
           37912         2.45808
           37913         2.47184
           37914         2.39879
           37915         2.43669
           37916         2.43114
           37917         2.51464
           37918         2.50474
           37919         2.51659
           37920         2.50365
           37921         2.50163
           37922         2.48967
           37923         2.50308
           37924         2.48660
           37925         2.47078
           37926         2.47583
           37927         2.47975
           37928         2.49550
           37929         2.49171
           37930         2.48751
           37931         2.48870
           37932         2.49157
           37933         2.47770
           37934         2.47622
           37935         2.47286
           37936         2.50518
           37937         2.50232
           37938         2.72073
           37939         2.72504
           37940         2.73120
           37941         2.72520
           37942         2.72376
           37943         2.71083
           37944         2.71265
           37945         2.70768
           37946         5.06179
           37947         5.02654
           37948         5.04359
           37949         5.02462
           37950         5.05779
           37951         5.03633
           37952         5.05376
           37953         5.03085
           37954         5.03139
           37955         5.10312
           37956         5.14718
           37957         5.07628
           37958         5.10386
           37959         5.08054
           37960         5.07143
           37961         5.06700
           37962         5.07112
           37963         5.05750
           37964         5.07734
           37965         5.08698
           37966     45.7262E-03
           37967     23.9839E-03
           37968     41.0089E-03
           37969     53.1137E-03
           37970     58.5239E-03
           37971     65.7035E-03
           37972     60.5072E-03
           37973     54.3074E-03
           37974     55.5822E-03
           37975     41.6101E-03
           37976     24.4442E-03
           37977         2.59023
           37978         2.58535
           37979         2.56841
           37980         2.59540
           37981         2.56894
           37982         2.60552
           37983         2.58698
           37984         2.58204
           37985         1.96698
           37986         1.90292
           37987         1.93297
           37988         1.86740
           37989         1.83897
           37990         1.77857
           37991         1.91512
           37992         1.94600
           37993         2.13308
           37994         2.24796
           37995         2.38625
           37996         2.41722
           37997         2.30062
           37998         1.98890
           37999         2.09132
           38000         2.35199
           38001         2.48047
           38002         2.38364
           38003         2.57498
           38004         2.44410
           38005         2.54864
           38006         2.44188
           38007         2.36645
           38008         2.36780
           38009         2.34985
           38010         2.27375
           38011         2.41675
           38012         2.37810
           38013         2.17362
           38014         2.34073
           38015         5.13995
           38016         5.30559
           38017         5.16942
           38018         5.21912
           38019         5.05626
           38020         5.18952
           38021         4.73871
           38022         4.82506
           38023         4.68547
           38024         4.86229
           38025         4.77498
           38026         4.92002
           38027         5.02454
           38028         5.11283
           38029         5.14351
           38030         5.03728
           38031         4.94960
           38032         5.30115
           38033         5.13575
           38034         5.16543
           38035         5.19910
           38036         5.27712
           38037         4.88919
           38038         5.00864
           38039         3.32456
           38040         3.17751
           38041         3.39975
           38042         3.35628
           38043         3.50369
           38044         3.28283
           38045         3.64265
           38046         3.60755
           38047         3.64076
           38048         3.67705
           38049         3.77972
           38050         3.44741
           38051         3.49320
           38052         3.44344
           38053         3.31005
           38054     904.071E-03
           38055         5.04358
           38056         5.01567
           38057         5.05830
           38058         5.05533
           38059         5.04248
           38060         5.01365
           38061         5.02046
           38062         5.04893
           38063         5.01721
           38064         5.01839
           38065         5.07271
           38066         5.06680
           38067         5.06842
           38068         5.11019
           38069         5.12116
           38070         5.11496
           38071         5.21252
           38072         5.16941
           38073         5.04821
           38074     27.9253E-03
           38075     36.0598E-03
           38076     18.6246E-03
           38077     22.7930E-03
           38078     31.0759E-03
           38079     38.3685E-03
           38080     21.3936E-03
           38081     35.9205E-03
           38082     19.5827E-03
           38083         3.42158
           38084         3.47114
           38085         3.49401
           38086         3.44512
           38087         3.36005
           38088         3.53196
           38089         3.52970
           38090         3.46026
           38091         3.64347
           38092         3.52467
           38093         3.60578
           38094         3.59679
           38095         3.46738
           38096         7.12304
           38097         7.49481
           38098         7.32094
           38099         7.46338
           38100         7.09760
           38101         7.25055
           38102         6.64281
           38103         6.87354
           38104         6.73251
           38105         6.98628
           38106         6.74306
           38107         6.88348
           38108         7.02490
           38109         7.40491
           38110         7.35183
           38111         6.96462
           38112         7.02657
           38113         6.86035
           38114         6.83138
           38115         6.61023
           38116         6.76880
           38117         6.78254
           38118         6.83415
           38119         6.59999
           38120         6.69140
           38121         6.50860
           38122         6.64515
           38123         6.55243
           38124         6.73538
           38125         1.24986
           38126         1.17622
           38127         1.08265
           38128         1.20105
           38129         1.19088
           38130         1.30133
           38131     956.237E-03
           38132         1.02316
           38133     999.306E-03
           38134         1.27118
           38135         1.67181
           38136         1.29106
           38137         1.53955
           38138         1.51085
           38139     969.811E-03
           38140     956.432E-03
           38141         1.18499
           38142         1.19531
           38143         1.19731
           38144     963.534E-03
           38145         1.29999
           38146         1.30323
           38147     985.346E-03
           38148         1.10086
           38149         2.55957
           38150         2.57974
           38151         2.51501
           38152         2.63076
           38153         2.64454
           38154         2.61931
           38155         2.62998
           38156         2.64245
           38157         2.59536
           38158         2.62634
           38159         2.51438
           38160         2.52344
           38161         2.64416
           38162         2.61675
           38163         2.63273
           38164         2.62089
           38165         2.64623
           38166         5.25942
           38167         5.20694
           38168         5.24818
           38169         5.22025
           38170         5.27279
           38171         5.24479
           38172         5.21472
           38173         5.26359
           38174         5.27964
           38175         5.28974
           38176         5.28242
           38177         5.26326
           38178         5.24840
           38179         5.30494
           38180         5.23215
           38181         5.21329
           38182         1.15562
           38183         1.08033
           38184         1.11130
           38185         1.19549
           38186         1.27042
           38187         1.23990
           38188         5.32119
           38189         5.34198
           38190         5.36763
           38191     201.245E-03
           38192     214.257E-03
           38193     80.3558E-03
           38194     61.2225E-03
           38195     91.2170E-03
           38196     71.8159E-03
           38197     60.7137E-03
           38198     119.743E-03
           38199     91.3872E-03
           38200     75.9333E-03
           38201     94.5773E-03
           38202     64.4046E-03
           38203     140.819E-03
           38204     123.695E-03
           38205     103.110E-03
           38206     717.085E-03
           38207     795.738E-03
           38208     735.207E-03
           38209     750.457E-03
           38210     670.460E-03
           38211     733.530E-03
           38212     581.077E-03
           38213     567.737E-03
           38214     590.650E-03
           38215     685.436E-03
           38216     764.740E-03
           38217     769.501E-03
           38218     693.685E-03
           38219     721.660E-03
           38220     607.752E-03
           38221     615.140E-03
           38222     574.283E-03
           38223     565.094E-03
           38224     520.842E-03
           38225     676.492E-03
           38226     636.217E-03
           38227     95.2971E-03
           38228     143.107E-03
           38229     127.876E-03
           38230     144.795E-03
           38231     98.5034E-03
           38232     127.810E-03
           38233     68.4829E-03
           38234     45.9693E-03
           38235     60.5738E-03
           38236     44.3603E-03
           38237     68.2917E-03
           38238     69.8699E-03
           38239     107.712E-03
           38240     109.668E-03
           38241     78.3512E-03
           38242     111.659E-03
           38243     111.606E-03
           38244     147.715E-03
           38245     59.5655E-03
           38246     61.2459E-03
           38247         3.88505
           38248         4.00038
           38249         3.95524
           38250         4.13323
           38251         6.14229
           38252         6.07054
           38253         6.11741
           38254         6.01751
           38255         6.08731
           38256         6.04043
           38257         6.15052
           38258         6.20225
           38259         6.13113
           38260         6.19583
           38261         6.13937
           38262         6.14421
           38263         6.35197
           38264         5.96413
           38265         6.06110
           38266         6.00929
           38267         6.03768
           38268         6.06459
           38269         5.99225
           38270         6.12329
           38271         2.94424
           38272         2.97113
           38273         2.94279
           38274         2.90570
           38275         2.93368
           38276         2.88376
           38277         2.85860
           38278         2.89070
           38279         2.90098
           38280         2.92724
           38281         2.89395
           38282         2.87005
           38283         2.84028
           38284         2.87481
           38285         2.84584
           38286         2.83660
           38287         2.87977
           38288         2.85475
           38289         2.92632
           38290         2.90010
           38291         2.88899
           38292         2.54366
           38293         2.55424
           38294         2.55442
           38295         2.54968
           38296         2.54930
           38297         2.55632
           38298         2.54579
           38299         2.55203
           38300         2.56088
           38301         8.11634
           38302         8.18089
           38303         8.50479
           38304         8.47569
           38305         8.44170
           38306         7.97001
           38307         8.02581
           38308         7.87706
           38309         8.00710
           38310         8.21990
           38311         8.36804
           38312         8.23812
           38313         8.47458
           38314         8.50521
           38315         8.13435
           38316         8.45829
           38317         1.43979
           38318         1.37722
           38319         1.38919
           38320         1.33668
           38321         1.39936
           38322         1.39237
           38323         1.42536
           38324         1.41593
           38325         1.35207
           38326         1.41392
           38327         1.38929
           38328         1.42742
           38329         1.36549
           38330         1.50924
           38331         1.57054
           38332         1.51392
           38333         1.54919
           38334         1.48593
           38335         1.54176
           38336         1.55842
           38337         1.49453
           38338         1.53291
           38339         1.47795
           38340         1.54132
           38341         1.55390
           38342         1.49264
           38343         1.51753
           38344         1.23645
           38345         1.50941
           38346         1.70004
           38347         1.56452
           38348         1.53785
           38349         1.34897
           38350         1.48122
           38351         1.74645
           38352         1.61068
           38353         1.80341
           38354         1.20596
           38355         1.15087
           38356         1.11160
           38357         1.27943
           38358         1.30975
           38359         1.36335
           38360         1.43184
           38361         1.56306
           38362         1.43889
           38363         1.70845
           38364         1.47214
           38365         1.51848
           38366         1.65916
           38367         1.26196
           38368         1.31773
           38369         3.87378
           38370         3.96354
           38371         3.94821
           38372         3.83017
           38373         3.74547
           38374         3.75623
           38375         3.92949
           38376         3.94379
           38377         3.77981
           38378         3.76662
           38379         3.83450
           38380         4.11387
           38381         4.02723
           38382         4.14810
           38383         3.98587
           38384         4.06855
           38385         3.80187
           38386         3.64979
           38387         3.74290
           38388         4.00155
           38389         3.84077
           38390         3.95526
           38391         4.11131
           38392         3.97763
           38393         1.70906
           38394         4.12246
           38395         4.11908
           38396         4.09852
           38397         4.10205
           38398         4.23070
           38399         4.13009
           38400         4.18263
           38401         4.10466
           38402         4.10673
           38403         4.05482
           38404         4.13156
           38405         4.02148
           38406         4.17905
           38407         4.12678
           38408         4.12105
           38409         4.04799
           38410         4.10029
           38411     14.9643E-03
           38412     3.08152E-03
           38413     2.78580E-03
           38414     15.1287E-03
           38415     14.6170E-03
           38416     90.6590E-03
           38417     132.965E-03
           38418     125.261E-03
           38419     124.958E-03
           38420     83.0773E-03
           38421     90.6751E-03
           38422     129.818E-03
           38423     165.016E-03
           38424     117.516E-03
           38425     160.531E-03
           38426     173.237E-03
           38427     34.4682E-03
           38428     115.870E-03
           38429     128.346E-03
           38430     99.1038E-03
           38431     90.9645E-03
           38432     109.480E-03
           38433     132.889E-03
           38434         2.90366
           38435         2.97419
           38436         2.88209
           38437         2.88220
           38438         2.81660
           38439         2.90396
           38440         2.77652
           38441         2.76112
           38442         2.80053
           38443         2.77712
           38444         2.79254
           38445         2.75301
           38446         2.81125
           38447         2.87668
           38448         2.96174
           38449         2.89200
           38450         2.88660
           38451         2.81194
           38452         2.87768
           38453         2.81143
           38454         2.85899
           38455         2.84155
           38456         2.83346
           38457         2.85054
           38458         2.89287
           38459         2.73480
           38460         2.73395
           38461         2.73999
           38462         2.74074
           38463     451.232E-03
           38464     495.285E-03
           38465     477.539E-03
           38466     461.836E-03
           38467     417.817E-03
           38468     512.326E-03
           38469     473.445E-03
           38470     534.079E-03
           38471     488.903E-03
           38472     568.697E-03
           38473     514.869E-03
           38474     559.007E-03
           38475     540.361E-03
           38476     557.214E-03
           38477     478.515E-03
           38478     524.371E-03
           38479     429.474E-03
           38480     392.659E-03
           38481     499.136E-03
           38482     444.455E-03
           38483     528.458E-03
           38484     489.562E-03
           38485     564.431E-03
           38486         5.17558
           38487         5.28427
           38488         5.20308
           38489         5.16758
           38490         5.24841
           38491         5.17858
           38492         5.26100
           38493         5.17559
           38494         5.19470
           38495         5.10992
           38496         5.19800
           38497         2.80592
           38498         2.79867
           38499         2.81841
           38500         2.81883
           38501         2.82706
           38502         5.11165
           38503         5.22300
           38504         5.28648
           38505         5.19886
           38506         5.10128
           38507         5.02343
           38508         5.01057
           38509         4.92761
           38510         5.00790
           38511         5.02042
           38512         4.93858
           38513         5.01947
           38514         4.93459
           38515         5.03445
           38516         5.12132
           38517     10.9856E-03
           38518     15.3633E-03
           38519     16.2906E-03
           38520     18.3363E-03
           38521     18.9942E-03
           38522     20.2133E-03
           38523     775.664E-03
           38524     754.299E-03
           38525     747.351E-03
           38526     671.925E-03
           38527     681.632E-03
           38528     691.843E-03
           38529     757.312E-03
           38530     778.499E-03
           38531     691.239E-03
           38532     679.489E-03
           38533     669.245E-03
           38534         2.70783
           38535         2.72163
           38536         2.71207
           38537         2.73046
           38538         2.71573
           38539         2.72564
           38540         2.74087
           38541         2.72189
           38542         2.72952
           38543         2.70575
           38544         2.72327
           38545         2.68882
           38546         2.68162
           38547         2.69277
           38548         2.69957
           38549         2.69507
           38550         2.70983
           38551         2.72972
           38552         2.68202
           38553         2.73862
           38554         2.79075
           38555         2.71361
           38556         2.78736
           38557         2.86109
           38558         2.83965
           38559         2.88453
           38560         2.87179
           38561         2.80741
           38562         2.75329
           38563         2.86245
           38564         2.58619
           38565         2.57150
           38566         2.59022
           38567         2.57135
           38568         2.58598
           38569         2.56770
           38570         2.62824
           38571         2.60979
           38572         2.62263
           38573         2.60877
           38574         2.62742
           38575         2.62014
           38576         2.62940
           38577         2.63233
           38578         2.58640
           38579         2.58199
           38580         2.61311
           38581         2.61772
           38582         2.58052
           38583         5.38434
           38584         5.31331
           38585         5.30700
           38586         5.28522
           38587         5.35999
           38588         5.28614
           38589         5.26741
           38590         5.31469
           38591         5.31444
           38592         5.33790
           38593         5.39822
           38594         5.42135
           38595         5.46263
           38596         5.41181
           38597         5.43783
           38598         5.45002
           38599         5.44030
           38600         5.49914
           38601         5.45632
           38602         5.51106
           38603         5.43335
           38604         5.46916
           38605         5.43894
           38606         5.42776
           38607         5.48183
           38608         5.46460
           38609         5.46788
           38610         5.40401
           38611         5.31026
           38612         5.32313
           38613         5.25231
           38614         5.34855
           38615         5.33621
           38616         5.29260
           38617         5.38737
           38618         5.37224
           38619         5.24147
           38620         5.33944
           38621         5.26804
           38622         5.36767
           38623         5.27082
           38624         5.28733
           38625         5.41706
           38626         5.34992
           38627         5.34072
           38628         5.31187
           38629         5.32846
           38630         5.29479
           38631         5.27260
           38632         5.25416
           38633         5.28817
           38634         2.21556
           38635         2.22032
           38636         2.21788
           38637         2.15303
           38638         2.15961
           38639         2.02662
           38640         1.99914
           38641         2.12078
           38642         2.07189
           38643         2.06697
           38644         2.03340
           38645         2.08285
           38646         2.07213
           38647         2.07288
           38648         2.08079
           38649         2.01134
           38650         2.07539
           38651         2.05259
           38652         2.12249
           38653         2.06489
           38654         1.99740
           38655         2.21673
           38656         2.22056
           38657         3.36718
           38658         3.39693
           38659         3.46599
           38660         3.36617
           38661         3.33636
           38662         3.14068
           38663         3.09468
           38664         3.09184
           38665         3.19054
           38666         3.05665
           38667         3.19395
           38668         3.09554
           38669         3.10774
           38670         3.31099
           38671         3.42305
           38672         3.29856
           38673         3.38045
           38674         3.28854
           38675         3.28121
           38676         3.23720
           38677         3.18857
           38678         3.23894
           38679         3.05938
           38680         3.33921
           38681         3.27391
           38682         3.28081
           38683         3.22798
           38684         3.18501
           38685         1.81214
           38686         1.84014
           38687         1.80864
           38688         1.77622
           38689         1.78048
           38690         1.84451
           38691         1.87453
           38692         1.90497
           38693         1.73995
           38694         1.70040
           38695         1.76951
           38696         1.73793
           38697         1.77788
           38698         1.70940
           38699         1.84671
           38700         1.85186
           38701         1.78211
           38702         1.81690
           38703         3.38683
           38704         3.44228
           38705         3.49525
           38706         3.37648
           38707         3.31594
           38708         3.26227
           38709         3.70213
           38710         3.50794
           38711         3.61482
           38712         3.51031
           38713         3.56443
           38714     16.4362E-03
           38715     22.7561E-03
           38716     37.1662E-03
           38717     22.6731E-03
           38718     16.1365E-03
           38719     22.4442E-03
           38720     43.3419E-03
           38721     23.3722E-03
           38722     36.3560E-03
           38723     36.0112E-03
           38724     59.8859E-03
           38725     54.3567E-03
           38726     51.3226E-03
           38727     52.9180E-03
           38728     34.7033E-03
           38729     80.4534E-03
           38730     84.5622E-03
           38731     81.8815E-03
           38732     22.7576E-03
           38733         6.11355
           38734         6.31009
           38735         6.30398
           38736         6.12585
           38737         6.41319
           38738         6.31828
           38739         6.21743
           38740         6.50938
           38741         6.72158
           38742         6.60242
           38743         6.50452
           38744         6.49888
           38745         6.40784
           38746         6.51070
           38747         6.61038
           38748         6.50428
           38749         6.72343
           38750         6.61371
           38751     668.421E-03
           38752     603.903E-03
           38753     668.383E-03
           38754     638.993E-03
           38755     703.858E-03
           38756     638.582E-03
           38757     524.829E-03
           38758     546.115E-03
           38759         5.59044
           38760         5.59769
           38761         5.62466
           38762         5.52969
           38763         5.61629
           38764         5.59185
           38765         5.68486
           38766         5.66048
           38767         5.56954
           38768         5.65730
           38769         1.46383
           38770         5.44697
           38771         5.51634
           38772         5.49181
           38773         5.41863
           38774         5.62070
           38775         4.73980
           38776         4.80873
           38777         4.85635
           38778         4.88780
           38779         4.83561
           38780         4.85630
           38781         4.97145
           38782         4.89837
           38783         5.00121
           38784         4.95710
           38785         4.96025
           38786         4.88682
           38787         4.88697
           38788         4.78704
           38789         4.85758
           38790         4.68914
           38791         4.68793
           38792         4.68705
           38793         4.78666
           38794         4.78608
           38795         4.82223
           38796         4.73646
           38797         4.70348
           38798         4.65618
           38799         4.85554
           38800         4.89531
           38801         1.45349
           38802         1.46204
           38803         1.52468
           38804         1.49956
           38805         1.49172
           38806         1.42828
           38807         1.49116
           38808         1.48317
           38809         1.52453
           38810         1.55832
           38811         1.56622
           38812         1.60263
           38813         1.63614
           38814         1.59568
           38815         1.56011
           38816         1.62723
           38817         1.58532
           38818         1.61716
           38819         1.54859
           38820         1.59074
           38821         3.20007
           38822         3.31277
           38823         3.92016
           38824         3.61443
           38825         3.78736
           38826         3.72497
           38827         4.02381
           38828         3.49962
           38829         3.83543
           38830         4.05763
           38831         3.66763
           38832         3.34425
           38833         3.33967
           38834         3.22874
           38835         3.82867
           38836         3.73368
           38837         3.36470
           38838         3.35754
           38839         2.70397
           38840         2.70541
           38841         2.70144
           38842         2.69928
           38843         2.67742
           38844         2.66927
           38845         2.67927
           38846         2.66980
           38847         2.66614
           38848         2.64960
           38849         2.66146
           38850         3.82881
           38851         3.69262
           38852         3.78517
           38853         2.65640
           38854         2.66420
           38855         2.66402
           38856         2.23884
           38857         2.04185
           38858         2.15249
           38859         2.18212
           38860         2.37907
           38861         2.26857
           38862         2.20243
           38863         2.00526
           38864         1.97884
           38865         2.17614
           38866         2.03434
           38867         2.30008
           38868         2.40600
           38869         2.30799
           38870         1.19104
           38871         1.08412
           38872         1.12035
           38873         1.07713
           38874         1.18428
           38875         1.14882
           38876         1.26248
           38877         1.29856
           38878         1.34026
           38879         1.19297
           38880         1.21473
           38881         1.20340
           38882         1.09771
           38883         1.10859
           38884         1.27202
           38885         1.26186
           38886         3.12362
           38887         3.17262
           38888         3.14075
           38889         3.11003
           38890         3.06248
           38891         3.09272
           38892         3.22537
           38893         3.15548
           38894         3.02356
           38895         3.04370
           38896         2.96538
           38897         3.10384
           38898         5.72188
           38899         5.71745
           38900         5.72619
           38901         5.71610
           38902         5.70992
           38903         5.72311
           38904         5.71416
           38905         5.72292
           38906         5.70790
           38907         5.71795
           38908         5.70325
           38909         5.71677
           38910         5.70091
           38911         5.71516
           38912         5.69869
           38913         5.70596
           38914         5.73204
           38915         5.73606
           38916         5.73917
           38917         5.72171
           38918         5.71419
           38919         1.27101
           38920         1.29235
           38921         1.22473
           38922         1.26894
           38923         1.30260
           38924         1.17810
           38925         1.22061
           38926         1.00911
           38927     916.968E-03
           38928         1.00709
           38929     964.892E-03
           38930     968.867E-03
           38931     964.936E-03
           38932     968.420E-03
           38933         1.07611
           38934         1.13905
           38935         1.08538
           38936         1.02319
           38937         1.04588
           38938         1.00295
           38939     953.899E-03
           38940         5.46233
           38941         5.46148
           38942         5.42914
           38943         5.43156
           38944         5.51781
           38945         5.48937
           38946         5.42419
           38947         5.42753
           38948         5.43466
           38949         5.50225
           38950         5.43424
           38951         5.49900
           38952         5.50199
           38953         5.41958
           38954         5.48478
           38955         5.21822
           38956         5.29844
           38957         5.28550
           38958         5.29834
           38959         5.23010
           38960         5.26767
           38961         5.35211
           38962         5.26007
           38963         6.76113
           38964         6.92654
           38965         6.87721
           38966         7.02048
           38967         6.85368
           38968         6.89968
           38969         6.76084
           38970         6.92644
           38971         6.81801
           38972         6.65638
           38973         6.70179
           38974         6.85367
           38975         7.12081
           38976         6.97582
           38977         7.14810
           38978         7.02079
           38979         6.89950
           38980         6.70827
           38981         6.81430
           38982         6.82144
           38983         6.96131
           38984         6.84305
           38985         7.12095
           38986         7.08549
           38987         6.96174
           38988         1.30127
           38989         1.31368
           38990         1.35411
           38991         1.21720
           38992         2.37236
           38993         2.17195
           38994         2.25076
           38995         2.37428
           38996         1.35825
           38997         1.34826
           38998         1.28769
           38999         1.33195
           39000         1.36563
           39001         1.33992
           39002         1.39303
           39003         1.27199
           39004         1.24819
           39005         1.30665
           39006         1.24165
           39007         1.37930
           39008         1.33513
           39009         2.63924
           39010         2.63952
           39011         2.63606
           39012         2.64113
           39013         2.64082
           39014         2.64439
           39015         2.62262
           39016         2.62133
           39017         2.62451
           39018         2.62733
           39019         2.62821
           39020         2.62512
           39021         2.64520
           39022         2.64202
           39023         2.64701
           39024         2.64584
           39025         2.64043
           39026         2.64300
           39027         2.63584
           39028         2.64141
           39029         2.63758
           39030         2.63698
           39031         2.64088
           39032         2.63177
           39033         2.63551
           39034         2.63191
           39035         2.62845
           39036         2.28879
           39037         2.25542
           39038         2.28878
           39039         2.27765
           39040         2.31040
           39041         2.27678
           39042         1.11527
           39043         1.25872
           39044         1.13652
           39045         2.28349
           39046         2.30748
           39047         2.29161
           39048         2.28623
           39049         2.26305
           39050         2.32764
           39051         2.36529
           39052         2.35932
           39053         2.34297
           39054         2.34930
           39055         2.33606
           39056         2.37421
           39057         2.39370
           39058         2.35642
           39059         2.37041
           39060         2.37444
           39061         2.33982
           39062         2.37203
           39063         2.32792
           39064         2.31968
           39065         2.33678
           39066         3.76039
           39067         3.72795
           39068         3.81180
           39069         3.78134
           39070         3.75247
           39071         3.73378
           39072         3.77174
           39073         3.83134
           39074         3.85056
           39075         3.81231
           39076         3.69982
           39077         3.74420
           39078         3.71576
           39079         3.72569
           39080         3.81189
           39081         3.85905
           39082         3.83987
           39083         7.75051
           39084         7.98007
           39085         7.05347
           39086         7.84354
           39087         7.58603
           39088         7.07641
           39089         7.97193
           39090         8.11712
           39091         7.20623
           39092         7.46028
           39093         2.74160
           39094         2.75971
           39095         2.80345
           39096         2.76751
           39097         2.75081
           39098         2.81724
           39099         5.63922
           39100         5.66347
           39101         5.66941
           39102         5.64522
           39103         5.61968
           39104         5.61353
           39105         5.67049
           39106         5.66392
           39107         5.61312
           39108         5.61869
           39109         5.64503
           39110         5.60987
           39111         5.56521
           39112         5.59573
           39113         5.55095
           39114         5.59581
           39115         5.56452
           39116         5.63355
           39117         5.64398
           39118         5.65471
           39119         5.71984
           39120         5.70644
           39121         5.69968
           39122         5.58571
           39123         5.60650
           39124         4.83029
           39125         4.73296
           39126         4.84191
           39127         4.87196
           39128         4.76241
           39129         4.81249
           39130         4.73119
           39131         4.85597
           39132         4.93066
           39133         4.91567
           39134         4.96713
           39135         4.95524
           39136         4.89315
           39137         4.12783
           39138         4.08944
           39139         4.23875
           39140         4.19431
           39141         4.23571
           39142         4.08093
           39143         4.28841
           39144         3.98498
           39145         3.97595
           39146         4.20365
           39147         4.22101
           39148         4.02744
           39149         4.01686
           39150         4.43356
           39151         4.52238
           39152         4.35799
           39153         4.36421
           39154         4.63490
           39155         4.51100
           39156         4.68901
           39157         4.58036
           39158         4.69947
           39159         4.66881
           39160         4.65696
           39161         4.58752
           39162         4.66882
           39163         4.77155
           39164         4.77248
           39165         4.98216
           39166         4.87649
           39167         4.80484
           39168         2.43204
           39169         2.43366
           39170         2.37287
           39171         2.44595
           39172         2.39235
           39173         2.43246
           39174         2.41025
           39175         2.40830
           39176         2.25435
           39177         2.31441
           39178         2.30700
           39179         2.29137
           39180         2.34821
           39181         2.36209
           39182         2.45093
           39183         2.42689
           39184         2.45528
           39185         2.29136
           39186         2.25010
           39187         2.31671
           39188         2.29365
           39189         8.01795
           39190         8.20879
           39191         8.33721
           39192         8.11686
           39193         8.14116
           39194         8.72044
           39195         8.49293
           39196         8.46460
           39197         8.49566
           39198         8.72264
           39199         8.75444
           39200         8.01339
           39201         7.94887
           39202         7.91003
           39203         8.39071
           39204         8.59527
           39205         8.62042
           39206         8.58925
           39207         8.90283
           39208         8.86675
           39209         8.55420
           39210         8.72855
           39211         4.98676
           39212         5.08782
           39213         5.06351
           39214         5.32513
           39215         5.22341
           39216         5.25085
           39217         5.37069
           39218         5.52498
           39219         5.49568
           39220         5.45524
           39221         5.30336
           39222         5.47151
           39223         5.42690
           39224         5.26708
           39225         5.34676
           39226         5.25283
           39227         5.33121
           39228         5.13147
           39229         5.22663
           39230         5.14252
           39231         5.60169
           39232         5.54679
           39233         5.37343
           39234         5.28333
           39235         5.74754
           39236         5.58704
           39237         5.53415
           39238         5.59314
           39239         5.62348
           39240         5.61168
           39241         4.16865
           39242         4.71001
           39243         5.24540
           39244         5.09330
           39245         4.51526
           39246         4.08956
           39247         5.31582
           39248         5.95301
           39249         6.93559
           39250         6.69206
           39251         6.09589
           39252         5.20103
           39253         4.57614
           39254         5.37591
           39255         4.81931
           39256         7.50108
           39257         10.2470
           39258         7.46230
           39259         10.2502
           39260         7.63098
           39261         7.03943
           39262         5.62433
           39263         7.70912
           39264         2.71162
           39265         2.72396
           39266         2.70838
           39267         2.70598
           39268         2.69502
           39269         2.70935
           39270         2.75107
           39271         2.72597
           39272         2.74185
           39273         2.73574
           39274         2.74898
           39275         2.73615
           39276         2.72594
           39277         2.75033
           39278         2.74147
           39279         2.70596
           39280         2.69306
           39281         2.68816
           39282         2.70051
           39283         2.68825
           39284         3.37130
           39285         3.38149
           39286         3.41639
           39287         3.35081
           39288         3.34083
           39289         3.30908
           39290         3.41674
           39291         3.45952
           39292         3.45753
           39293         3.41028
           39294         3.45586
           39295         5.24586
           39296         5.30346
           39297         5.31034
           39298         5.31906
           39299         5.25567
           39300         5.25951
           39301         5.28151
           39302         5.31309
           39303         5.28725
           39304         5.34450
           39305         5.31969
           39306         5.34355
           39307         5.37081
           39308         5.17490
           39309         5.21514
           39310         5.21603
           39311         5.20878
           39312         5.35274
           39313         5.32826
           39314         5.30538
           39315         5.41400
           39316         5.43373
           39317         5.48075
           39318         5.46386
           39319         5.43939
           39320         5.42439
           39321         5.41622
           39322         5.40052
           39323         5.41280
           39324         5.38552
           39325         3.05145
           39326         2.99720
           39327         3.02638
           39328         2.97499
           39329         3.02726
           39330         2.99843
           39331         3.12353
           39332         3.10763
           39333         3.06813
           39334         3.03865
           39335         3.05282
           39336         3.09240
           39337         3.03722
           39338         3.08971
           39339         3.10486
           39340         3.07301
           39341         2.99855
           39342         2.99966
           39343         5.62912
           39344         5.55947
           39345         5.58483
           39346         5.58102
           39347         5.64855
           39348         5.62380
           39349         5.62267
           39350         5.62818
           39351         5.65057
           39352         5.67500
           39353         5.67231
           39354         5.57324
           39355         5.59864
           39356         5.52755
           39357         5.57218
           39358         5.57684
           39359         5.60227
           39360         5.67248
           39361         5.67521
           39362         5.65155
           39363         5.57927
           39364         5.60583
           39365         2.86183
           39366         2.80634
           39367         2.85307
           39368         2.81382
           39369         2.86892
           39370         2.82286
           39371         2.91046
           39372         2.89160
           39373         2.89380
           39374         2.92921
           39375         2.86800
           39376         2.91079
           39377         2.86107
           39378         2.92090
           39379         2.86889
           39380         2.91192
           39381         2.92058
           39382         2.57311
           39383         2.59212
           39384         2.56764
           39385         2.58190
           39386         2.56359
           39387         2.58858
           39388         2.57471
           39389         2.55687
           39390         2.57048
           39391         2.51540
           39392         2.51460
           39393         2.53395
           39394         2.52426
           39395         2.54493
           39396         2.51934
           39397         2.52559
           39398         2.53419
           39399         2.52858
           39400         5.11941
           39401         4.76048
           39402         5.15118
           39403         4.98582
           39404         5.34737
           39405         4.95519
           39406     216.435E-03
           39407         5.94063
           39408         5.92449
           39409         6.06475
           39410         5.76249
           39411         5.79137
           39412         5.66412
           39413         5.26885
           39414         5.43608
           39415         5.48524
           39416         5.33405
           39417         5.09852
           39418         5.67809
           39419         5.39205
           39420         5.60671
           39421         5.01945
           39422         4.97648
           39423         6.67357
           39424         6.38329
           39425         6.43093
           39426         6.27819
           39427         6.55761
           39428         6.51163
           39429         6.95955
           39430         7.25450
           39431         6.98921
           39432         7.34606
           39433         7.04761
           39434         7.30509
           39435         7.03479
           39436         7.32979
           39437         7.30074
           39438         6.67990
           39439         6.95453
           39440         7.00010
           39441         6.63266
           39442         6.95097
           39443         5.91085
           39444         6.01300
           39445         6.01648
           39446         6.16812
           39447         6.05188
           39448         6.04930
           39449         6.24385
           39450         6.06658
           39451         6.07407
           39452         5.92107
           39453         6.07651
           39454         5.80136
           39455         5.70909
           39456         5.80934
           39457         5.70025
           39458         5.79391
           39459         5.69235
           39460         5.80581
           39461         5.76611
           39462         5.76974
           39463         5.68090
           39464         5.92763
           39465         5.82070
           39466         5.81282
           39467         5.56684
           39468         5.51794
           39469         5.57717
           39470         5.51041
           39471         5.56044
           39472         5.49532
           39473         5.68325
           39474         5.68909
           39475         5.69027
           39476         5.66692
           39477         5.65683
           39478         5.65716
           39479         5.59339
           39480         5.58227
           39481         5.64978
           39482         5.73645
           39483         5.77164
           39484         5.78382
           39485         5.77416
           39486         5.73720
           39487         5.68706
           39488         5.69111
           39489         5.72657
           39490         5.72643
           39491     312.370E-03
           39492         5.75729
           39493         5.70982
           39494         3.46214
           39495         3.16274
           39496         3.08657
           39497         3.18237
           39498         3.10270
           39499         3.17633
           39500         3.08307
           39501         3.72411
           39502         3.71605
           39503         3.71262
           39504         3.46558
           39505         3.43929
           39506         3.57587
           39507         3.61442
           39508         3.63842
           39509         3.49484
           39510         3.76354
           39511         3.72881
           39512         3.86908
           39513         3.74277
           39514         3.77467
           39515         5.87449
           39516         5.85332
           39517         5.74248
           39518         5.76981
           39519         5.77773
           39520         5.75028
           39521         5.80440
           39522         5.77834
           39523     627.016E-03
           39524     659.407E-03
           39525     734.381E-03
           39526     800.517E-03
           39527     705.243E-03
           39528     624.568E-03
           39529     925.104E-03
           39530     597.293E-03
           39531         7.74914
           39532         7.45131
           39533         8.03988
           39534         7.64444
           39535         8.59167
           39536         9.01983
           39537         8.81097
           39538         8.42195
           39539         8.64480
           39540         8.68400
           39541         9.11796
           39542         9.04210
           39543         8.61804
           39544         8.90749
           39545     208.074E-03
           39546         8.87852
           39547         8.82748
           39548         8.88864
           39549         8.47612
           39550         8.44873
           39551         3.82719
           39552         3.92091
           39553         4.07015
           39554         4.07823
           39555         3.99241
           39556         3.84077
           39557         3.75840
           39558         3.74676
           39559         3.61537
           39560         1.97325
           39561         2.11542
           39562         1.91461
           39563         3.61379
           39564         3.57281
           39565         3.56829
           39566         3.79050
           39567         3.79423
           39568         4.13789
           39569         4.04882
           39570         3.89777
           39571         3.54525
           39572         3.72451
           39573         3.54637
           39574         4.02795
           39575         3.76519
           39576         3.83305
           39577         4.21916
           39578         4.25222
           39579         4.06793
           39580         4.03096
           39581         4.25526
           39582         3.84131
           39583         1.50805
           39584         1.36266
           39585         1.34527
           39586         1.48816
           39587         1.39775
           39588         1.54751
           39589         1.45562
           39590         1.65307
           39591         1.60493
           39592         1.54182
           39593         1.80982
           39594         1.77650
           39595         1.87598
           39596         1.69712
           39597         2.13996
           39598         2.37274
           39599         2.38728
           39600         2.39280
           39601         2.29567
           39602         2.27941
           39603         2.22163
           39604         2.37140
           39605         2.28641
           39606         2.07638
           39607         2.21518
           39608         2.28569
           39609         2.14138
           39610         2.13288
           39611         2.02317
           39612         2.08990
           39613         2.03206
           39614         2.12955
           39615         2.06027
           39616         2.01607
           39617         2.22134
           39618         2.30807
           39619         2.33214
           39620         2.30188
           39621         1.98993
           39622         1.85239
           39623         1.94635
           39624         1.89302
           39625         1.93547
           39626         5.02754
           39627         5.18628
           39628         4.92016
           39629         5.29282
           39630         5.10272
           39631         5.39197
           39632         4.86098
           39633         5.12959
           39634         5.21453
           39635         4.79434
           39636         4.61794
           39637         4.34595
           39638         4.46060
           39639         4.62511
           39640         4.92847
           39641         4.77852
           39642         5.10206
           39643         4.54485
           39644         4.41059
           39645         4.61829
           39646         4.56550
           39647         4.68746
           39648         4.47778
           39649         4.81016
           39650         4.87578
           39651         4.78845
           39652         4.98068
           39653         5.18642
           39654         5.06249
           39655         4.79531
           39656         4.96478
           39657         4.58765
           39658         2.92069
           39659         2.93090
           39660         2.94837
           39661         2.92191
           39662         2.91233
           39663         2.97004
           39664         2.94198
           39665         2.96040
           39666         2.95368
           39667         2.91584
           39668         2.93892
           39669         2.92664
           39670         2.96553
           39671         2.89336
           39672         2.90655
           39673         2.96982
           39674         2.93029
           39675         2.94898
           39676         2.86101
           39677         2.89320
           39678         2.87199
           39679         2.88940
           39680         2.85810
           39681         2.87894
           39682         3.14315
           39683         3.19850
           39684         3.00728
           39685         3.13621
           39686         3.08528
           39687         3.27420
           39688         2.89230
           39689         2.73456
           39690         2.79225
           39691         2.74289
           39692         2.89631
           39693         2.84447
           39694         2.83644
           39695         2.77260
           39696         2.87856
           39697         2.89438
           39698         2.93869
           39699         4.43336
           39700         4.38920
           39701         4.39855
           39702         3.81872
           39703         3.92854
           39704         3.90139
           39705         4.24957
           39706         3.97938
           39707         4.24362
           39708         3.86092
           39709         3.70669
           39710         3.66242
           39711         3.80255
           39712         2.62488
           39713         2.62361
           39714         2.62265
           39715         2.62582
           39716         2.62819
           39717         2.62075
           39718         2.61966
           39719         2.62229
           39720         2.61854
           39721         2.62330
           39722         2.62832
           39723         2.63394
           39724         2.63014
           39725         2.63403
           39726         2.62711
           39727         2.63109
           39728         2.62224
           39729         2.62500
           39730         2.62676
           39731         2.62320
           39732         2.62140
           39733         2.61852
           39734         2.62787
           39735         2.62558
           39736         2.63354
           39737         2.63056
           39738         5.25293
           39739         5.19890
           39740         5.24222
           39741         5.22994
           39742         5.27479
           39743         5.23259
           39744         5.27838
           39745         5.23148
           39746         5.19976
           39747         5.25062
           39748         5.23469
           39749         5.15449
           39750         5.23342
           39751         5.20961
           39752         5.15538
           39753         5.23933
           39754         5.20451
           39755         5.38238
           39756         5.33590
           39757         5.38158
           39758         5.42584
           39759         5.33651
           39760         5.37667
           39761         2.16359
           39762         2.20120
           39763         2.20585
           39764         2.23163
           39765         2.19150
           39766         2.18680
           39767         2.24134
           39768         2.22629
           39769         2.24885
           39770         2.26401
           39771         2.26107
           39772         2.49954
           39773         2.46101
           39774         2.47096
           39775         2.20399
           39776         2.24640
           39777         2.25048
           39778         2.20641
           39779         2.29558
           39780         2.33904
           39781         2.20593
           39782         2.20320
           39783         2.21237
           39784         2.72474
           39785         2.92269
           39786         3.03264
           39787         2.97692
           39788         2.95734
           39789         2.85338
           39790         2.91424
           39791         2.83846
           39792         2.89999
           39793         2.81559
           39794         2.73010
           39795         2.74536
           39796         2.99702
           39797         2.97315
           39798         2.98520
           39799         2.89451
           39800         3.01527
           39801         3.02850
           39802         2.93875
           39803         6.01510
           39804         6.05983
           39805         5.99048
           39806         6.27374
           39807         6.28231
           39808         6.20646
           39809         6.14407
           39810         6.13953
           39811         6.21121
           39812         6.20309
           39813         6.27941
           39814         6.13982
           39815         6.11446
           39816         6.05950
           39817         6.12196
           39818         6.26500
           39819         6.07759
           39820         6.13375
           39821         6.13782
           39822         6.64866
           39823         6.83722
           39824         6.60871
           39825         6.94584
           39826         6.75224
           39827         6.98748
           39828         6.29929
           39829         6.13371
           39830         6.25548
           39831         6.08288
           39832         6.24112
           39833         6.11910
           39834         6.41538
           39835         6.24132
           39836         6.28655
           39837         6.37790
           39838         6.42947
           39839         6.47827
           39840         6.28862
           39841         6.19341
           39842         6.52160
           39843         6.58537
           39844         6.63111
           39845         1.39403
           39846         1.43255
           39847         1.50099
           39848         6.44575
           39849         6.39590
           39850         6.20907
           39851         3.68127
           39852         3.85098
           39853         3.82853
           39854         3.79820
           39855         3.72023
           39856         3.78132
           39857         3.80317
           39858         3.75980
           39859         3.66469
           39860         3.54722
           39861         3.54732
           39862         3.69151
           39863         3.74451
           39864         2.65632
           39865         2.66216
           39866         2.66443
           39867         2.66690
           39868         2.65874
           39869         2.66059
           39870         2.66942
           39871         2.66537
           39872         2.66738
           39873         2.66766
           39874         2.67070
           39875         2.66651
           39876         2.66617
           39877         2.66372
           39878         2.67209
           39879         2.67757
           39880         2.67782
           39881         2.66919
           39882         5.90408
           39883         5.77771
           39884         5.87423
           39885         6.00095
           39886         5.82142
           39887         5.93890
           39888         6.02241
           39889         5.84064
           39890         5.78196
           39891         5.82253
           39892         6.00194
           39893         5.87942
           39894     397.808E-03
           39895     503.061E-03
           39896     482.358E-03
           39897     523.383E-03
           39898     417.632E-03
           39899     437.398E-03
           39900     489.620E-03
           39901     425.742E-03
           39902     537.757E-03
           39903     530.805E-03
           39904     992.579E-03
           39905     730.462E-03
           39906     757.280E-03
           39907     620.777E-03
           39908     758.907E-03
           39909     731.014E-03
           39910     874.994E-03
           39911     559.583E-03
           39912     628.965E-03
           39913     621.907E-03
           39914     528.848E-03
           39915     548.574E-03
           39916     611.438E-03
           39917     653.720E-03
           39918     636.384E-03
           39919     571.926E-03
           39920     857.388E-03
           39921     757.575E-03
           39922     776.135E-03
           39923         4.67805
           39924         4.61202
           39925         4.69535
           39926         4.67060
           39927         4.74029
           39928         4.65729
           39929         4.68205
           39930         4.59827
           39931         4.67084
           39932         4.67028
           39933         4.72825
           39934         4.64674
           39935         4.70950
           39936         4.89661
           39937         4.84690
           39938         4.92508
           39939         4.78750
           39940         4.94473
           39941         4.98956
           39942         4.91434
           39943         1.99980
           39944         1.86980
           39945         1.97448
           39946         2.05120
           39947         2.18195
           39948         2.07719
           39949         3.19948
           39950         3.17711
           39951         3.22921
           39952         3.27006
           39953         3.20610
           39954         3.17664
           39955         3.24365
           39956         3.13282
           39957         3.14165
           39958         3.16752
           39959         3.07921
           39960         3.09555
           39961         3.05825
           39962         3.10254
           39963         3.27784
           39964         3.33176
           39965         3.31702
           39966         3.28439
           39967         3.24590
           39968     874.095E-03
           39969     888.578E-03
           39970     848.510E-03
           39971     821.143E-03
           39972     861.308E-03
           39973     887.666E-03
           39974     788.921E-03
           39975     847.828E-03
           39976         1.16665
           39977     994.145E-03
           39978     994.205E-03
           39979         1.16647
           39980         1.11157
           39981     970.327E-03
           39982         1.01590
           39983     961.220E-03
           39984     908.759E-03
           39985     916.914E-03
           39986     809.058E-03
           39987     869.850E-03
           39988         1.03631
           39989     981.016E-03
           39990         1.39327
           39991         1.38142
           39992         1.42508
           39993         1.37671
           39994         1.31064
           39995         1.35879
           39996         1.32880
           39997         1.39504
           39998         1.34630
           39999         1.46922
           40000         1.53744
           40001         1.44025
           40002         1.48680
           40003         1.37291
           40004         1.30664
           40005         1.33686
           40006         1.40290
           40007         1.35274
           40008         1.34470
           40009         1.39190
           40010         1.41228
           40011         5.77605
           40012         5.75424
           40013         5.74880
           40014         5.77049
           40015         5.76898
           40016         5.68233
           40017         5.71894
           40018         5.71780
           40019         5.72138
           40020         2.56168
           40021         2.48219
           40022         2.33808
           40023         2.41188
           40024         2.49068
           40025         2.63840
           40026         5.71362
           40027         5.71813
           40028         5.77961
           40029         5.81131
           40030         2.14450
           40031         2.17784
           40032         2.20191
           40033         2.20378
           40034         2.16962
           40035         2.21156
           40036         2.19510
           40037         2.18424
           40038         2.26341
           40039         2.22991
           40040         2.21312
           40041         2.22296
           40042         2.22462
           40043         2.24830
           40044         2.14846
           40045         2.16906
           40046         2.19906
           40047         2.19749
           40048         1.69469
           40049         1.74700
           40050         1.95881
           40051         2.24841
           40052         2.27354
           40053         2.24351
           40054         4.95787
           40055         4.67398
           40056         4.69232
           40057         4.62183
           40058         4.73331
           40059         4.71349
           40060         4.73591
           40061         4.68276
           40062         4.72970
           40063         4.73937
           40064         4.62902
           40065         3.11984
           40066         3.17580
           40067         3.11129
           40068         3.13856
           40069         3.14699
           40070         3.07791
           40071         3.11415
           40072         3.09080
           40073         3.05779
           40074         3.02358
           40075         3.04488
           40076         3.06909
           40077         3.10509
           40078         3.15768
           40079         3.13397
           40080         3.09292
           40081         3.12015
           40082         3.07164
           40083         3.14298
           40084         3.13371
           40085         5.71975
           40086         5.54709
           40087         5.63008
           40088         5.61279
           40089         5.79757
           40090         5.70303
           40091         5.71764
           40092         5.62397
           40093         5.84835
           40094         5.92146
           40095         5.99889
           40096         5.81639
           40097         5.77533
           40098         5.88286
           40099         5.97985
           40100         6.15994
           40101         6.07617
           40102         6.00197
           40103         6.09272
           40104         5.74309
           40105         5.57208
           40106         5.50194
           40107         5.60717
           40108     482.332E-03
           40109     512.422E-03
           40110     463.913E-03
           40111     451.226E-03
           40112     417.696E-03
           40113     469.466E-03
           40114     623.841E-03
           40115     488.094E-03
           40116     530.017E-03
           40117     332.009E-03
           40118     272.203E-03
           40119     308.343E-03
           40120     309.644E-03
           40121     321.334E-03
           40122     299.492E-03
           40123     358.197E-03
           40124     294.373E-03
           40125     399.754E-03
           40126     488.587E-03
           40127     435.050E-03
           40128     561.645E-03
           40129     264.474E-03
           40130     357.318E-03
           40131         5.04220
           40132         5.03141
           40133         5.18192
           40134         5.14402
           40135         5.07338
           40136         5.11388
           40137         2.49948
           40138         2.51252
           40139         2.50918
           40140         2.51744
           40141         2.50375
           40142         2.50751
           40143         2.44597
           40144         2.44823
           40145         2.46298
           40146         2.46378
           40147         2.50103
           40148         2.49256
           40149         2.48791
           40150         2.49571
           40151         2.50883
           40152         2.48425
           40153         2.48742
           40154         2.49117
           40155         5.78212
           40156         5.71454
           40157         5.74120
           40158         5.73942
           40159         5.81162
           40160         5.78374
           40161         5.59683
           40162         5.54321
           40163         5.56376
           40164         5.68089
           40165         5.63841
           40166         5.65802
           40167         5.69930
           40168         5.61203
           40169         5.71026
           40170         5.70482
           40171         5.78148
           40172         5.67767
           40173         5.68076
           40174         5.55704
           40175         5.60149
           40176         5.75329
           40177         5.65861
           40178         5.58710
           40179         5.65439
           40180         2.75593
           40181         2.72439
           40182         2.76362
           40183         2.75496
           40184         2.78840
           40185         2.74684
           40186         2.78323
           40187         2.78422
           40188         2.79761
           40189         2.83404
           40190         2.83104
           40191         2.81737
           40192         2.80542
           40193         2.82197
           40194         2.76267
           40195         2.77101
           40196         2.73297
           40197         2.77195
           40198         2.77308
           40199         2.78941
           40200         2.82605
           40201         2.83423
           40202         2.83734
           40203         1.57466
           40204         1.50055
           40205         1.49338
           40206         1.54267
           40207         1.51134
           40208         1.53978
           40209         1.54768
           40210         1.50778
           40211         1.47807
           40212         1.47008
           40213         1.39369
           40214         1.43507
           40215         1.42740
           40216         1.57546
           40217         1.66508
           40218         1.62273
           40219         1.58390
           40220         1.67330
           40221         1.63745
           40222         1.61259
           40223         1.66049
           40224         1.63447
           40225         2.70117
           40226         2.71382
           40227         2.71948
           40228         2.72486
           40229         2.71125
           40230         2.70578
           40231         2.71458
           40232         2.72848
           40233         2.72173
           40234         2.70873
           40235         2.71803
           40236         2.72173
           40237         2.73639
           40238         2.72838
           40239         1.46302
           40240         1.30092
           40241         1.37215
           40242         1.27054
           40243         1.42685
           40244         1.35522
           40245         1.37948
           40246         1.30955
           40247         1.87876
           40248         1.69616
           40249         1.86366
           40250         1.64930
           40251         1.83286
           40252         1.66690
           40253         1.62374
           40254         1.60678
           40255         1.57535
           40256         1.50657
           40257         1.53378
           40258         1.59338
           40259         1.58617
           40260         1.50510
           40261         2.21827
           40262         2.16789
           40263         2.19814
           40264         2.20198
           40265         2.25127
           40266         2.22080
           40267         3.02930
           40268         3.15520
           40269         3.20643
           40270         3.17058
           40271         3.04481
           40272         2.99347
           40273         2.21494
           40274         2.19634
           40275         2.21368
           40276         2.15496
           40277         2.17368
           40278         2.15615
           40279         2.14427
           40280         2.10355
           40281         2.10090
           40282         2.09015
           40283         2.14182
           40284         2.22472
           40285         2.17190
           40286         2.17041
           40287         2.22310
           40288         2.11911
           40289         2.16844
           40290         2.13939
           40291         2.12028
           40292         2.14868
           40293         2.14561
           40294         2.19065
           40295         2.09475
           40296         2.10584
           40297         2.14793
           40298         1.48470
           40299         1.42081
           40300         1.49760
           40301         1.57484
           40302         1.44679
           40303         1.36167
           40304         1.38158
           40305         3.93085
           40306         1.16221
           40307         1.18542
           40308         1.29323
           40309         1.26855
           40310         1.15994
           40311         1.07252
           40312         1.06684
           40313         3.53652
           40314         3.56514
           40315         3.61942
           40316         3.62971
           40317         3.59899
           40318         3.54496
           40319         3.72879
           40320         3.68769
           40321         3.70958
           40322         3.75139
           40323         3.50163
           40324         3.44747
           40325         3.50963
           40326         3.44579
           40327         3.49939
           40328         3.52285
           40329         3.48887
           40330         3.45054
           40331         3.53511
           40332         2.75173
           40333         2.73882
           40334         2.74486
           40335         2.75049
           40336         2.76399
           40337         2.75788
           40338         2.28240
           40339         2.12873
           40340         2.07077
           40341         2.22514
           40342         2.74332
           40343         2.75252
           40344         2.74627
           40345         2.73876
           40346         2.75029
           40347         2.77085
           40348         2.78773
           40349         2.77133
           40350         2.78072
           40351         2.78065
           40352         2.76509
           40353         2.75156
           40354         2.74225
           40355         2.75398
           40356         2.75342
           40357         2.72895
           40358         2.77531
           40359         2.77516
           40360         5.67803
           40361         5.74632
           40362         5.57648
           40363         5.67456
           40364         5.60710
           40365         5.77591
           40366         5.46400
           40367         5.37542
           40368         5.42254
           40369         5.26490
           40370         5.30477
           40371         5.64160
           40372         5.81312
           40373         5.74896
           40374         5.58008
           40375         5.71299
           40376         5.56517
           40377         5.49634
           40378         5.62732
           40379         1.07576
           40380         1.16108
           40381         1.24447
           40382         1.40377
           40383         1.34848
           40384         1.25604
           40385         1.55148
           40386         1.50357
           40387         1.65105
           40388         1.35669
           40389         1.77559
           40390         1.57830
           40391         1.86017
           40392         1.42913
           40393         1.58841
           40394     907.505E-03
           40395     984.773E-03
           40396         1.09893
           40397         1.24869
           40398         1.16740
           40399         1.11949
           40400         1.21076
           40401     923.310E-03
           40402     898.960E-03
           40403     838.487E-03
           40404     231.086E-03
           40405     149.539E-03
           40406     780.204E-03
           40407         1.10111
           40408     897.197E-03
           40409     710.393E-03
           40410     435.124E-03
           40411     713.833E-03
           40412     764.858E-03
           40413     851.916E-03
           40414     586.775E-03
           40415     525.560E-03
           40416     227.171E-03
           40417     267.636E-03
           40418     358.810E-03
           40419     579.234E-03
           40420     523.792E-03
           40421     210.876E-03
           40422     261.831E-03
           40423     52.8105E-03
           40424     655.426E-03
           40425     795.636E-03
           40426     353.470E-03
           40427         2.65462
           40428         2.64957
           40429         2.64816
           40430         2.64152
           40431         2.62767
           40432         2.63263
           40433         2.62872
           40434         2.62543
           40435         2.63316
           40436         2.62977
           40437         2.63316
           40438         2.62421
           40439         2.64115
           40440         2.63767
           40441         6.83683
           40442         6.96812
           40443         6.89921
           40444         6.48079
           40445         6.28634
           40446         6.35651
           40447         6.19057
           40448         6.37829
           40449         6.30835
           40450         6.45438
           40451         6.57910
           40452         6.50252
           40453         6.52609
           40454         6.44600
           40455         2.51829
           40456         2.52858
           40457         2.52828
           40458         2.52774
           40459         2.52854
           40460         2.51718
           40461         2.52408
           40462         2.52395
           40463         2.53423
           40464         2.53803
           40465         2.53250
           40466         2.54146
           40467         2.54046
           40468         2.54431
           40469         2.53566
           40470         2.52527
           40471         2.53945
           40472         2.52053
           40473     387.738E-03
           40474     450.113E-03
           40475     392.152E-03
           40476     503.844E-03
           40477     486.079E-03
           40478     502.101E-03
           40479     170.495E-03
           40480     139.887E-03
           40481     70.4803E-03
           40482     180.318E-03
           40483     53.5383E-03
           40484         14.1312
           40485         16.3863
           40486         13.3674
           40487         13.3657
           40488         9.03900
           40489         14.3341
           40490         19.1315
           40491         22.3449
           40492         16.4850
           40493         20.1759
           40494         16.2393
           40495         22.2753
           40496         14.7044
           40497         15.1548
           40498         14.8588
           40499         13.2547
           40500         13.1510
           40501         13.8068
           40502         12.2201
           40503         12.4951
           40504         13.2281
           40505         15.0434
           40506         13.6693
           40507         13.9276
           40508         12.3421
           40509         13.0279
           40510         12.7368
           40511         13.6161
           40512         12.9253
           40513     836.226E-03
           40514     838.001E-03
           40515     622.934E-03
           40516     637.068E-03
           40517     856.156E-03
           40518     843.779E-03
           40519     843.356E-03
           40520     981.114E-03
           40521     906.020E-03
           40522         1.00297
           40523     930.417E-03
           40524     697.597E-03
           40525     587.445E-03
           40526     638.027E-03
           40527         2.65329
           40528         2.64161
           40529         2.65630
           40530         2.65161
           40531         2.66519
           40532         2.64847
           40533         2.65806
           40534         2.65750
           40535         2.65443
           40536         2.66698
           40537         2.66712
           40538         2.68207
           40539         2.64879
           40540         2.65095
           40541         2.64347
           40542         2.64770
           40543         2.64567
           40544         2.65312
           40545         2.65154
           40546         2.64771
           40547         2.65501
           40548         2.72330
           40549         2.71488
           40550         2.72360
           40551         2.72076
           40552         2.73271
           40553         2.70404
           40554         2.70320
           40555         2.71173
           40556         2.70310
           40557         2.70290
           40558         2.69511
           40559         2.70279
           40560         2.69516
           40561         2.69174
           40562         2.68290
           40563         2.69796
           40564         2.69384
           40565         2.70946
           40566         2.71837
           40567         2.70692
           40568         2.75067
           40569         2.73912
           40570         2.72248
           40571         2.72073
           40572         2.73950
           40573         3.14381
           40574         3.21585
           40575         3.19922
           40576         3.25524
           40577         3.18380
           40578         3.19969
           40579         3.18903
           40580         3.26049
           40581         3.15423
           40582         3.21543
           40583         3.07366
           40584         3.05083
           40585         3.03600
           40586         3.15735
           40587         3.13023
           40588         3.07856
           40589         3.07804
           40590         3.10259
           40591         3.02335
           40592         3.07418
           40593         2.21169
           40594         6.44607
           40595         6.65706
           40596         6.64252
           40597         6.84069
           40598         6.62467
           40599         6.63893
           40600         6.62987
           40601         6.62445
           40602         6.62002
           40603         6.82699
           40604         6.72079
           40605         6.61190
           40606         6.41702
           40607         6.50665
           40608         6.20445
           40609         6.05069
           40610         6.16956
           40611         6.26514
           40612         6.27045
           40613         1.65027
           40614         1.68925
           40615         1.85546
           40616         6.12618
           40617         6.23367
           40618         6.39379
           40619         6.16421
           40620         5.96354
           40621         6.22394
           40622         6.18565
           40623         2.58526
           40624         2.72527
           40625         2.68907
           40626         3.14114
           40627         2.52285
           40628         2.61943
           40629         2.56835
           40630         2.67089
           40631         2.78353
           40632         2.82861
           40633         2.66815
           40634         2.72319
           40635         2.78146
           40636         6.38328
           40637         6.59339
           40638         6.48332
           40639         6.55503
           40640         6.34516
           40641         6.45537
           40642         6.28629
           40643         6.49184
           40644         6.39347
           40645         6.18922
           40646         6.10858
           40647         6.19367
           40648         6.05541
           40649         6.13577
           40650         6.05097
           40651         6.87332
           40652         7.01777
           40653         7.06944
           40654         6.99271
           40655         6.84750
           40656         6.79663
           40657         7.06974
           40658         7.01800
           40659         6.80123
           40660         6.85206
           40661         6.99738
           40662     674.827E-03
           40663     786.705E-03
           40664     532.933E-03
           40665     398.301E-03
           40666     527.787E-03
           40667     216.989E-03
           40668     102.325E-03
           40669     642.872E-03
           40670     614.012E-03
           40671     548.506E-03
           40672         2.28182
           40673         2.42876
           40674         2.30557
           40675         2.32811
           40676         2.30318
           40677         2.42621
           40678         2.33009
           40679         1.91120
           40680         2.11517
           40681         1.97301
           40682         1.31515
           40683         1.15702
           40684         2.71782
           40685         2.73313
           40686         2.72009
           40687         2.74645
           40688         2.75033
           40689         2.71909
           40690         2.72593
           40691         2.71958
           40692         2.71080
           40693         3.71791
           40694         3.58762
           40695         3.68378
           40696         3.72534
           40697         3.88071
           40698         3.71385
           40699         3.80419
           40700         3.77148
           40701         3.78658
           40702         4.08685
           40703         4.05291
           40704         4.13129
           40705         4.05034
           40706         4.20608
           40707         4.12222
           40708         3.94772
           40709         3.92860
           40710         4.10960
           40711         3.97588
           40712         4.09184
           40713         3.93108
           40714         2.94592
           40715         2.89252
           40716         2.86396
           40717         2.80903
           40718         2.85319
           40719         2.82061
           40720         2.87700
           40721         2.83117
           40722         3.06412
           40723         3.00649
           40724         3.02736
           40725         2.88826
           40726         2.84399
           40727         2.89059
           40728         2.87173
           40729         2.87149
           40730         2.81653
           40731         2.85462
           40732         2.66220
           40733         2.66048
           40734         2.66013
           40735         2.65737
           40736         2.65952
           40737         2.66006
           40738         3.08089
           40739         3.26853
           40740         3.29047
           40741         3.48240
           40742         3.29881
           40743         3.27658
           40744         2.66422
           40745         2.66785
           40746         2.66546
           40747         2.66675
           40748         2.66537
           40749         2.66108
           40750         2.65790
           40751         2.65175
           40752         2.65511
           40753         2.65439
           40754         2.66071
           40755         1.38100
           40756         1.33686
           40757         1.37635
           40758         1.37607
           40759         1.44248
           40760         1.48635
           40761         1.40595
           40762         8.91062
           40763         9.20454
           40764         8.72523
           40765         9.24919
           40766         8.44850
           40767         10.0448
           40768         11.7348
           40769         11.4857
           40770         12.1479
           40771         10.3033
           40772         10.4717
           40773         10.6990
           40774         12.6952
           40775         10.7985
           40776         6.15268
           40777         6.19081
           40778         6.08623
           40779         6.16295
           40780         6.13936
           40781         6.26575
           40782         6.19159
           40783         6.10074
           40784         5.92943
           40785         5.88272
           40786         5.94034
           40787         6.04535
           40788         6.02337
           40789     950.043E-03
           40790         1.08676
           40791         1.06628
           40792     825.423E-03
           40793     746.296E-03
           40794     826.161E-03
           40795     929.015E-03
           40796         1.02680
           40797     896.933E-03
           40798     923.367E-03
           40799         1.06428
           40800         1.22190
           40801         1.17854
           40802         1.29738
           40803         1.30940
           40804         1.32067
           40805         1.30059
           40806         1.56360
           40807         1.24028
           40808         1.42275
           40809         1.49645
           40810         1.51986
           40811         3.02959
           40812         3.18521
           40813         3.14592
           40814         3.08316
           40815         3.12601
           40816         2.93201
           40817         3.04238
           40818         2.90043
           40819         2.99609
           40820         2.89249
           40821         2.80163
           40822         2.89847
           40823         1.94760
           40824         2.03125
           40825         2.07547
           40826         2.04046
           40827         1.94342
           40828         2.59814
           40829         2.60114
           40830         2.53743
           40831         2.51615
           40832         2.54738
           40833         2.54341
           40834         2.53294
           40835         2.56453
           40836         2.56256
           40837         2.54255
           40838         2.55508
           40839         2.56015
           40840         2.53578
           40841         2.53769
           40842         2.50976
           40843         2.52081
           40844         2.53694
           40845         2.59635
           40846         2.57655
           40847         2.59098
           40848         2.60939
           40849         2.56762
           40850         1.55878
           40851         1.69095
           40852         1.63680
           40853         1.63701
           40854         8.00878
           40855         7.82505
           40856         7.97652
           40857         7.84155
           40858         7.82340
           40859         7.57556
           40860         7.60901
           40861         7.62760
           40862         8.35128
           40863         8.01039
           40864         8.10973
           40865         8.46977
           40866         6.87337
           40867         6.75230
           40868         6.93072
           40869         5.71765
           40870         5.64390
           40871         5.73342
           40872         5.59420
           40873         5.65382
           40874         5.56861
           40875         5.67594
           40876         5.97364
           40877         5.39811
           40878         5.39406
           40879         5.38543
           40880         5.62039
           40881         5.41027
           40882         5.34520
           40883         5.29633
           40884         5.12678
           40885         5.19498
           40886         5.59559
           40887         5.53434
           40888         6.00618
           40889         6.11084
           40890         5.18983
           40891         5.16800
           40892         5.19462
           40893     327.347E-03
           40894     296.311E-03
           40895         1.90182
           40896         2.01233
           40897         2.17141
           40898         2.01217
           40899         2.34329
           40900         2.45103
           40901         2.16228
           40902         2.32727
           40903         2.21872
           40904         2.50807
           40905         2.46154
           40906         2.57478
           40907         2.28409
           40908         2.40102
           40909         2.44861
           40910     400.431E-03
           40911         2.35997
           40912         2.13266
           40913         2.04674
           40914         2.19348
           40915         3.40559
           40916         3.44279
           40917         3.59182
           40918         3.30226
           40919         3.33944
           40920         3.26472
           40921         3.44418
           40922         3.40629
           40923         3.55129
           40924         2.58796
           40925         2.58089
           40926         2.58412
           40927         2.58711
           40928         2.58413
           40929         2.59707
           40930         2.59149
           40931         2.58742
           40932         2.58812
           40933         2.58865
           40934         2.58583
           40935         2.58500
           40936         2.58177
           40937         2.58846
           40938         2.58194
           40939         2.58034
           40940         2.58493
           40941         2.57782
           40942         2.37040
           40943         2.36018
           40944         2.34345
           40945         2.33079
           40946         2.34119
           40947         2.36496
           40948         2.37490
           40949         2.39034
           40950         2.33712
           40951         2.33646
           40952         2.33900
           40953         2.30643
           40954         2.37054
           40955         2.35044
           40956         2.38024
           40957         2.28194
           40958         2.22930
           40959         2.27885
           40960         2.26830
           40961         2.27110
           40962         2.26424
           40963         2.31545
           40964         2.23896
           40965         2.29162
           40966         2.28298
           40967         2.32171
           40968         2.27049
           40969     204.854E-03
           40970     192.732E-03
           40971     151.885E-03
           40972     198.238E-03
           40973     212.975E-03
           40974     256.759E-03
           40975     139.669E-03
           40976     145.181E-03
           40977     136.456E-03
           40978     114.243E-03
           40979     141.513E-03
           40980     124.328E-03
           40981         2.86090
           40982         2.83923
           40983         2.84334
           40984         2.79818
           40985         2.75547
           40986         2.70183
           40987         2.74088
           40988         2.70262
           40989         2.75989
           40990         2.71680
           40991         2.83894
           40992         2.79484
           40993         2.77498
           40994         2.79094
           40995         2.73265
           40996         5.86122
           40997         5.91814
           40998         5.90409
           40999         6.02358
           41000         5.95856
           41001         5.97253
           41002         5.67094
           41003         5.74462
           41004         5.82864
           41005         5.73414
           41006         5.79111
           41007         5.86599
           41008         5.78030
           41009         5.75293
           41010         5.83479
           41011         5.81649
           41012         2.99373
           41013         3.04513
           41014         3.03035
           41015         3.05401
           41016         3.00080
           41017         3.01516
           41018         2.92856
           41019         2.93016
           41020         2.96095
           41021         2.98750
           41022         3.00174
           41023         2.98260
           41024         2.94510
           41025         6.95599
           41026         6.83596
           41027         6.66600
           41028         6.39996
           41029         6.56402
           41030         6.54671
           41031         6.49708
           41032         6.40072
           41033         6.56868
           41034         6.45010
           41035         6.36056
           41036         6.52035
           41037         6.40971
           41038         6.87344
           41039         6.71097
           41040         6.67354
           41041         6.83997
           41042         6.56403
           41043         6.51919
           41044     614.037E-03
           41045     849.167E-03
           41046         1.01409
           41047         1.23779
           41048     946.918E-03
           41049     739.565E-03
           41050         1.06907
           41051     804.244E-03
           41052     869.174E-03
           41053     363.476E-03
           41054         5.51801
           41055         5.54610
           41056         5.56003
           41057         5.46170
           41058         5.47536
           41059         5.43348
           41060         5.49152
           41061         5.48314
           41062         5.43539
           41063         5.47262
           41064         5.51599
           41065         5.46011
           41066         5.54497
           41067         5.52387
           41068         5.48185
           41069         5.55827
           41070         5.56735
           41071         5.59782
           41072         1.95438
           41073         1.96519
           41074         1.94685
           41075         1.99120
           41076         1.98058
           41077         1.99621
           41078         1.94733
           41079         1.92899
           41080         1.90434
           41081         1.91237
           41082         1.91855
           41083         1.91341
           41084         1.88268
           41085         1.90264
           41086         1.89752
           41087         1.90585
           41088         1.92302
           41089         1.93411
           41090         1.93782
           41091         7.68435
           41092         7.56480
           41093         7.63024
           41094         8.01146
           41095         8.11554
           41096         8.03722
           41097         7.88888
           41098         8.11476
           41099         7.93329
           41100         7.61173
           41101         7.38319
           41102         7.51956
           41103         7.25967
           41104         7.27869
           41105         7.19022
           41106         7.92477
           41107         7.99142
           41108         7.86106
           41109         7.54891
           41110         8.15860
           41111         7.50196
           41112         3.71319
           41113         3.80727
           41114         3.79192
           41115         3.80716
           41116         3.90212
           41117         3.78863
           41118         3.88581
           41119         3.92495
           41120         3.81088
           41121         3.90546
           41122         3.72001
           41123         3.67981
           41124         3.65898
           41125         3.59839
           41126         3.63721
           41127         3.65780
           41128         3.83328
           41129         1.31630
           41130         1.03614
           41131         1.12801
           41132     922.545E-03
           41133         1.17186
           41134         1.05734
           41135         2.39134
           41136         2.90590
           41137         1.67826
           41138         2.07900
           41139         2.66575
           41140         2.62418
           41141         1.90088
           41142         3.18633
           41143         2.19213
           41144         1.34099
           41145         1.57472
           41146         1.50690
           41147         1.28312
           41148         1.32731
           41149         4.71333
           41150         4.69646
           41151         4.73599
           41152         4.58445
           41153         4.60140
           41154         4.71569
           41155         4.67964
           41156         4.67182
           41157         13.8106
           41158         13.4172
           41159         13.2767
           41160         12.4317
           41161         12.7924
           41162         12.7285
           41163         11.3778
           41164         11.3942
           41165         13.1749
           41166         13.0983
           41167         13.9166
           41168         10.7161
           41169         12.8374
           41170         12.4560
           41171         11.9770
           41172         11.4638
           41173         12.5038
           41174         12.0095
           41175         12.6055
           41176         12.9602
           41177         14.3981
           41178         13.4830
           41179         2.81077
           41180         2.81896
           41181         2.75315
           41182         2.75715
           41183         4.63031
           41184         4.72376
           41185         4.67270
           41186         4.63032
           41187         4.58782
           41188         4.55055
           41189         4.43883
           41190         4.57359
           41191         4.36129
           41192         4.27473
           41193         4.36940
           41194         4.59982
           41195         4.49239
           41196         4.56259
           41197         4.65014
           41198         4.76892
           41199         4.71413
           41200         4.80747
           41201         4.69210
           41202         4.61083
           41203         4.66748
           41204         4.71495
           41205     71.7561E-03
           41206     75.8272E-03
           41207     39.8051E-03
           41208     65.9118E-03
           41209     59.5216E-03
           41210     95.0272E-03
           41211     130.891E-03
           41212     82.6860E-03
           41213     47.3645E-03
           41214     97.9161E-03
           41215     95.0409E-03
           41216     203.978E-03
           41217     246.900E-03
           41218     236.144E-03
           41219     185.723E-03
           41220     246.671E-03
           41221     188.060E-03
           41222         1.58864
           41223         1.60751
           41224     268.920E-03
           41225         2.43698
           41226         2.49558
           41227         2.48003
           41228         2.52711
           41229         2.46808
           41230         2.48431
           41231         2.38575
           41232         2.40392
           41233         2.34511
           41234         2.32515
           41235         2.32839
           41236         2.46632
           41237         2.45027
           41238         2.50809
           41239         2.43930
           41240         2.49165
           41241         2.41694
           41242         2.44836
           41243         2.45537
           41244         2.42372
           41245         2.42287
           41246         2.39106
           41247         2.31678
           41248         2.28488
           41249         2.35969
           41250         2.33171
           41251         2.39674
           41252         2.38883
           41253         2.35890
           41254         4.14145
           41255         4.15038
           41256         4.20716
           41257         4.19796
           41258         4.20456
           41259         4.15155
           41260         4.11454
           41261         4.27846
           41262         4.33077
           41263         4.33326
           41264         4.44675
           41265         4.39231
           41266         4.38930
           41267         4.38575
           41268         4.44053
           41269         4.32699
           41270         4.27461
           41271         4.37890
           41272         4.25597
           41273         4.20480
           41274         4.19732
           41275         4.10156
           41276         4.17673
           41277         4.16947
           41278     288.715E-03
           41279     359.262E-03
           41280         2.68858
           41281         2.69081
           41282         2.68916
           41283         2.69207
           41284         2.68913
           41285         2.69069
           41286         2.68735
           41287         2.68645
           41288         2.68830
           41289         2.69101
           41290         2.68904
           41291         2.68634
           41292         2.68805
           41293         2.68070
           41294         2.67808
           41295         2.68014
           41296         2.68054
           41297         2.68055
           41298         2.68239
           41299         2.68203
           41300         2.68229
           41301         2.68389
           41302         2.68163
           41303         2.68506
           41304         2.68322
           41305         2.68538
           41306         2.69012
           41307         2.68544
           41308         4.62072
           41309         4.48668
           41310         4.42458
           41311         4.55952
           41312         4.48857
           41313         4.87988
           41314         4.91216
           41315         4.82423
           41316         4.79153
           41317         4.97872
           41318         1.94329
           41319         1.74058
           41320         1.14255
           41321         1.08404
           41322         1.06337
           41323         1.07158
           41324         1.12219
           41325         1.21359
           41326         1.15520
           41327         1.15077
           41328         1.16305
           41329         1.22149
           41330         1.22438
           41331         1.18278
           41332         1.17650
           41333         1.10576
           41334         1.10270
           41335         1.09585
           41336         1.17305
           41337         1.03100
           41338     966.157E-03
           41339         1.02851
           41340         1.01492
           41341         1.07986
           41342         1.01727
           41343         1.20606
           41344         1.26763
           41345         1.27527
           41346         2.66107
           41347         2.70994
           41348         2.66238
           41349         2.70390
           41350         2.65237
           41351         2.69957
           41352         2.56458
           41353         2.53137
           41354         2.57741
           41355         2.53984
           41356         2.57069
           41357         2.52480
           41358         2.58700
           41359         2.61876
           41360         2.59509
           41361         2.63635
           41362         2.63750
           41363         2.58929
           41364         2.67735
           41365         2.63008
           41366         2.59825
           41367         2.56251
           41368         2.57734
           41369         2.60382
           41370         2.63790
           41371         2.62345
           41372         5.40015
           41373         5.37834
           41374         5.42266
           41375         5.35749
           41376         5.38090
           41377         5.42029
           41378         5.40168
           41379         5.32103
           41380         5.36450
           41381         5.34566
           41382         1.68637
           41383         1.68994
           41384         5.29625
           41385         5.27170
           41386         5.21086
           41387         5.24580
           41388         5.25794
           41389         5.28210
           41390         5.32814
           41391         5.35357
           41392         5.32839
           41393         4.00341
           41394         4.20487
           41395         4.28879
           41396         4.51205
           41397         4.28389
           41398         4.22828
           41399         3.90748
           41400         3.91447
           41401         3.68046
           41402         4.42345
           41403         4.42846
           41404         4.65921
           41405         4.27554
           41406         4.52659
           41407         4.30205
           41408         4.53407
           41409         3.74204
           41410         3.81721
           41411         3.65566
           41412         3.84056
           41413         3.51897
           41414         3.61477
           41415         5.76215
           41416         5.71076
           41417         5.76202
           41418         5.54612
           41419         5.47712
           41420         5.46264
           41421         5.56037
           41422         5.76798
           41423         5.58475
           41424         5.71043
           41425         5.65017
           41426         5.49609
           41427         2.53563
           41428         2.51199
           41429         2.47419
           41430         2.49127
           41431         2.42940
           41432         2.47594
           41433         2.46357
           41434         2.41871
           41435         2.39885
           41436         2.40538
           41437         2.37250
           41438         2.36590
           41439         2.35151
           41440         2.43999
           41441         2.43031
           41442         2.47778
           41443         2.45494
           41444         2.37592
           41445         2.40874
           41446         2.40053
           41447         2.42223
           41448         2.39009
           41449     831.614E-03
           41450         2.41705
           41451         1.60901
           41452         1.50250
           41453         1.36691
           41454         1.46902
           41455         1.20696
           41456         1.51552
           41457         1.48820
           41458         1.73074
           41459         1.61446
           41460         1.71936
           41461     49.2170E-03
           41462     65.1050E-03
           41463     42.0353E-03
           41464     38.2129E-03
           41465         2.04719
           41466     12.7174E-03
           41467     15.4044E-03
           41468     30.2356E-03
           41469     28.5777E-03
           41470     34.1916E-03
           41471     39.3080E-03
           41472     62.4493E-03
           41473     51.0474E-03
           41474     12.1852E-03
           41475     12.1492E-03
           41476     35.1162E-03
           41477     31.4182E-03
           41478     21.0933E-03
           41479     16.0042E-03
           41480         2.96935
           41481         2.88934
           41482         2.61934
           41483         2.80898
           41484         2.71875
           41485         2.64400
           41486         2.79653
           41487         2.80953
           41488         2.93509
           41489         2.87292
           41490         2.48573
           41491         2.43121
           41492         2.64259
           41493         2.52208
           41494         2.57664
           41495         2.36727
           41496         2.73874
           41497         2.73362
           41498         2.72496
           41499         2.77530
           41500         2.78231
           41501         2.78931
           41502         2.78438
           41503         2.79104
           41504         2.84032
           41505         2.74382
           41506         2.73031
           41507         2.71759
           41508         2.67776
           41509         2.68976
           41510         2.70047
           41511         2.70682
           41512         2.71442
           41513         2.73227
           41514         2.72375
           41515         2.70064
           41516         2.77584
           41517         8.12212
           41518         7.88273
           41519         8.14992
           41520         8.39910
           41521         8.29301
           41522         8.88403
           41523         8.96216
           41524         8.85834
           41525         8.63734
           41526         8.56143
           41527         8.16264
           41528         8.59195
           41529         8.17506
           41530         8.35644
           41531         7.94214
           41532         8.34551
           41533         8.98007
           41534         7.88556
           41535         8.12458
           41536         8.29609
           41537         8.07387
           41538         7.97370
           41539         7.98197
           41540         2.70612
           41541         2.70185
           41542         2.74562
           41543         2.65422
           41544         2.65734
           41545         2.61624
           41546         2.69168
           41547         2.69482
           41548         2.77908
           41549         2.84014
           41550         2.81746
           41551         2.80641
           41552         2.76870
           41553         2.60778
           41554         2.70501
           41555         2.65619
           41556         1.30573
           41557         1.32019
           41558         1.28978
           41559         1.58308
           41560         1.58634
           41561         1.61341
           41562         1.02883
           41563     723.454E-03
           41564     701.775E-03
           41565     949.646E-03
           41566         1.51514
           41567         1.49786
           41568         1.48037
           41569         1.27322
           41570         1.28582
           41571         1.12912
           41572         1.16464
           41573         1.12057
           41574         1.02747
           41575         1.14230
           41576         1.15823
           41577         1.13919
           41578     419.499E-03
           41579     720.685E-03
           41580     597.122E-03
           41581         1.31251
           41582         1.25616
           41583         1.58493
           41584         4.50830
           41585         4.49769
           41586         4.60485
           41587         4.55638
           41588         4.56658
           41589         4.46141
           41590         7.02070
           41591         7.16721
           41592         7.28646
           41593         7.14123
           41594         6.73622
           41595         6.77755
           41596         6.75390
           41597         2.60164
           41598         2.51001
           41599         2.63907
           41600         2.74018
           41601         6.96399
           41602         6.89082
           41603         6.96998
           41604         7.10945
           41605         7.18585
           41606         7.10304
           41607         2.67380
           41608         2.66177
           41609         2.68078
           41610         2.68196
           41611         2.65502
           41612         2.65671
           41613         2.64691
           41614         2.61008
           41615         2.60676
           41616         2.60225
           41617         2.62320
           41618         2.61711
           41619         2.62719
           41620         2.62558
           41621         2.61505
           41622         2.62376
           41623         2.62530
           41624         2.63803
           41625         2.60467
           41626         2.59816
           41627         2.60633
           41628         2.60254
           41629         2.60517
           41630         2.59919
           41631         2.60521
           41632         2.60634
           41633         2.60841
           41634         2.59902
           41635         2.59406
           41636         2.60043
           41637         2.12204
           41638         2.06401
           41639         2.11106
           41640         2.07854
           41641         2.13745
           41642         2.09024
           41643         2.13077
           41644         2.08361
           41645         2.12511
           41646         2.17044
           41647         2.13335
           41648         2.28633
           41649         2.23051
           41650         2.29081
           41651         2.20947
           41652         2.26813
           41653         2.20406
           41654         2.38677
           41655         2.35292
           41656         2.47186
           41657         2.13969
           41658         2.14682
           41659         2.17464
           41660         2.19768
           41661         2.16940
           41662         2.88460
           41663         2.83796
           41664         2.87815
           41665         2.86105
           41666         2.90848
           41667         2.86671
           41668         2.86097
           41669         2.90878
           41670         2.88983
           41671         2.96508
           41672         2.99283
           41673         2.95648
           41674         2.93566
           41675         2.94278
           41676         2.91005
           41677         2.93048
           41678         2.88555
           41679         2.66787
           41680         2.66674
           41681     641.914E-03
           41682         2.66777
           41683         2.66985
           41684         2.67713
           41685         2.67557
           41686         1.56107
           41687         1.87812
           41688         1.72697
           41689         1.95417
           41690         1.61403
           41691         1.76462
           41692         1.89579
           41693         1.57798
           41694         1.89884
           41695         1.72857
           41696         2.05786
           41697         1.68225
           41698         1.49897
           41699         1.82960
           41700         1.31295
           41701         1.11191
           41702         1.21549
           41703         1.16018
           41704         1.34652
           41705         1.23954
           41706         1.35488
           41707         1.16584
           41708         1.01232
           41709         1.19056
           41710         1.13631
           41711         2.92325
           41712         2.99438
           41713         2.88036
           41714         2.80794
           41715         2.86917
           41716         2.88485
           41717         3.03252
           41718         3.11967
           41719         3.01765
           41720         3.06406
           41721         2.85219
           41722         2.85816
           41723         2.82760
           41724         3.01017
           41725         2.98043
           41726         3.03060
           41727         3.19841
           41728         3.15025
           41729         3.47778
           41730         3.55241
           41731         3.46931
           41732         3.51607
           41733         3.44214
           41734         3.52574
           41735         3.46257
           41736         3.41617
           41737         3.38987
           41738         3.36543
           41739         2.06619
           41740         2.11550
           41741         2.14855
           41742         2.15576
           41743         2.10758
           41744         2.07562
           41745         2.10700
           41746         2.15501
           41747         2.07579
           41748         2.00121
           41749         1.96767
           41750         2.01012
           41751         2.15277
           41752         2.19444
           41753         2.15370
           41754         5.12605
           41755         5.25391
           41756         5.16710
           41757         5.22898
           41758         5.09963
           41759         5.18588
           41760         5.11056
           41761         5.04924
           41762         4.96253
           41763         5.02751
           41764         4.60816
           41765         4.73977
           41766         4.66699
           41767         4.86377
           41768         5.22166
           41769         5.09188
           41770         5.15196
           41771         4.91895
           41772         4.77449
           41773         4.89806
           41774         5.00844
           41775         4.75343
           41776         4.89804
           41777         4.97752
           41778         5.11631
           41779         4.97710
           41780         2.53682
           41781         2.53894
           41782         2.55044
           41783         2.55421
           41784         2.55239
           41785         2.54075
           41786         2.52263
           41787         2.53048
           41788         2.56835
           41789         2.56157
           41790         2.55631
           41791         2.55304
           41792         2.54256
           41793         2.55173
           41794     318.841E-03
           41795         3.64033
           41796         3.77325
           41797         3.57320
           41798     705.702E-03
           41799     624.038E-03
           41800     711.753E-03
           41801     745.938E-03
           41802     829.856E-03
           41803     739.798E-03
           41804     735.403E-03
           41805     847.061E-03
           41806     717.553E-03
           41807     727.870E-03
           41808     617.550E-03
           41809         2.52656
           41810         2.53916
           41811         2.52859
           41812         2.54425
           41813         2.53210
           41814         2.54149
           41815         2.50381
           41816         2.49787
           41817         2.50992
           41818         2.50327
           41819         2.50957
           41820         2.49654
           41821         5.80144
           41822         5.81281
           41823         5.76819
           41824         5.79503
           41825         2.51879
           41826         2.53109
           41827         2.51211
           41828         2.50114
           41829         2.50213
           41830         2.49120
           41831         2.47361
           41832         2.48651
           41833         2.47769
           41834         2.49136
           41835         2.48382
           41836         2.50956
           41837         2.26217
           41838         2.25004
           41839         2.28449
           41840         1.24681
           41841         1.25189
           41842         1.32483
           41843         1.31766
           41844         1.27811
           41845         1.36227
           41846         1.28031
           41847     980.170E-03
           41848         1.10963
           41849     855.684E-03
           41850     882.859E-03
           41851     766.039E-03
           41852         1.00095
           41853     840.071E-03
           41854     729.307E-03
           41855     747.275E-03
           41856     598.246E-03
           41857     626.668E-03
           41858     632.577E-03
           41859     748.163E-03
           41860     776.231E-03
           41861     647.330E-03
           41862     637.094E-03
           41863     599.588E-03
           41864     498.443E-03
           41865     520.830E-03
           41866     485.808E-03
           41867     552.641E-03
           41868     362.794E-03
           41869         1.68285
           41870         1.73382
           41871         1.75695
           41872         1.76390
           41873         1.67545
           41874         1.70848
           41875         1.73006
           41876         2.47522
           41877         2.46458
           41878         2.46246
           41879         2.46763
           41880         2.47875
           41881         2.48006
           41882         2.46527
           41883         2.44964
           41884         2.45796
           41885         2.46283
           41886         2.47827
           41887         2.46989
           41888         2.49018
           41889         2.48593
           41890         2.47745
           41891         2.44202
           41892         2.45339
           41893         2.44478
           41894         2.45392
           41895         2.43761
           41896         5.15373
           41897         5.12613
           41898         5.21130
           41899         5.12040
           41900         5.13956
           41901         5.06369
           41902         5.21288
           41903         5.23120
           41904         5.13828
           41905         5.14616
           41906         5.12558
           41907         5.07028
           41908         5.19895
           41909         5.27089
           41910         5.14203
           41911         5.21912
           41912         5.27823
           41913         5.25656
           41914         5.23864
           41915         5.16905
           41916         5.31564
           41917         5.33519
           41918         5.33330
           41919         5.32126
           41920         5.42547
           41921         5.36031
           41922         5.34272
           41923         5.59387
           41924         5.57779
           41925         5.56425
           41926         5.52124
           41927         5.55082
           41928         5.61198
           41929         5.60417
           41930         5.62151
           41931         5.55981
           41932         5.57735
           41933         5.53502
           41934         5.52128
           41935         5.42494
           41936         5.42913
           41937         5.41304
           41938         5.45865
           41939         5.45654
           41940         5.47259
           41941         5.48735
           41942         5.51641
           41943         5.48913
           41944         5.47457
           41945         5.44407
           41946         5.50111
           41947         5.53005
           41948         5.54852
           41949         5.52549
           41950         5.52718
           41951         5.48448
           41952         5.50743
           41953         5.50793
           41954         5.47936
           41955         5.46735
           41956         4.07846
           41957         4.14614
           41958         3.88401
           41959         4.02404
           41960         3.47190
           41961         3.57849
           41962         3.38490
           41963         2.79576
           41964         2.84666
           41965         2.80367
           41966         2.84275
           41967         2.79164
           41968         2.83528
           41969         2.73290
           41970         2.74010
           41971         2.76257
           41972         2.74013
           41973         2.73266
           41974         2.71157
           41975         2.73524
           41976         2.74151
           41977         2.76215
           41978         2.76458
           41979         2.75721
           41980         2.73654
           41981         2.75314
           41982         2.76216
           41983         2.79380
           41984         2.79924
           41985         2.76383
           41986         2.63628
           41987         2.63360
           41988         2.63776
           41989         2.62914
           41990         2.62573
           41991         2.62447
           41992         2.62727
           41993         2.64364
           41994         2.64534
           41995         2.64989
           41996         2.65095
           41997         2.64531
           41998         2.64072
           41999         2.07653
           42000         1.94521
           42001         2.09009
           42002         2.22050
           42003         2.22864
           42004         2.63719
           42005         2.64257
           42006         2.63837
           42007         2.64422
           42008         2.63888
           42009         2.64303
           42010         2.63140
           42011         2.63152
           42012         2.63554
           42013         2.63891
           42014         2.63336
           42015         2.63761
           42016         2.63503
           42017         4.01958
           42018         3.19891
           42019         4.17908
           42020         4.20340
           42021         3.95657
           42022         4.79882
           42023         4.35314
           42024         4.60038
           42025         4.97224
           42026         5.36308
           42027         2.86679
           42028         3.23916
           42029         2.68262
           42030         2.88807
           42031         7.30210
           42032         6.88853
           42033         7.49221
           42034         5.54727
           42035         5.34326
           42036     405.218E-03
           42037     418.666E-03
           42038         10.4383
           42039         7.41631
           42040         7.86276
           42041         5.63315
           42042         7.64711
           42043         7.65039
           42044         2.43804
           42045         2.42002
           42046         2.40723
           42047         2.40994
           42048         2.42877
           42049         2.44090
           42050         2.44285
           42051         2.44622
           42052         2.42914
           42053         2.42094
           42054         2.41714
           42055         2.43457
           42056         2.38125
           42057         2.40034
           42058         2.38611
           42059         2.41181
           42060         2.39313
           42061         2.39159
           42062         2.39968
           42063         2.37335
           42064         2.39167
           42065         2.40370
           42066         2.43869
           42067         2.42497
           42068         2.41550
           42069     104.053E-03
           42070     78.2885E-03
           42071     76.7380E-03
           42072     54.5309E-03
           42073     77.3156E-03
           42074     78.1437E-03
           42075     120.707E-03
           42076     143.833E-03
           42077     123.291E-03
           42078     122.035E-03
           42079     99.6578E-03
           42080     119.276E-03
           42081     124.442E-03
           42082     95.2934E-03
           42083         6.65291
           42084         5.05421
           42085         7.58946
           42086         4.81371
           42087         6.30597
           42088         4.12138
           42089         7.07269
           42090         9.06205
           42091         5.69499
           42092         1.55220
           42093         2.08698
           42094         2.80166
           42095         3.54442
           42096         3.22587
           42097         2.33878
           42098         1.69254
           42099         4.46779
           42100         7.07970
           42101         4.63319
           42102         2.71259
           42103         2.70434
           42104         2.70406
           42105         2.70648
           42106         2.68855
           42107         2.68111
           42108         2.68508
           42109         2.68142
           42110         2.68921
           42111         2.68507
           42112         2.69524
           42113         2.69070
           42114         2.68904
           42115         2.69089
           42116         2.69653
           42117         2.70401
           42118         2.69996
           42119         2.69694
           42120         2.68901
           42121         2.68169
           42122         2.68470
           42123         3.19895
           42124         3.07576
           42125         3.03508
           42126         2.93728
           42127         3.06370
           42128         3.10283
           42129         3.02955
           42130         3.00480
           42131         3.13628
           42132         3.03677
           42133         2.93000
           42134         3.17107
           42135         2.98333
           42136         3.11393
           42137         3.08103
           42138         3.20453
           42139         3.06928
           42140         3.02452
           42141         2.89809
           42142         2.89042
           42143         2.97416
           42144         2.56980
           42145         2.54556
           42146         2.54102
           42147         2.55591
           42148         2.49837
           42149         2.50868
           42150         2.50851
           42151         2.52509
           42152         2.49106
           42153         2.50523
           42154         2.50334
           42155         2.51040
           42156         2.55212
           42157         2.55046
           42158         2.55807
           42159         2.52921
           42160         6.87687
           42161         6.86905
           42162         6.77359
           42163         6.70527
           42164         6.71646
           42165         6.80838
           42166         2.62034
           42167         2.62294
           42168         2.61582
           42169         2.61634
           42170         2.61767
           42171     591.126E-03
           42172         1.88580
           42173     292.301E-03
           42174         2.57893
           42175         2.58011
           42176         2.57410
           42177         2.61843
           42178         2.57817
           42179         2.56552
           42180         2.56791
           42181         2.57527
           42182         2.64042
           42183         2.78839
           42184         3.37722
           42185         3.17204
           42186         3.71535
           42187         3.06084
           42188         3.76802
           42189         3.24435
           42190         3.47547
           42191         3.95009
           42192         3.90255
           42193         4.08070
           42194         4.24953
           42195         3.95092
           42196         4.55554
           42197         4.50354
           42198         4.68382
           42199         4.82119
           42200         4.81313
           42201         5.01921
           42202         4.25505
           42203         3.99237
           42204         3.91869
           42205         3.74966
           42206         4.00777
           42207         3.88389
           42208         3.64430
           42209         3.78033
           42210         3.85181
           42211         3.50782
           42212         3.79671
           42213         4.04829
           42214         5.00896
           42215         4.24908
           42216         4.32019
           42217         4.25544
           42218         4.21295
           42219         4.20695
           42220         4.36954
           42221         4.33796
           42222         4.22497
           42223         4.29447
           42224         4.64511
           42225         4.65179
           42226         4.40187
           42227         4.42368
           42228         4.50124
           42229         2.38413
           42230         2.22048
           42231         2.24413
           42232         4.39263
           42233         4.30939
           42234         4.78168
           42235         4.73994
           42236         4.67468
           42237         3.36318
           42238         3.52736
           42239         3.40631
           42240         3.15364
           42241         3.26253
           42242         3.22590
           42243         3.04702
           42244         3.30875
           42245         3.31728
           42246         3.39812
           42247         2.91853
           42248         2.93151
           42249         3.00246
           42250         3.14069
           42251         3.81568
           42252         3.65200
           42253         3.60874
           42254         2.21279
           42255         2.17643
           42256         2.20228
           42257         2.07086
           42258         2.06259
           42259         2.05260
           42260         2.03405
           42261         2.15495
           42262         2.11899
           42263         2.11381
           42264         2.10512
           42265         2.14413
           42266         2.12858
           42267         2.16343
           42268         2.16546
           42269         2.16607
           42270         2.13897
           42271         3.35538
           42272         3.64268
           42273         3.28595
           42274         3.42909
           42275         3.15773
           42276         3.49461
           42277         2.42587
           42278         2.51287
           42279         2.57621
           42280         3.17527
           42281         3.34061
           42282         3.10012
           42283     437.051E-03
           42284     402.076E-03
           42285     382.100E-03
           42286     446.976E-03
           42287     447.112E-03
           42288     402.361E-03
           42289     431.322E-03
           42290     458.644E-03
           42291     493.482E-03
           42292     473.526E-03
           42293     411.994E-03
           42294     505.669E-03
           42295     607.853E-03
           42296     567.039E-03
           42297     633.659E-03
           42298     530.555E-03
           42299     570.758E-03
           42300     470.084E-03
           42301     494.995E-03
           42302     367.456E-03
           42303     437.338E-03
           42304     402.559E-03
           42305     373.517E-03
           42306     515.004E-03
           42307     574.373E-03
           42308     515.468E-03
           42309     564.726E-03
           42310     627.521E-03
           42311         2.44262
           42312         2.52773
           42313         2.57117
           42314         2.69984
           42315         2.62326
           42316         2.56896
           42317         2.49632
           42318         2.61031
           42319         2.60002
           42320         2.73457
           42321         2.62446
           42322         2.63082
           42323         2.44395
           42324         2.26144
           42325         2.30010
           42326         2.26421
           42327         2.52927
           42328         2.57174
           42329         2.70114
           42330         1.89834
           42331         1.93629
           42332         1.91913
           42333         1.94402
           42334         1.90454
           42335         1.92277
           42336         1.91066
           42337         1.88905
           42338         1.89868
           42339         1.87826
           42340         1.88645
           42341         1.87811
           42342         1.87867
           42343         1.87426
           42344         3.04511
           42345         3.22662
           42346         2.68294
           42347         2.69456
           42348         2.69028
           42349         2.79328
           42350         2.66925
           42351         3.08413
           42352         2.89647
           42353         2.68549
           42354         2.68153
           42355         2.66431
           42356         2.89060
           42357         3.13578
           42358         3.06763
           42359         5.38738
           42360         5.34101
           42361         5.31880
           42362         5.38933
           42363         5.25870
           42364         5.27521
           42365         5.37395
           42366         5.43827
           42367         5.48944
           42368         5.38447
           42369         5.42818
           42370         5.42434
           42371         5.46738
           42372         5.49847
           42373         5.52514
           42374         5.45967
           42375         5.45805
           42376         5.46274
           42377         5.45987
           42378         5.46129
           42379         5.45732
           42380         5.45420
           42381         5.46020
           42382         5.46076
           42383         5.46574
           42384         5.46002
           42385         5.44602
           42386         5.41337
           42387         5.43520
           42388         5.42784
           42389         5.44051
           42390         5.44439
           42391         5.47546
           42392         5.49377
           42393         5.48127
           42394         5.47133
           42395         5.45460
           42396         5.46567
           42397         5.47492
           42398         5.45796
           42399         5.44387
           42400         5.69875
           42401         5.70242
           42402         5.70253
           42403         5.71022
           42404         5.70656
           42405         5.70673
           42406         5.69811
           42407         5.70248
           42408         5.70365
           42409         2.53539
           42410         2.52755
           42411         2.51883
           42412         2.51651
           42413         2.52442
           42414         2.53266
           42415         2.49709
           42416         2.50591
           42417         2.49952
           42418         2.50466
           42419         2.51874
           42420         2.52158
           42421         2.51432
           42422         2.51091
           42423         2.50729
           42424         2.51482
           42425         2.50962
           42426         2.50473
           42427         2.49584
           42428         2.50291
           42429         2.50796
           42430         2.51914
           42431         2.53508
           42432         2.53544
           42433         2.51926
           42434         2.52699
           42435         2.53465
           42436         2.52397
           42437         2.88308
           42438         2.87898
           42439         2.84979
           42440         2.87816
           42441         2.88232
           42442         2.91399
           42443         2.92162
           42444         2.89529
           42445         2.95433
           42446         2.96225
           42447         2.95489
           42448         2.92217
           42449         2.87516
           42450         2.87013
           42451         2.90695
           42452         2.19599
           42453         2.23125
           42454         2.19070
           42455         2.24337
           42456         2.23125
           42457         2.26345
           42458         2.21372
           42459         2.22656
           42460         2.22199
           42461         2.26253
           42462         2.22781
           42463         2.27399
           42464         2.26611
           42465         2.20468
           42466         2.19511
           42467         2.20906
           42468         2.17928
           42469         2.22808
           42470         2.23277
           42471         2.19299
           42472         4.90015
           42473         5.05291
           42474         4.94663
           42475         5.03092
           42476         4.87875
           42477         4.98417
           42478         4.75097
           42479         4.69534
           42480         4.73280
           42481         4.83437
           42482         4.78900
           42483         4.78782
           42484         4.70597
           42485         4.71683
           42486         4.57679
           42487         4.65590
           42488         4.64489
           42489         4.93644
           42490         5.03178
           42491         4.88025
           42492         4.87050
           42493         4.79900
           42494         4.86910
           42495         4.71704
           42496         4.72833
           42497         4.80912
           42498         4.87893
           42499         5.00400
           42500         4.88917
           42501         4.83066
           42502         5.39743
           42503         5.32052
           42504         5.28946
           42505         5.33718
           42506         5.02810
           42507         4.91522
           42508         5.04066
           42509         4.97615
           42510         5.00392
           42511         5.06780
           42512         5.13764
           42513         5.13934
           42514         5.07314
           42515         2.68350
           42516         2.63423
           42517         2.63358
           42518         2.63338
           42519         2.68212
           42520         2.68376
           42521         2.71874
           42522         2.73995
           42523         2.73672
           42524         2.71623
           42525         2.73767
           42526         2.59976
           42527         2.64390
           42528         2.66048
           42529         2.61377
           42530         2.62432
           42531         2.69353
           42532         2.72999
           42533         2.72661
           42534         2.75278
           42535         2.71514
           42536         2.72605
           42537         2.36796
           42538         2.38183
           42539         2.39365
           42540         2.36825
           42541         2.37921
           42542         2.35342
           42543         2.38002
           42544         2.39899
           42545         2.42149
           42546         2.41570
           42547         2.43355
           42548         2.41133
           42549         2.41744
           42550         2.40756
           42551         2.41359
           42552         2.38853
           42553         2.38393
           42554         2.39744
           42555         2.40495
           42556         2.40407
           42557         2.39265
           42558         2.38605
           42559         2.39077
           42560         2.40354
           42561         4.52437
           42562         4.75027
           42563         4.44601
           42564         4.47096
           42565         4.93077
           42566         4.83950
           42567         4.93097
           42568         4.85403
           42569         4.95583
           42570         4.87401
           42571         4.93886
           42572         4.71315
           42573         4.84878
           42574         4.66214
           42575         4.70546
           42576         4.97381
           42577         4.97470
           42578         5.04763
           42579         5.07605
           42580         5.25821
           42581         5.18106
           42582         4.93929
           42583         4.74527
           42584         4.84242
           42585         4.77529
           42586         4.96951
           42587         4.86967
           42588         4.80634
           42589         4.90280
           42590     484.104E-03
           42591         5.67898
           42592         5.65529
           42593         5.71587
           42594         5.74373
           42595         5.76744
           42596         5.69223
           42597         5.72690
           42598         5.70115
           42599         5.77638
           42600         5.70832
           42601         5.78484
           42602         5.79490
           42603         5.75469
           42604         2.63238
           42605         2.57809
           42606         2.61252
           42607         2.61497
           42608         2.63566
           42609         2.54433
           42610         2.54765
           42611         2.56432
           42612         2.51989
           42613         2.50214
           42614         2.60003
           42615         2.56320
           42616         2.56930
           42617         2.58379
           42618         2.52386
           42619         2.56895
           42620         2.60498
           42621         2.58052
           42622         2.56543
           42623         2.63581
           42624         2.62780
           42625     176.456E-03
           42626     234.677E-03
           42627     220.113E-03
           42628     240.997E-03
           42629     181.732E-03
           42630     198.325E-03
           42631     113.535E-03
           42632     88.4590E-03
           42633     126.379E-03
           42634     101.537E-03
           42635     209.273E-03
           42636     201.089E-03
           42637     88.8832E-03
           42638     112.890E-03
           42639     104.424E-03
           42640     70.0041E-03
           42641     145.205E-03
           42642     102.871E-03
           42643     103.662E-03
           42644         1.69436
           42645         1.74622
           42646         1.71777
           42647         1.74612
           42648         1.85061
           42649         1.91086
           42650         1.87720
           42651         1.86888
           42652         1.80168
           42653         1.91670
           42654         1.85647
           42655         1.88945
           42656         1.33325
           42657         1.62840
           42658         1.35612
           42659         1.58828
           42660         1.29266
           42661         1.58971
           42662         1.29248
           42663         1.10799
           42664         1.30981
           42665         1.24382
           42666     805.562E-03
           42667     977.919E-03
           42668         1.14075
           42669         1.36625
           42670         1.36931
           42671         1.26618
           42672     173.583E-03
           42673     291.896E-03
           42674     153.394E-03
           42675     145.871E-03
           42676         1.07484
           42677         1.16282
           42678         4.22755
           42679         4.41244
           42680         4.26481
           42681         4.39378
           42682         4.20156
           42683         4.34794
           42684         4.44250
           42685         4.29996
           42686         4.47882
           42687         3.90973
           42688         3.72912
           42689         3.97555
           42690         4.22792
           42691         4.27386
           42692         4.14954
           42693         4.07059
           42694         4.21664
           42695         4.41065
           42696         4.34531
           42697         4.20198
           42698         4.39326
           42699         8.37041
           42700         8.45463
           42701         8.53703
           42702         8.03044
           42703         8.44808
           42704         8.65491
           42705         8.24646
           42706         8.92473
           42707         8.62665
           42708         7.84774
           42709         7.55477
           42710         7.50974
           42711         6.97752
           42712         7.28898
           42713         7.14631
           42714         7.69733
           42715         7.62970
           42716         2.31660
           42717         2.38906
           42718         2.70077
           42719         2.62753
           42720         2.66809
           42721         2.79036
           42722         2.70524
           42723         2.81716
           42724         2.72237
           42725         2.46395
           42726         2.40551
           42727         2.51233
           42728         2.71068
           42729     504.521E-03
           42730     368.965E-03
           42731     212.070E-03
           42732     220.512E-03
           42733     253.233E-03
           42734     246.409E-03
           42735     363.362E-03
           42736     246.384E-03
           42737     239.194E-03
           42738     324.393E-03
           42739     343.135E-03
           42740         2.44824
           42741         2.44807
           42742         2.47111
           42743         2.43195
           42744         2.40824
           42745         2.44141
           42746         2.48526
           42747         2.50590
           42748         2.50902
           42749         2.53676
           42750         2.50297
           42751         2.51212
           42752         2.51533
           42753         1.38068
           42754         1.45361
           42755         1.41876
           42756         1.41038
           42757         1.41984
           42758         1.47881
           42759         1.50574
           42760         1.55351
           42761         1.63788
           42762         1.56785
           42763         1.60866
           42764         1.64638
           42765         1.61034
           42766         1.45945
           42767         1.50215
           42768         1.42360
           42769     225.680E-03
           42770     182.124E-03
           42771     159.913E-03
           42772     181.869E-03
           42773         2.24868
           42774         2.21582
           42775         2.22252
           42776     110.845E-03
           42777     140.453E-03
           42778     128.996E-03
           42779     133.724E-03
           42780     131.073E-03
           42781     172.610E-03
           42782     161.278E-03
           42783     175.758E-03
           42784     202.824E-03
           42785     237.563E-03
           42786     205.102E-03
           42787         2.87950
           42788         2.90390
           42789         2.89085
           42790         2.88676
           42791         2.86038
           42792         2.82043
           42793         2.82675
           42794         2.85268
           42795         2.89363
           42796         2.82388
           42797         2.74261
           42798         2.77702
           42799         2.78309
           42800         2.74898
           42801         2.73200
           42802         2.74590
           42803         2.73625
           42804         3.09759
           42805         3.11788
           42806         3.00390
           42807         3.13291
           42808         3.23192
           42809         2.92122
           42810         2.90300
           42811         2.88003
           42812         2.95987
           42813         2.89573
           42814         3.89680
           42815         3.77600
           42816         3.80480
           42817         3.92136
           42818         3.94469
           42819         2.97106
           42820         2.89255
           42821         2.84476
           42822         2.87538
           42823         2.95293
           42824         2.82660
           42825         2.90366
           42826         2.95197
           42827         2.92266
           42828         2.97732
           42829         3.04249
           42830         3.08406
           42831         3.02537
           42832         2.96224
           42833         3.06865
           42834         3.12822
           42835         3.00909
           42836         3.03556
           42837         3.18519
           42838         3.15789
           42839         2.82746
           42840         2.81863
           42841         2.74368
           42842         2.85866
           42843     818.409E-03
           42844     814.355E-03
           42845     799.832E-03
           42846     873.431E-03
           42847     888.128E-03
           42848         3.59529
           42849         3.75616
           42850         3.31210
           42851         3.74149
           42852         3.59247
           42853         4.07363
           42854         3.25123
           42855         3.39778
           42856         3.66894
           42857         2.37667
           42858         2.39798
           42859         2.44599
           42860         2.39891
           42861         2.37748
           42862         2.34241
           42863         2.26096
           42864         2.30502
           42865         2.26206
           42866         2.29682
           42867         2.28705
           42868         2.33968
           42869         2.25830
           42870         2.60444
           42871         2.54607
           42872         2.39519
           42873         4.92583
           42874         5.13415
           42875         5.18420
           42876         5.09031
           42877         5.13899
           42878         5.18479
           42879         5.14651
           42880         5.02415
           42881         5.18051
           42882         5.13225
           42883         5.08778
           42884         5.18184
           42885         5.14450
           42886         5.03485
           42887         3.91990
           42888         3.72370
           42889         3.83615
           42890         3.85910
           42891         3.89638
           42892         3.87288
           42893         3.54915
           42894         3.57684
           42895         3.51327
           42896         3.68786
           42897         3.66537
           42898         3.71741
           42899         3.54286
           42900         3.43123
           42901         3.57279
           42902         3.88517
           42903         3.82953
           42904         3.85505
           42905         2.56312
           42906         2.57118
           42907         2.56594
           42908         2.56408
           42909         2.55614
           42910         2.56135
           42911         2.57685
           42912         2.57833
           42913         2.56726
           42914         2.57008
           42915         2.56636
           42916         2.57518
           42917         2.57231
           42918         2.56369
           42919         2.55689
           42920         3.43490
           42921         3.43118
           42922         3.22336
           42923         3.49517
           42924         3.51038
           42925         3.71270
           42926         3.24197
           42927         3.38339
           42928         3.37766
           42929         3.26704
           42930         3.12020
           42931         3.12844
           42932         3.49849
           42933         3.65503
           42934         3.04268
           42935         2.84826
           42936         3.04011
           42937         2.89946
           42938         3.09601
           42939         2.90962
           42940         2.92054
           42941         3.04385
           42942         3.05304
           42943         3.33267
           42944         3.42004
           42945         3.42839
           42946         3.39762
           42947         3.84942
           42948         3.53060
           42949         3.34724
           42950         3.54049
           42951         3.31877
           42952         3.13163
           42953         3.37498
           42954         3.17290
           42955         3.21722
           42956         3.24750
           42957         3.06183
           42958         3.01844
           42959         3.04279
           42960         3.05776
           42961         3.10320
           42962         3.07696
           42963         3.10574
           42964         3.14625
           42965         3.19297
           42966         3.12096
           42967         3.09235
           42968         3.16166
           42969         3.05429
           42970         3.08215
           42971         3.10896
           42972         3.07897
           42973         3.04389
           42974         1.06009
           42975         1.07941
           42976         1.09573
           42977         1.02793
           42978         1.01004
           42979     992.550E-03
           42980     545.053E-03
           42981         1.08366
           42982         1.06730
           42983     986.072E-03
           42984         1.00368
           42985         1.00939
           42986         1.16521
           42987         1.16402
           42988         1.13417
           42989         1.20580
           42990         5.40936
           42991         5.51300
           42992         5.49060
           42993         5.55473
           42994         5.44993
           42995         5.47170
           42996         5.49030
           42997         5.36695
           42998         5.50620
           42999         5.43078
           43000         5.55595
           43001         5.41373
           43002         5.44971
           43003         5.43388
           43004         5.30057
           43005         5.32044
           43006         5.36418
           43007         5.49275
           43008         5.49380
           43009         5.39157
           43010         5.49456
           43011         5.66616
           43012         5.62501
           43013         5.57194
           43014         5.34342
           43015         5.32461
           43016         5.40732
           43017         2.42245
           43018         2.42250
           43019         3.96047
           43020         3.83977
           43021         2.70690
           43022         2.72871
           43023         2.63227
           43024         2.65223
           43025         2.73260
           43026         2.68363
           43027         2.70706
           43028         2.78112
           43029         2.80948
           43030         2.78107
           43031         2.62900
           43032         2.70154
           43033         2.72512
           43034         2.56675
           43035         2.57809
           43036         2.57806
           43037         2.63058
           43038         2.65519
           43039         2.49735
           43040         2.57794
           43041         3.42722
           43042         3.46247
           43043         3.40640
           43044         3.50359
           43045         3.43822
           43046         3.42294
           43047         3.45994
           43048         3.34553
           43049         3.41940
           43050         3.36860
           43051         3.44343
           43052         3.47907
           43053         3.49104
           43054         3.45442
           43055         3.43462
           43056         3.09458
           43057         3.07629
           43058         3.01706
           43059         2.99663
           43060         3.07211
           43061         3.58928
           43062         3.58131
           43063         3.51678
           43064         7.04740
           43065         7.71069
           43066     158.149E-03
           43067         6.60686
           43068         6.66280
           43069         6.73954
           43070         6.92842
           43071         6.78534
           43072         6.56072
           43073         6.69750
           43074         6.62606
           43075         6.54888
           43076         6.81143
           43077         4.88821
           43078         4.88156
           43079         4.77315
           43080         5.00388
           43081         4.99291
           43082         5.10054
           43083         4.87963
           43084         4.76330
           43085         4.77679
           43086         4.41802
           43087         4.50219
           43088         4.49166
           43089         4.55358
           43090         4.58110
           43091         4.77857
           43092         4.58158
           43093         4.55374
           43094         5.65102
           43095         5.68159
           43096         5.67560
           43097         5.65951
           43098         5.70955
           43099         5.71564
           43100         5.70353
           43101         5.69375
           43102         5.68385
           43103         5.69788
           43104         5.71473
           43105         5.71782
           43106         5.70903
           43107         1.88001
           43108         1.87725
           43109         1.88129
           43110         1.89442
           43111         1.88998
           43112         1.92102
           43113         1.94543
           43114         1.93760
           43115         1.95329
           43116         1.92760
           43117         1.93398
           43118         1.92235
           43119         1.93406
           43120         1.91201
           43121         1.90481
           43122         1.91908
           43123         1.94439
           43124         1.91989
           43125         1.93181
           43126         1.92650
           43127         1.95139
           43128         1.93226
           43129         1.91992
           43130         1.91162
           43131         3.44461
           43132         3.51801
           43133         3.52588
           43134         3.44959
           43135         12.2967
           43136         11.8171
           43137         11.8478
           43138         11.8329
           43139         11.0269
           43140         11.5016
           43141         10.7853
           43142         11.0350
           43143         11.8079
           43144         12.3832
           43145         11.5942
           43146         12.8520
           43147         14.1099
           43148         13.4908
           43149         13.9007
           43150         12.6833
           43151         13.1808
           43152         13.4123
           43153         14.0609
           43154         12.8290
           43155         12.8966
           43156         1.86457
           43157         1.93587
           43158         1.86199
           43159         1.92897
           43160         1.85928
           43161         1.93161
           43162         1.85971
           43163         1.93054
           43164         1.87697
           43165         1.80406
           43166         1.87450
           43167         1.75366
           43168         1.77361
           43169         1.79374
           43170         1.80919
           43171         1.77435
           43172         1.88567
           43173         1.89093
           43174         1.85515
           43175         1.87639
           43176         4.07362
           43177         4.10217
           43178         4.20860
           43179         4.14548
           43180         4.11600
           43181         4.01160
           43182         4.31433
           43183         4.34481
           43184         4.27207
           43185         4.09657
           43186         4.18846
           43187         4.32405
           43188         3.91121
           43189         3.92668
           43190         3.87540
           43191         3.99973
           43192         3.86023
           43193         3.96880
           43194         4.07070
           43195         3.94356
           43196         3.95944
           43197         3.87243
           43198         3.82229
           43199         3.83386
           43200         4.06213
           43201         2.91952
           43202         2.96812
           43203         2.99249
           43204         3.03563
           43205         3.13308
           43206         3.08670
           43207         3.04031
           43208         3.16593
           43209         3.16922
           43210         3.04783
           43211         3.11485
           43212         3.03732
           43213         2.99643
           43214         5.64438
           43215         5.63110
           43216         5.51347
           43217         5.54788
           43218         5.56149
           43219         5.68052
           43220         5.35130
           43221         5.34158
           43222         5.51568
           43223         5.37041
           43224         5.38030
           43225         5.21070
           43226         5.73229
           43227         5.69709
           43228         2.89273
           43229         2.85535
           43230         2.92974
           43231         2.89859
           43232         2.93986
           43233         2.95823
           43234         2.99762
           43235         3.01358
           43236         3.10646
           43237         3.06092
           43238         3.04605
           43239         2.92506
           43240         2.97563
           43241         2.90649
           43242         2.90456
           43243         2.85961
           43244         2.83272
           43245         2.82846
           43246         2.90049
           43247         3.15650
           43248         3.06397
           43249         2.98923
           43250         3.08226
           43251     485.022E-03
           43252     528.061E-03
           43253     501.282E-03
           43254     545.718E-03
           43255     528.500E-03
           43256     510.476E-03
           43257     572.993E-03
           43258     608.110E-03
           43259     634.261E-03
           43260     699.163E-03
           43261     721.794E-03
           43262     687.941E-03
           43263     389.602E-03
           43264     523.901E-03
           43265     577.001E-03
           43266     547.446E-03
           43267         5.71850
           43268         5.62645
           43269         5.65784
           43270         5.60221
           43271         5.69474
           43272         5.66413
           43273         5.68156
           43274         5.69354
           43275         5.76871
           43276         5.68475
           43277         5.66942
           43278         5.59689
           43279         5.72448
           43280         5.62768
           43281         5.58991
           43282         5.65488
           43283         2.47917
           43284         2.47977
           43285         2.47317
           43286         2.46415
           43287         2.49659
           43288         2.50366
           43289         2.50945
           43290         2.52708
           43291         3.65237
           43292         3.50830
           43293         3.61247
           43294         2.50070
           43295         2.50725
           43296         2.50485
           43297         2.48524
           43298         2.47921
           43299         2.48039
           43300         2.46397
           43301         2.42476
           43302         2.44728
           43303         2.43337
           43304         2.47268
           43305         2.44988
           43306         2.47234
           43307         2.49530
           43308         2.47618
           43309         2.45484
           43310         2.44661
           43311         2.52113
           43312         2.51372
           43313         2.53055
           43314         2.51151
           43315         2.43781
           43316         2.46432
           43317         2.65027
           43318         2.64105
           43319         2.64819
           43320         2.65867
           43321         2.64566
           43322         2.64305
           43323         2.63327
           43324         2.63725
           43325         2.63610
           43326         2.63268
           43327         2.63472
           43328         2.64399
           43329         2.63903
           43330         2.63652
           43331         2.62875
           43332         2.67287
           43333         2.65917
           43334         2.66212
           43335         2.64908
           43336         2.66060
           43337         2.69021
           43338         2.63573
           43339     159.920E-03
           43340     105.900E-03
           43341     218.691E-03
           43342     276.094E-03
           43343     200.306E-03
           43344     213.305E-03
           43345     251.570E-03
           43346     319.607E-03
           43347     280.341E-03
           43348     256.713E-03
           43349     307.048E-03
           43350     307.869E-03
           43351     284.410E-03
           43352     38.9798E-03
           43353     44.2150E-03
           43354     61.9467E-03
           43355     51.0762E-03
           43356     40.9449E-03
           43357     101.772E-03
           43358     338.222E-03
           43359     241.609E-03
           43360     299.939E-03
           43361     161.871E-03
           43362     255.449E-03
           43363     279.139E-03
           43364     422.464E-03
           43365     349.129E-03
           43366     349.625E-03
           43367     428.474E-03
           43368     312.569E-03
           43369     313.473E-03
           43370     414.567E-03
           43371     378.686E-03
           43372     364.858E-03
           43373     240.792E-03
           43374         2.29069
           43375         2.30007
           43376         2.25486
           43377         2.26693
           43378         2.24114
           43379         2.23245
           43380         2.22185
           43381         2.24674
           43382         2.21335
           43383         2.21645
           43384         2.24046
           43385         2.25502
           43386         2.23738
           43387         2.25063
           43388         2.23606
           43389         2.19723
           43390         2.21120
           43391         2.23074
           43392         2.22586
           43393         2.23661
           43394         2.27856
           43395         2.26674
           43396         2.26237
           43397         2.22282
           43398         3.97618
           43399         3.91637
           43400         4.14248
           43401         4.11578
           43402         4.04999
           43403         4.26587
           43404         4.32868
           43405         4.22811
           43406         4.43525
           43407         4.31853
           43408         4.39099
           43409         4.28959
           43410         4.40132
           43411         4.44324
           43412         4.35293
           43413         4.46978
           43414         4.39036
           43415         3.99861
           43416         4.30212
           43417         4.46512
           43418         4.26432
           43419         4.14313
           43420         4.08276
           43421         4.76583
           43422         4.84424
           43423         4.85690
           43424         4.94974
           43425         4.87613
           43426         4.86277
           43427         4.75863
           43428         4.66124
           43429         4.68115
           43430         4.68468
           43431         4.78294
           43432         4.76720
           43433         4.76366
           43434         4.74552
           43435         4.84063
           43436         4.85592
           43437         4.84206
           43438         4.94805
           43439         4.87400
           43440         4.85992
           43441         4.66913
           43442         4.57740
           43443         4.67872
           43444         4.66622
           43445         4.78916
           43446         4.78455
           43447         4.77761
           43448         4.68030
           43449         4.68980
           43450         2.58708
           43451         2.58046
           43452         2.59303
           43453         2.59841
           43454         2.60562
           43455         2.59091
           43456         2.57904
           43457         2.59911
           43458         2.62640
           43459         2.61193
           43460         2.63429
           43461         2.62108
           43462         2.60409
           43463         2.54471
           43464         2.53696
           43465         2.55030
           43466         2.62049
           43467         2.60292
           43468         2.77607
           43469         2.84382
           43470         2.90585
           43471         2.83578
           43472         3.65881
           43473     195.771E-03
           43474     195.670E-03
           43475     103.746E-03
           43476     150.602E-03
           43477     148.536E-03
           43478         2.80366
           43479         2.88668
           43480         2.85728
           43481         2.87990
           43482         2.60460
           43483         2.64240
           43484         2.80588
           43485         2.58621
           43486         5.61917
           43487         5.83064
           43488         5.55528
           43489         6.16553
           43490         5.97663
           43491         5.19221
           43492         5.35843
           43493         5.68208
           43494         5.73881
           43495         5.55698
           43496         5.25667
           43497         6.05267
           43498         5.43043
           43499         5.59918
           43500         6.21766
           43501         5.81424
           43502         5.06684
           43503         2.64315
           43504         2.63494
           43505         2.62907
           43506         2.63234
           43507         2.63203
           43508         2.63872
           43509         2.63426
           43510         2.64361
           43511         2.63929
           43512         2.63856
           43513         2.64312
           43514         2.64123
           43515         2.64100
           43516         2.63658
           43517         3.57794
           43518         3.66500
           43519         3.71782
           43520         3.65676
           43521         3.50254
           43522         2.79111
           43523         2.95190
           43524         2.89065
           43525         2.80431
           43526         2.82448
           43527         2.77381
           43528         2.81932
           43529         2.69663
           43530         2.63495
           43531         2.64036
           43532         2.70758
           43533         2.66327
           43534         2.90923
           43535         2.98199
           43536         2.95335
           43537         3.01135
           43538         2.93627
           43539         2.97392
           43540         2.89801
           43541         2.95575
           43542         2.92655
           43543         2.95555
           43544         2.87881
           43545         2.84864
           43546         2.89502
           43547         3.88659
           43548         4.04817
           43549         3.94624
           43550         3.78531
           43551         3.56800
           43552         3.57845
           43553         3.42945
           43554         3.60835
           43555         3.59419
           43556         3.44704
           43557         3.62685
           43558         3.48815
           43559         3.41189
           43560         3.59073
           43561         3.47108
           43562         3.76116
           43563         3.89847
           43564         3.55228
           43565         3.56077
           43566         5.60015
           43567         5.56787
           43568         5.59780
           43569         5.56189
           43570         5.59366
           43571         5.57187
           43572         5.59179
           43573         5.58700
           43574         5.61168
           43575         5.57938
           43576         5.58484
           43577         5.62217
           43578         5.60074
           43579         5.65350
           43580         5.70602
           43581         5.68495
           43582         5.72657
           43583         5.67141
           43584         5.69140
           43585         5.59865
           43586         5.62359
           43587         5.62618
           43588         5.62927
           43589         5.60033
           43590         5.71099
           43591         5.71334
           43592         5.65450
           43593         5.68007
           43594         5.66319
           43595         5.64648
           43596         5.64340
           43597         5.29444
           43598         5.18569
           43599         5.18535
           43600         5.24675
           43601         5.35530
           43602         5.35748
           43603         3.43985
           43604         3.27468
           43605         3.47430
           43606         3.32328
           43607         3.49008
           43608         3.29155
           43609         3.47707
           43610         3.38014
           43611         3.51492
           43612         3.46271
           43613         3.57276
           43614         3.42091
           43615         3.26440
           43616         3.24041
           43617         3.24472
           43618         3.17701
           43619         3.28121
           43620         3.27781
           43621         3.23409
           43622         3.14393
           43623         3.34550
           43624         3.29727
           43625         3.19438
           43626         3.24213
           43627         5.88332
           43628         6.21592
           43629         6.42072
           43630         6.58800
           43631         6.16020
           43632         6.14583
           43633         5.28556
           43634         5.34521
           43635         5.28046
           43636         6.22560
           43637         6.02478
           43638         4.96007
           43639         5.52022
           43640         8.25484
           43641         8.29145
           43642         8.24909
           43643         8.01712
           43644         7.97709
           43645         7.18649
           43646         7.26405
           43647         7.13114
           43648         7.31260
           43649         7.23335
           43650         7.30611
           43651         7.04507
           43652         7.18382
           43653         7.00717
           43654         7.12438
           43655         7.75450
           43656         7.59623
           43657         7.91628
           43658         7.75565
           43659         7.62834
           43660         7.48134
           43661         7.63624
           43662         7.19128
           43663         7.23079
           43664         5.40191
           43665         5.45264
           43666         5.34287
           43667         5.24438
           43668         5.35189
           43669         5.26772
           43670         5.34328
           43671         5.27501
           43672         5.34691
           43673         5.46893
           43674         5.42254
           43675         5.44407
           43676         5.37815
           43677         5.49819
           43678         5.46635
           43679         5.42065
           43680     811.882E-03
           43681     879.574E-03
           43682     800.459E-03
           43683     820.667E-03
           43684     752.102E-03
           43685     830.736E-03
           43686     721.598E-03
           43687     687.078E-03
           43688     650.802E-03
           43689     715.861E-03
           43690     691.574E-03
           43691     773.363E-03
           43692     851.605E-03
           43693     791.619E-03
           43694         1.77414
           43695         1.73462
           43696         1.75863
           43697         1.77043
           43698         1.78559
           43699         1.75151
           43700         1.79072
           43701         1.80108
           43702         1.83595
           43703         1.83908
           43704         1.84720
           43705         1.89127
           43706         1.96118
           43707         1.91178
           43708         1.96030
           43709         1.78117
           43710         1.83059
           43711         1.86991
           43712         1.91195
           43713         1.84482
           43714         1.81194
           43715         1.87858
           43716         1.79248
           43717         1.97494
           43718         1.95228
           43719         1.99032
           43720         1.92721
           43721         1.95053
           43722     323.613E-03
           43723         4.70598
           43724         4.90847
           43725         4.76725
           43726         4.78849
           43727         4.72633
           43728         4.57217
           43729         4.44105
           43730         4.53690
           43731         4.58924
           43732         4.71810
           43733         4.62092
           43734         4.64727
           43735         4.51667
           43736         4.40005
           43737         4.53176
           43738         4.50808
           43739         4.51484
           43740         4.70931
           43741         4.69113
           43742         4.62164
           43743         3.60966
           43744         4.23235
           43745         4.07078
           43746         3.25919
           43747         3.38212
           43748         3.49375
           43749         3.31202
           43750         3.32663
           43751         3.39168
           43752         3.77796
           43753         3.43401
           43754         3.25369
           43755         3.36888
           43756     795.539E-03
           43757     713.372E-03
           43758     817.752E-03
           43759     823.759E-03
           43760     800.613E-03
           43761     758.385E-03
           43762     740.835E-03
           43763     673.209E-03
           43764     708.993E-03
           43765     784.063E-03
           43766     862.688E-03
           43767     766.956E-03
           43768     834.764E-03
           43769         1.01150
           43770     989.008E-03
           43771         1.02228
           43772     970.580E-03
           43773     959.783E-03
           43774     919.382E-03
           43775     764.407E-03
           43776     832.621E-03
           43777         5.61072
           43778         5.57037
           43779         5.54448
           43780         5.57700
           43781         5.58292
           43782         5.65545
           43783         5.66746
           43784         5.62155
           43785         5.61665
           43786         5.66441
           43787         5.62622
           43788         5.61411
           43789         5.67090
           43790         5.63052
           43791         5.62177
           43792         5.59285
           43793         5.60227
           43794         5.60952
           43795         3.51926
           43796         3.46121
           43797         3.38658
           43798         3.47868
           43799         3.49820
           43800         3.52132
           43801         3.56669
           43802         3.54066
           43803         1.73171
           43804         1.72764
           43805         2.11984
           43806         2.27402
           43807         2.16428
           43808         2.00392
           43809         2.39376
           43810         1.88679
           43811         2.40125
           43812         2.17078
           43813         2.17845
           43814         2.57999
           43815         5.21032
           43816         5.25639
           43817         5.20695
           43818         5.17870
           43819         5.22809
           43820         5.19310
           43821         5.23374
           43822         5.18698
           43823         5.28184
           43824         5.28054
           43825         5.23541
           43826         5.25751
           43827         5.28128
           43828         5.28150
           43829         5.25105
           43830         5.27345
           43831         5.31720
           43832         5.29977
           43833         5.27202
           43834         5.28894
           43835         5.23225
           43836         5.19269
           43837         5.20193
           43838         5.32527
           43839         5.28894
           43840         5.26541
           43841         2.41294
           43842         2.34010
           43843         2.38000
           43844         2.32703
           43845         2.48581
           43846         2.37367
           43847         2.41106
           43848         2.31894
           43849         1.49829
           43850         1.49641
           43851         1.54125
           43852         1.51176
           43853         1.50372
           43854         1.52511
           43855         1.50293
           43856         1.53411
           43857         1.45721
           43858         1.49538
           43859         1.37408
           43860         1.35265
           43861         1.34411
           43862         1.35697
           43863         3.36934
           43864         3.40372
           43865         3.43614
           43866         3.29084
           43867         3.25061
           43868         3.21804
           43869         1.54682
           43870         1.55781
           43871         6.05366
           43872         5.98267
           43873         6.03049
           43874         5.96193
           43875         6.02934
           43876         5.98467
           43877         6.06011
           43878         5.98841
           43879         5.99988
           43880         6.07416
           43881         6.02833
           43882         6.08011
           43883         6.11466
           43884         6.06750
           43885         3.05732
           43886         3.01537
           43887         6.16947
           43888         6.13558
           43889         6.08547
           43890         6.07934
           43891         6.11512
           43892         6.16036
           43893         6.15963
           43894         6.20082
           43895         6.14371
           43896         3.10091
           43897         3.24610
           43898         3.28744
           43899         3.09839
           43900         3.24778
           43901         3.20971
           43902         3.05308
           43903         3.05454
           43904         3.00569
           43905         2.90040
           43906         2.98591
           43907         3.07226
           43908         3.18147
           43909         3.09631
           43910         5.94515
           43911         5.87924
           43912         5.91805
           43913         6.09119
           43914         5.98360
           43915         5.83683
           43916         5.94109
           43917         5.77118
           43918         5.87860
           43919         5.77653
           43920         6.17339
           43921         6.23854
           43922         6.22960
           43923         6.17270
           43924         6.10721
           43925         6.11917
           43926         6.10936
           43927         6.00536
           43928         6.05006
           43929         5.98680
           43930         6.09253
           43931         6.04510
           43932         6.08933
           43933         5.98400
           43934         6.00360
           43935         6.04022
           43936         1.08608
           43937         1.01404
           43938         1.21047
           43939         1.23679
           43940         1.31547
           43941         1.10966
           43942         1.46089
           43943         1.70357
           43944         1.53464
           43945         1.91184
           43946         1.65539
           43947         1.83342
           43948         1.43337
           43949         1.44452
           43950         1.67299
           43951         1.80495
           43952         1.46846
           43953         1.35705
           43954         2.39496
           43955         2.40486
           43956         2.38993
           43957         2.39201
           43958         2.41221
           43959         2.38706
           43960         2.42230
           43961         2.42931
           43962         2.43269
           43963         2.43891
           43964         2.42378
           43965         2.43471
           43966         2.41709
           43967         2.42581
           43968         2.38827
           43969         2.37660
           43970         2.38389
           43971         2.40883
           43972         2.38220
           43973         2.41341
           43974         2.41065
           43975         2.41947
           43976         2.40026
           43977         1.48228
           43978         1.43869
           43979         1.63521
           43980         1.46014
           43981         1.50238
           43982         1.30872
           43983         1.17183
           43984         1.00570
           43985         1.15961
           43986         1.03553
           43987         1.20041
           43988         1.04596
           43989         1.40217
           43990         1.27125
           43991         1.33209
           43992         1.38931
           43993         1.52049
           43994         1.39342
           43995         1.53959
           43996         1.57745
           43997         1.36579
           43998         1.43218
           43999         1.16578
           44000         1.33324
           44001         1.20686
           44002         1.27228
           44003         1.23457
           44004         1.25323
           44005         1.11679
           44006         1.15337
           44007         1.13543
           44008         1.39921
           44009         1.26771
           44010         5.62720
           44011         5.63249
           44012         5.58097
           44013         5.57970
           44014         5.57096
           44015         5.62512
           44016         5.62874
           44017         5.61845
           44018         5.63009
           44019         5.63647
           44020         5.69710
           44021         5.57919
           44022     424.285E-03
           44023     162.528E-03
           44024     99.2274E-03
           44025     184.484E-03
           44026     125.927E-03
           44027     151.632E-03
           44028     99.3461E-03
           44029     160.924E-03
           44030     132.488E-03
           44031         4.10725
           44032         4.04807
           44033         4.22401
           44034         4.28269
           44035         4.11342
           44036     319.664E-03
           44037     442.950E-03
           44038     409.529E-03
           44039     409.434E-03
           44040     433.963E-03
           44041     11.5126E-03
           44042     22.0340E-03
           44043     15.0331E-03
           44044     20.0115E-03
           44045     13.6182E-03
           44046     17.6439E-03
           44047     21.2965E-03
           44048     21.6864E-03
           44049     21.4235E-03
           44050     20.9078E-03
           44051     22.1322E-03
           44052     21.5473E-03
           44053     23.4746E-03
           44054     20.3500E-03
           44055     14.3313E-03
           44056     22.8635E-03
           44057     21.9072E-03
           44058     21.5651E-03
           44059     21.4153E-03
           44060     21.1043E-03
           44061         5.17535
           44062         5.29059
           44063         5.19399
           44064         5.08474
           44065         5.26929
           44066         4.78978
           44067         4.96674
           44068         4.91003
           44069         5.06035
           44070         5.14640
           44071         5.00485
           44072         8.74684
           44073         8.49685
           44074         9.25850
           44075         10.7419
           44076         10.9697
           44077         11.1136
           44078         10.0404
           44079         10.5457
           44080         10.3489
           44081         11.4162
           44082         14.0698
           44083         14.0103
           44084         13.9879
           44085         14.8534
           44086         14.4007
           44087         14.2590
           44088         13.8360
           44089         13.0280
           44090         12.9657
           44091         12.9368
           44092         12.9298
           44093         12.1900
           44094         11.5588
           44095         13.1359
           44096         13.6401
           44097         12.7210
           44098         2.79956
           44099         2.78244
           44100         2.81122
           44101         2.80335
           44102         2.84268
           44103         2.81946
           44104         2.80735
           44105         2.79323
           44106         2.81465
           44107         2.82687
           44108         2.77927
           44109         2.78569
           44110         2.83141
           44111         2.84870
           44112     816.928E-03
           44113     822.399E-03
           44114     768.726E-03
           44115     762.023E-03
           44116     805.705E-03
           44117     918.749E-03
           44118     877.151E-03
           44119     837.071E-03
           44120     823.339E-03
           44121     864.825E-03
           44122     906.295E-03
           44123     685.619E-03
           44124     679.011E-03
           44125     628.783E-03
           44126     634.234E-03
           44127     700.213E-03
           44128     659.880E-03
           44129     672.548E-03
           44130     606.852E-03
           44131     794.713E-03
           44132     741.784E-03
           44133     825.504E-03
           44134     784.193E-03
           44135         5.57575
           44136         5.56979
           44137         5.50837
           44138         5.41240
           44139         5.41860
           44140         5.47895
           44141         5.34119
           44142         5.34770
           44143         5.25426
           44144         5.43084
           44145         5.43694
           44146         5.27212
           44147         1.88804
           44148         1.91946
           44149         1.94143
           44150         1.93961
           44151         1.90670
           44152         1.88387
           44153         5.58878
           44154         5.58286
           44155         5.65430
           44156         5.65953
           44157         5.73626
           44158         5.72295
           44159         5.65636
           44160         5.79275
           44161         5.64831
           44162         5.74498
           44163         5.60916
           44164         5.75242
           44165         5.51049
           44166         2.70964
           44167         3.14686
           44168         3.02982
           44169         3.62011
           44170         2.95833
           44171         3.42583
           44172         2.88822
           44173         4.26518
           44174         3.25286
           44175         3.93078
           44176         5.63638
           44177         5.62675
           44178         5.63832
           44179         5.61483
           44180         5.62742
           44181         5.61279
           44182         5.64231
           44183         5.64141
           44184         5.63541
           44185         5.62232
           44186         5.62255
           44187         5.62663
           44188         5.58822
           44189         5.57446
           44190         5.59449
           44191         5.59881
           44192         5.61308
           44193         5.62694
           44194         5.32212
           44195         5.16857
           44196         5.25178
           44197         5.19196
           44198         5.34617
           44199         5.26288
           44200         5.36957
           44201         5.21346
           44202         5.19853
           44203         5.35195
           44204         5.31473
           44205         5.57530
           44206         5.68403
           44207         5.51245
           44208         5.61374
           44209         5.50541
           44210         5.67607
           44211         2.09714
           44212         2.14477
           44213         2.18516
           44214         2.23455
           44215         2.19972
           44216         2.18278
           44217         2.18620
           44218         2.17942
           44219         2.19215
           44220         2.19981
           44221         2.23732
           44222         2.13133
           44223         2.16915
           44224         2.15501
           44225         2.65875
           44226         2.65508
           44227         2.66415
           44228         2.66819
           44229         2.67486
           44230         2.67359
           44231         2.67139
           44232         2.66419
           44233         2.66584
           44234         2.65834
           44235         2.66020
           44236         2.66223
           44237         2.66833
           44238         2.67085
           44239         2.66283
           44240         2.66612
           44241         2.66443
           44242         2.67170
           44243         2.67373
           44244         2.67525
           44245         3.54920
           44246         4.80018
           44247         4.68691
           44248         4.56898
           44249         4.55535
           44250         4.53157
           44251         4.93674
           44252         4.89375
           44253         4.80417
           44254         4.68531
           44255         4.71841
           44256         4.74316
           44257         4.84717
           44258         4.81633
           44259         4.78998
           44260         4.83004
           44261         4.71773
           44262         4.74934
           44263         4.85653
           44264         4.58138
           44265         4.57940
           44266         2.99141
           44267         3.03211
           44268         3.00878
           44269         3.00420
           44270         2.89924
           44271         2.93455
           44272         2.92629
           44273         3.03857
           44274         3.01295
           44275         3.00646
           44276         2.97312
           44277         3.00889
           44278         2.94295
           44279         2.95768
           44280         6.07732
           44281         5.91638
           44282         6.06116
           44283         5.80828
           44284         5.88392
           44285         5.57315
           44286         5.65004
           44287         5.71716
           44288         5.59767
           44289         6.02474
           44290         6.00165
           44291         5.81697
           44292         5.90409
           44293         5.78483
           44294         5.65183
           44295         5.73334
           44296         5.69132
           44297         5.74203
           44298         5.63992
           44299         5.77224
           44300         5.71775
           44301         5.67889
           44302         5.67876
           44303         1.75296
           44304         1.71857
           44305         1.75530
           44306         1.74437
           44307         1.79060
           44308         1.72539
           44309         1.73778
           44310         1.68249
           44311         1.62626
           44312         1.70573
           44313         1.72069
           44314         1.72441
           44315         1.78411
           44316         1.75446
           44317         3.07014
           44318         3.04627
           44319         3.18254
           44320         3.18051
           44321         3.13534
           44322         3.06848
           44323         3.11625
           44324         3.12910
           44325         3.25127
           44326         3.24692
           44327         3.28669
           44328         3.41150
           44329         3.29840
           44330         2.96282
           44331         3.23837
           44332         3.15609
           44333         3.15238
           44334         3.23498
           44335         3.13476
           44336         3.07176
           44337         3.08762
           44338         4.03301
           44339         4.06519
           44340         4.00378
           44341         3.98197
           44342         3.94982
           44343         4.00997
           44344         3.91127
           44345         3.99109
           44346         4.05437
           44347         4.11650
           44348         3.96985
           44349         3.33713
           44350         3.36638
           44351         3.81019
           44352         3.80869
           44353         3.74910
           44354         4.19501
           44355         1.34540
           44356         1.36125
           44357         1.20395
           44358         1.36798
           44359         1.27795
           44360         1.23854
           44361         1.31180
           44362         1.37891
           44363         1.28928
           44364         1.35442
           44365     11.9533E-03
           44366     13.2129E-03
           44367     29.4412E-03
           44368     14.7583E-03
           44369     16.8710E-03
           44370     12.5755E-03
           44371     16.0867E-03
           44372     30.6972E-03
           44373     47.0335E-03
           44374     30.0606E-03
           44375     30.0596E-03
           44376     11.7614E-03
           44377     11.8753E-03
           44378     23.3045E-03
           44379     43.9317E-03
           44380     44.1405E-03
           44381     23.4584E-03
           44382     40.7916E-03
           44383     14.0796E-03
           44384     30.0767E-03
           44385     31.0440E-03
           44386     27.6236E-03
           44387     11.0022E-03
           44388     47.0297E-03
           44389     44.1167E-03
           44390     48.6545E-03
           44391     31.0914E-03
           44392     48.9855E-03
           44393     48.3171E-03
           44394         5.04868
           44395         5.32895
           44396         5.33913
           44397         5.01424
           44398         4.80080
           44399         4.74713
           44400         4.85661
           44401         4.73125
           44402         4.59709
           44403         4.71882
           44404         4.81529
           44405         5.11995
           44406         5.15823
           44407         4.64694
           44408         4.63904
           44409         4.51647
           44410         4.62918
           44411         4.63211
           44412         3.08724
           44413         3.08186
           44414         3.07412
           44415         3.11600
           44416         3.07161
           44417         3.10592
           44418         3.13067
           44419         3.06913
           44420         3.09227
           44421         3.04232
           44422         3.03684
           44423         3.01344
           44424         3.02713
           44425         3.02195
           44426         2.99420
           44427         2.59702
           44428         2.58926
           44429         2.59998
           44430         2.59581
           44431         2.60684
           44432         2.59056
           44433         2.60951
           44434         2.61494
           44435         3.58400
           44436         3.75761
           44437         2.62899
           44438         2.64087
           44439         2.62704
           44440         2.63000
           44441         2.63189
           44442         3.42852
           44443         3.43609
           44444         3.22420
           44445         3.50800
           44446         3.44687
           44447         2.90331
           44448         2.73186
           44449         2.91416
           44450         3.08404
           44451         2.88352
           44452         3.62743
           44453         3.59033
           44454         3.75869
           44455         3.65342
           44456         3.89554
           44457         3.84927
           44458         3.74275
           44459         3.40628
           44460         3.44789
           44461         3.61507
           44462         3.59712
           44463         3.80947
           44464         3.75136
           44465         7.46166
           44466         7.48150
           44467         7.21737
           44468         7.42872
           44469         7.40839
           44470         7.67876
           44471         6.96905
           44472         6.83808
           44473         7.06137
           44474         7.06044
           44475         7.19554
           44476         6.96601
           44477         7.17662
           44478         7.31223
           44479         7.30851
           44480         7.33100
           44481         7.67340
           44482         7.40258
           44483         7.40124
           44484         7.45897
           44485         2.57012
           44486         2.61686
           44487         2.58342
           44488         2.61472
           44489         2.57078
           44490         2.60170
           44491         2.61990
           44492         2.60606
           44493         2.59672
           44494         2.56412
           44495         2.57424
           44496         3.64706
           44497         2.56639
           44498         2.56001
           44499         2.59262
           44500         2.54710
           44501         2.55230
           44502         2.54710
           44503         2.51791
           44504         2.51471
           44505         2.51848
           44506         2.53385
           44507         2.50431
           44508         2.48527
           44509         2.50975
           44510         2.63806
           44511         2.64341
           44512         2.62939
           44513         2.64751
           44514         2.65211
           44515         2.64655
           44516         2.65038
           44517         2.63906
           44518         2.63711
           44519         2.64706
           44520         4.13158
           44521         4.12502
           44522         3.95244
           44523         2.65068
           44524         2.65751
           44525         2.65428
           44526         2.62169
           44527         2.65061
           44528         2.65333
           44529         2.64709
           44530         2.64728
           44531         2.65499
           44532         2.65580
           44533         4.62581
           44534         4.67478
           44535         4.72772
           44536         4.66665
           44537         4.61786
           44538         4.74192
           44539         4.73050
           44540         4.74690
           44541         4.68582
           44542         4.66979
           44543         4.54345
           44544         4.44847
           44545         4.45646
           44546         4.55127
           44547         4.50148
           44548         4.72349
           44549         4.78644
           44550         4.65532
           44551         4.72168
           44552         4.65949
           44553         4.79031
           44554         4.45507
           44555         4.55009
           44556         4.51325
           44557         4.65690
           44558         4.78823
           44559         4.79541
           44560         4.66446
           44561         4.72850
           44562     254.767E-03
           44563     201.856E-03
           44564     259.841E-03
           44565     202.462E-03
           44566     255.631E-03
           44567     198.401E-03
           44568     292.333E-03
           44569     261.118E-03
           44570     316.067E-03
           44571     294.753E-03
           44572     338.786E-03
           44573     316.986E-03
           44574     340.860E-03
           44575     383.015E-03
           44576     408.596E-03
           44577     384.003E-03
           44578     571.062E-03
           44579     614.476E-03
           44580     495.164E-03
           44581     574.690E-03
           44582     108.515E-03
           44583     74.2411E-03
           44584     83.4235E-03
           44585     66.1730E-03
           44586     100.608E-03
           44587     91.3090E-03
           44588     96.3433E-03
           44589     65.3618E-03
           44590     99.7424E-03
           44591     78.6117E-03
           44592         2.37257
           44593         2.39677
           44594         2.38084
           44595         2.36699
           44596         2.38231
           44597         4.05137
           44598         2.35156
           44599         2.36728
           44600         2.37308
           44601         2.35047
           44602         2.29537
           44603         2.30540
           44604         2.40064
           44605         2.38570
           44606         2.38446
           44607         4.37707
           44608         4.48126
           44609         4.48872
           44610         4.38359
           44611         4.40403
           44612         4.38973
           44613         4.49479
           44614         4.40987
           44615         4.37066
           44616         4.31866
           44617         4.30486
           44618         4.22729
           44619         4.27873
           44620         4.29191
           44621         4.30668
           44622         4.30302
           44623         4.28248
           44624         4.31548
           44625         4.31997
           44626         4.29698
           44627         3.66957
           44628         3.45335
           44629         3.44356
           44630         3.29871
           44631         3.50571
           44632         3.51335
           44633         3.51826
           44634         3.42223
           44635         3.19996
           44636         3.41288
           44637         3.85199
           44638         4.02622
           44639         3.76945
           44640         4.02802
           44641         4.11241
           44642         4.37937
           44643         4.15827
           44644         3.90272
           44645         3.93197
           44646         2.71589
           44647         2.59497
           44648         2.86819
           44649         2.69244
           44650         2.14074
           44651         2.18294
           44652         2.34527
           44653         2.18794
           44654         2.72541
           44655         2.71249
           44656         2.70210
           44657         2.72892
           44658         2.68699
           44659         2.68545
           44660         2.70586
           44661         2.71437
           44662         2.71789
           44663         2.69552
           44664         2.70093
           44665         2.71102
           44666         2.74965
           44667         2.73624
           44668         2.72782
           44669         2.68327
           44670         2.68472
           44671         2.69296
           44672         2.71728
           44673         2.71394
           44674     346.900E-03
           44675     361.420E-03
           44676     317.579E-03
           44677     558.592E-03
           44678     476.531E-03
           44679     427.708E-03
           44680     450.098E-03
           44681     419.595E-03
           44682     481.112E-03
           44683     369.216E-03
           44684     398.844E-03
           44685     418.521E-03
           44686     388.463E-03
           44687     359.898E-03
           44688         5.08465
           44689         5.22053
           44690         5.26541
           44691         5.12747
           44692         5.19652
           44693         5.06306
           44694         5.19907
           44695         5.12674
           44696         4.95378
           44697         4.82403
           44698         4.88799
           44699         4.88073
           44700         5.16357
           44701         2.80693
           44702         2.80826
           44703         2.80771
           44704         2.72598
           44705         2.72595
           44706         2.64338
           44707         2.69581
           44708         2.77532
           44709         2.68888
           44710         2.74069
           44711         2.94198
           44712         2.86750
           44713         2.87215
           44714         3.88430
           44715     424.979E-03
           44716     540.233E-03
           44717     419.278E-03
           44718         5.77911
           44719         5.62399
           44720         5.55303
           44721         5.70677
           44722         5.79663
           44723         5.75686
           44724         5.43544
           44725         5.34968
           44726         5.41440
           44727         5.44498
           44728         5.53131
           44729         5.46521
           44730         5.72382
           44731         7.54603
           44732         7.29962
           44733         7.26194
           44734         7.21477
           44735         7.45771
           44736         7.49622
           44737         7.45578
           44738         7.49372
           44739         7.76520
           44740         7.72597
           44741         7.67401
           44742         7.76556
           44743         7.72598
           44744         7.94930
           44745         7.10567
           44746         7.34804
           44747         7.30030
           44748         7.67643
           44749         3.02606
           44750         1.80054
           44751         1.87498
           44752         1.83667
           44753         1.81447
           44754         1.85288
           44755         1.85672
           44756         1.85449
           44757         1.90784
           44758         1.91014
           44759         1.85830
           44760         1.89161
           44761         1.91145
           44762         1.96112
           44763         1.95751
           44764         1.93664
           44765         1.88493
           44766         1.89279
           44767         1.86491
           44768         3.46637
           44769         1.99050
           44770         1.98835
           44771         1.97515
           44772         1.94351
           44773         1.95256
           44774         1.98715
           44775         1.94499
           44776         1.95435
           44777         1.85141
           44778         4.55087
           44779         4.66570
           44780         4.57296
           44781         4.59841
           44782         4.65532
           44783         4.35584
           44784         4.43709
           44785         4.80227
           44786         4.90518
           44787         4.77909
           44788         4.67864
           44789         4.86675
           44790         4.57504
           44791         4.46119
           44792         4.70588
           44793         4.66955
           44794         4.80654
           44795         4.66762
           44796         4.62554
           44797         2.05159
           44798         2.06980
           44799         2.03793
           44800         1.88590
           44801         1.93924
           44802         1.95019
           44803         1.92709
           44804         1.90245
           44805         1.95028
           44806         2.02055
           44807         2.02389
           44808         1.99153
           44809         1.96868
           44810         2.00074
           44811         2.01520
           44812         2.00628
           44813         1.97482
           44814         1.90402
           44815         3.51595
           44816         3.67287
           44817         3.54483
           44818         3.60801
           44819         3.45173
           44820         3.57851
           44821         3.37711
           44822         3.30205
           44823         3.51026
           44824         3.58374
           44825         3.44311
           44826         3.46235
           44827         3.61890
           44828         3.68133
           44829         3.52471
           44830         3.59800
           44831         3.24497
           44832         3.12815
           44833         2.95965
           44834         3.12310
           44835     167.459E-03
           44836     156.456E-03
           44837     201.410E-03
           44838     199.609E-03
           44839     211.166E-03
           44840     165.580E-03
           44841     182.525E-03
           44842     171.432E-03
           44843     173.239E-03
           44844     191.698E-03
           44845     181.519E-03
           44846     259.057E-03
           44847     243.312E-03
           44848     228.500E-03
           44849     257.258E-03
           44850     231.092E-03
           44851     230.342E-03
           44852     242.466E-03
           44853     272.522E-03
           44854         6.18926
           44855         6.13741
           44856         6.11038
           44857         6.05222
           44858         6.10159
           44859         6.12918
           44860         6.18349
           44861         6.12964
           44862         6.15904
           44863         6.21172
           44864         6.22939
           44865         3.11912
           44866         3.08789
           44867         3.16569
           44868         3.17888
           44869         3.15896
           44870         3.11168
           44871         3.09799
           44872         3.20874
           44873         3.20348
           44874         3.14663
           44875         3.22117
           44876         3.29132
           44877         3.28362
           44878         3.22667
           44879         3.18964
           44880         3.20275
           44881         3.25313
           44882         3.51240
           44883         3.59098
           44884         3.55497
           44885         3.62779
           44886         3.54670
           44887         3.58271
           44888         1.82079
           44889         1.78292
           44890         5.36380
           44891         3.51145
           44892         3.58229
           44893         3.58981
           44894         3.51891
           44895         3.55384
           44896         3.44528
           44897         3.37728
           44898         3.40831
           44899         3.37221
           44900         3.44072
           44901         3.40895
           44902         2.57355
           44903         2.57452
           44904         2.56783
           44905         2.54514
           44906         2.53163
           44907         2.53819
           44908         2.53276
           44909         2.54559
           44910         2.53923
           44911         2.54838
           44912         2.54121
           44913         2.54506
           44914         2.56144
           44915         2.55391
           44916         2.54824
           44917         2.55196
           44918         2.91017
           44919         3.14959
           44920         3.11904
           44921         3.25984
           44922         3.02108
           44923         3.05381
           44924         3.26441
           44925         3.01981
           44926         3.20113
           44927         3.05492
           44928         3.05076
           44929         2.84902
           44930         2.62242
           44931         2.65066
           44932         2.47801
           44933         2.70353
           44934         2.67506
           44935         3.12890
           44936         2.95235
           44937         3.19158
           44938         2.63622
           44939         2.64382
           44940         2.64083
           44941         2.63367
           44942         2.63618
           44943         2.63937
           44944         2.63677
           44945         2.63525
           44946         2.64156
           44947         2.65086
           44948         2.64996
           44949         2.64871
           44950         2.62807
           44951         2.62311
           44952         2.60420
           44953         2.60738
           44954         2.61441
           44955         2.61653
           44956         2.60980
           44957         2.61206
           44958         2.61632
           44959         2.61252
           44960         2.61085
           44961         2.61477
           44962         2.61285
           44963         2.61833
           44964         2.61980
           44965         2.63015
           44966         2.62987
           44967         2.62180
           44968         2.62788
           44969         2.62495
           44970         9.78013
           44971         9.99158
           44972         11.6928
           44973         12.4680
           44974         12.0865
           44975         12.6918
           44976         12.1318
           44977         12.6860
           44978         12.8629
           44979         11.3147
           44980         2.95329
           44981         2.97247
           44982         2.99616
           44983         2.98247
           44984         2.96293
           44985         2.93975
           44986         3.01771
           44987         3.05184
           44988         3.00746
           44989         3.02993
           44990         2.99857
           44991         2.96488
           44992         2.94261
           44993         2.98738
           44994         3.00982
           44995     405.337E-03
           44996         3.03163
           44997         3.02119
           44998         3.06477
           44999         3.05480
           45000         2.98977
           45001         3.03773
           45002         3.06655
           45003         4.31450
           45004         4.27653
           45005         4.14345
           45006         4.17342
           45007         4.20672
           45008         4.33898
           45009         4.05066
           45010         4.07998
           45011         4.43616
           45012         4.30733
           45013         4.31916
           45014         4.19347
           45015         4.32580
           45016         4.15997
           45017         4.06191
           45018         4.04626
           45019     870.940E-03
           45020     824.361E-03
           45021         1.03196
           45022         1.59079
           45023         1.53412
           45024         1.50942
           45025         1.17252
           45026         1.30351
           45027         1.71087
           45028         1.08339
           45029     900.555E-03
           45030     994.852E-03
           45031         3.10856
           45032         3.41260
           45033         3.31157
           45034         3.13076
           45035         3.01350
           45036         3.06830
           45037         3.19367
           45038         3.23626
           45039         2.81127
           45040         2.93065
           45041         3.04309
           45042         2.87277
           45043         2.93802
           45044     828.286E-03
           45045     787.291E-03
           45046     752.686E-03
           45047     813.016E-03
           45048         2.66504
           45049         2.65870
           45050         2.67847
           45051         2.66796
           45052         2.64450
           45053         2.64993
           45054         2.65180
           45055         6.33098
           45056         6.09364
           45057         6.22960
           45058         6.15132
           45059         6.40599
           45060         6.25107
           45061         6.51085
           45062         6.27685
           45063         6.26271
           45064         6.27698
           45065         6.51059
           45066         6.54045
           45067         6.17815
           45068         6.40534
           45069         6.42024
           45070         6.17881
           45071         6.42186
           45072         2.47592
           45073         2.48348
           45074         2.50096
           45075         2.40026
           45076         2.45075
           45077         2.46220
           45078         2.41004
           45079         2.42964
           45080         2.43208
           45081     212.752E-03
           45082         2.73185
           45083         2.72905
           45084         2.72946
           45085         2.71950
           45086         2.71874
           45087         2.72881
           45088         2.72239
           45089         2.71780
           45090         2.70903
           45091         2.71501
           45092         2.69866
           45093         2.71032
           45094         2.70689
           45095         2.69727
           45096         2.72257
           45097         2.71078
           45098         2.70845
           45099         2.72044
           45100         2.73355
           45101         2.83220
           45102         2.53597
           45103         2.37943
           45104         2.19926
           45105         2.24310
           45106         2.42281
           45107         2.37823
           45108         2.18860
           45109         2.36937
           45110         2.41323
           45111         2.41514
           45112         2.54309
           45113         2.29468
           45114         2.57753
           45115         2.11207
           45116         2.06030
           45117         1.00760
           45118         1.11437
           45119     969.044E-03
           45120     952.221E-03
           45121     990.628E-03
           45122     857.962E-03
           45123     892.562E-03
           45124     775.017E-03
           45125         1.09455
           45126     988.118E-03
           45127     960.408E-03
           45128     836.644E-03
           45129     941.519E-03
           45130     779.167E-03
           45131     806.501E-03
           45132     911.952E-03
           45133     880.796E-03
           45134     846.478E-03
           45135     757.265E-03
           45136         1.04229
           45137         1.14689
           45138         1.06753
           45139         1.45151
           45140         1.73936
           45141         1.94527
           45142         1.80243
           45143         2.10676
           45144         1.89674
           45145         2.04297
           45146         1.49763
           45147         1.54031
           45148         1.64740
           45149         1.27182
           45150         1.23282
           45151         1.41153
           45152         1.62623
           45153         1.70085
           45154         2.01165
           45155         1.70414
           45156         1.84851
           45157         1.59839
           45158         1.75445
           45159         5.34106
           45160         4.94922
           45161         5.04874
           45162         5.38063
           45163         5.67760
           45164         5.81585
           45165         4.18034
           45166         3.96969
           45167         3.91184
           45168         6.91142
           45169         6.79058
           45170         6.20244
           45171         6.23937
           45172         6.06767
           45173         6.99247
           45174         7.07740
           45175         7.01034
           45176         6.99794
           45177         6.89681
           45178         6.63055
           45179         6.45410
           45180         6.66474
           45181         7.31937
           45182         7.28535
           45183         7.40980
           45184         7.40954
           45185         7.63046
           45186         7.08728
           45187         6.88653
           45188         7.08884
           45189         6.92808
           45190         7.24910
           45191         7.41373
           45192         7.26134
           45193         7.28779
           45194         7.58813
           45195         7.40080
           45196         5.13108
           45197         5.19719
           45198         5.15498
           45199         5.05574
           45200         5.05307
           45201         5.05206
           45202         5.06342
           45203         5.02966
           45204         5.02446
           45205         5.05752
           45206         5.04662
           45207         5.04815
           45208         4.48569
           45209         4.44420
           45210         4.32139
           45211         4.40289
           45212         4.44954
           45213         4.56604
           45214     265.174E-03
           45215         5.06091
           45216         5.02912
           45217         5.03292
           45218         5.03302
           45219         5.07884
           45220         4.74461
           45221         4.67070
           45222         4.73446
           45223         4.60066
           45224         4.49205
           45225         4.56075
           45226         4.40547
           45227         4.51121
           45228         4.44339
           45229         4.67810
           45230         4.56132
           45231         4.55476
           45232         4.44727
           45233         4.75205
           45234         4.63315
           45235         4.56018
           45236         4.09054
           45237         4.02453
           45238         4.03966
           45239         4.07446
           45240         4.14046
           45241         4.12652
           45242         4.08975
           45243         4.14291
           45244         4.17813
           45245         4.12765
           45246         4.22576
           45247         4.37290
           45248         4.32129
           45249         4.42892
           45250         4.28143
           45251         4.33222
           45252         4.15238
           45253         4.20290
           45254         4.17588
           45255         4.10229
           45256         4.11934
           45257         4.01733
           45258         4.06748
           45259         1.74563
           45260         1.67412
           45261         1.71508
           45262         1.84852
           45263         1.92141
           45264         1.88304
           45265         1.58258
           45266         1.42959
           45267         1.55358
           45268         1.57617
           45269         1.73108
           45270         1.60673
           45271         2.02133
           45272         1.84521
           45273         1.87097
           45274         1.90697
           45275         2.03380
           45276         1.86056
           45277         1.98942
           45278         1.91773
           45279         1.55285
           45280         1.42980
           45281         1.61334
           45282         1.73942
           45283         1.58402
           45284         2.01785
           45285         1.87945
           45286         1.91237
           45287         1.87850
           45288         3.74942
           45289         3.66062
           45290         3.72298
           45291         3.67877
           45292         3.76625
           45293         3.70378
           45294         3.77437
           45295         3.69666
           45296         3.60597
           45297         3.64699
           45298         3.59614
           45299         3.66923
           45300         3.62711
           45301         3.62391
           45302         3.64579
           45303         4.25144
           45304         4.27913
           45305         2.22006
           45306         2.22080
           45307         2.21801
           45308         2.24803
           45309         2.24297
           45310         2.24399
           45311         2.24177
           45312         2.68542
           45313         2.63391
           45314         2.72496
           45315         2.69330
           45316         2.74129
           45317         2.65552
           45318         2.76506
           45319         2.80784
           45320         2.81438
           45321         2.78827
           45322         2.74481
           45323         2.73595
           45324         2.65392
           45325         2.69425
           45326         2.84395
           45327         2.89137
           45328         2.81507
           45329         2.84060
           45330         2.79346
           45331         2.77641
           45332         2.76690
           45333         2.81223
           45334         2.82995
           45335         5.60713
           45336         5.81445
           45337         5.75436
           45338         5.80730
           45339         5.29494
           45340         5.55337
           45341         5.66829
           45342         5.69511
           45343         5.29048
           45344         5.33151
           45345         5.25240
           45346         5.12061
           45347         5.19954
           45348         5.31247
           45349         5.42218
           45350         5.45833
           45351         5.59257
           45352         5.47905
           45353         5.46264
           45354         5.49838
           45355         5.79919
           45356         5.64416
           45357         5.05105
           45358         5.06995
           45359         5.11267
           45360         4.97316
           45361         4.95559
           45362         7.97231
           45363         8.18446
           45364         7.91641
           45365         8.03678
           45366         7.82494
           45367         8.09294
           45368         7.91328
           45369         8.18143
           45370         8.09062
           45371         7.82294
           45372         8.03161
           45373         7.65564
           45374         7.76878
           45375         7.94050
           45376         7.77083
           45377         2.71143
           45378         2.70441
           45379         2.64021
           45380         2.63252
           45381         2.67140
           45382         2.60513
           45383         2.64536
           45384         2.60578
           45385         2.67281
           45386         4.20504
           45387         4.36101
           45388         4.32970
           45389         4.29333
           45390         2.58507
           45391         2.54901
           45392         2.54197
           45393         2.56066
           45394         2.59875
           45395         3.88804
           45396         3.85395
           45397         3.98301
           45398         4.06018
           45399         4.01666
           45400         2.53121
           45401         2.52123
           45402         2.49054
           45403         2.52280
           45404         2.50052
           45405         2.59977
           45406         2.49212
           45407         2.51497
           45408         2.52239
           45409         2.49951
           45410         2.50516
           45411         2.49379
           45412         2.52014
           45413         2.52779
           45414         3.81577
           45415         3.90418
           45416         3.79011
           45417         3.86272
           45418         3.77428
           45419         2.90408
           45420         3.03655
           45421         2.98420
           45422         3.05124
           45423         2.98618
           45424         3.01032
           45425         3.07633
           45426     56.4018E-03
           45427     40.6322E-03
           45428     65.3394E-03
           45429     41.8409E-03
           45430     57.1565E-03
           45431     32.5627E-03
           45432         3.03091
           45433         2.96701
           45434         2.95691
           45435         3.00016
           45436         3.00926
           45437         2.92199
           45438         2.91884
           45439         3.47939
           45440         3.44667
           45441         3.52207
           45442         3.43513
           45443         3.55546
           45444         3.29060
           45445         3.38613
           45446         3.37796
           45447         3.35449
           45448         3.43917
           45449         3.50599
           45450         3.55133
           45451         3.43163
           45452         3.45617
           45453         3.27746
           45454         3.29952
           45455         3.37278
           45456         3.34949
           45457         3.26319
           45458         3.60783
           45459         3.44906
           45460         3.36938
           45461         3.27920
           45462         3.30389
           45463         4.87648
           45464         4.73647
           45465         4.79245
           45466         4.74718
           45467         4.72523
           45468         4.81493
           45469         4.66199
           45470         4.68342
           45471         4.98297
           45472         4.97435
           45473         4.87190
           45474         4.91706
           45475         4.94183
           45476         5.09681
           45477         5.03252
           45478         5.02928
           45479         4.93864
           45480         5.04656
           45481         5.13945
           45482         4.79955
           45483         4.96240
           45484         4.97168
           45485         4.88995
           45486         4.85443
           45487         4.20400
           45488         4.08214
           45489         3.91476
           45490     397.146E-03
           45491     422.248E-03
           45492     374.146E-03
           45493     417.336E-03
           45494     480.525E-03
           45495     430.946E-03
           45496     406.176E-03
           45497     413.574E-03
           45498     480.803E-03
           45499     417.114E-03
           45500     426.891E-03
           45501     487.029E-03
           45502         6.74812
           45503         6.75672
           45504         7.06577
           45505         7.19855
           45506         6.84620
           45507         6.57917
           45508         4.81795
           45509         4.83275
           45510         4.90018
           45511         4.81204
           45512         4.80052
           45513         4.72618
           45514         7.06296
           45515         7.05841
           45516         6.83037
           45517         6.81685
           45518         7.06138
           45519         7.04657
           45520         2.27467
           45521         2.28586
           45522         2.23772
           45523         2.23537
           45524         2.30551
           45525         2.29834
           45526         2.31692
           45527         2.34939
           45528         2.35904
           45529         2.33821
           45530         2.35580
           45531         2.40997
           45532         2.37792
           45533         2.40199
           45534         2.34845
           45535         2.38055
           45536         2.41558
           45537         2.36324
           45538         2.38659
           45539         2.39636
           45540         3.92345
           45541         4.89269
           45542         4.89225
           45543         4.78648
           45544         4.81470
           45545         4.81257
           45546         4.92299
           45547         4.76299
           45548         4.62561
           45549         4.59543
           45550         4.44462
           45551         4.31744
           45552         4.42935
           45553         4.52283
           45554         4.52093
           45555         4.48900
           45556         4.00761
           45557         3.92427
           45558         3.79198
           45559         3.78370
           45560         3.86898
           45561         4.56162
           45562         4.50378
           45563         4.47215
           45564         4.57689
           45565         4.60802
           45566         4.68424
           45567         4.67593
           45568         4.69225
           45569         4.70518
           45570         4.76870
           45571         4.60366
           45572         4.54662
           45573         4.40233
           45574         4.32335
           45575         4.38315
           45576         4.13026
           45577         4.11594
           45578         4.07102
           45579         3.90836
           45580         3.97257
           45581         3.83853
           45582         3.99903
           45583         3.93400
           45584         3.90731
           45585         3.95930
           45586         3.88582
           45587         3.91588
           45588         3.99488
           45589         4.06538
           45590         4.03355
           45591         4.11372
           45592         3.94398
           45593         3.97665
           45594         3.87921
           45595         3.94741
           45596         3.09576
           45597         3.14443
           45598         3.05923
           45599         3.24632
           45600         3.19753
           45601         3.28335
           45602         4.14218
           45603         4.21054
           45604         4.09594
           45605         2.58629
           45606         2.59153
           45607         2.59338
           45608         2.59866
           45609         2.59337
           45610         2.59430
           45611         2.59612
           45612         2.60302
           45613         2.59663
           45614         2.60101
           45615         2.60000
           45616         2.60007
           45617         2.59286
           45618         2.59956
           45619         2.59336
           45620         2.60063
           45621         2.59706
           45622         2.58219
           45623         2.57998
           45624         2.57821
           45625         2.58549
           45626         2.57659
           45627         2.59671
           45628         2.59595
           45629         2.59721
           45630     16.8963E-03
           45631     13.1428E-03
           45632         2.59123
           45633         2.58866
           45634         2.68166
           45635         2.70909
           45636         2.68737
           45637         2.69190
           45638         2.66690
           45639         2.68631
           45640         2.66669
           45641         2.65608
           45642         2.65125
           45643         2.67168
           45644         2.68216
           45645         2.68866
           45646         2.65594
           45647         2.66658
           45648         2.68855
           45649         2.70980
           45650         2.68228
           45651         2.68780
           45652         2.66767
           45653         2.69286
           45654         2.68811
           45655         2.70487
           45656         5.42596
           45657         5.40080
           45658         5.39190
           45659         5.43044
           45660         5.43855
           45661         5.41552
           45662         5.39846
           45663         5.40092
           45664         5.42448
           45665         5.43571
           45666         5.43678
           45667         5.41634
           45668         5.39976
           45669         5.36112
           45670         5.38221
           45671         5.38076
           45672         5.44929
           45673         5.43931
           45674         5.44476
           45675         5.37799
           45676         5.35648
           45677         5.37548
           45678         5.52374
           45679         5.44331
           45680         5.55859
           45681         5.54468
           45682         5.60856
           45683         5.54911
           45684         5.52065
           45685         5.52057
           45686         5.55774
           45687         5.58994
           45688         5.55848
           45689         3.05307
           45690         3.08494
           45691         3.11530
           45692         3.17213
           45693         3.00717
           45694         3.04175
           45695         2.97842
           45696         3.04750
           45697         3.08365
           45698         3.06216
           45699         3.00513
           45700         3.05555
           45701         2.96630
           45702         6.11518
           45703         5.94108
           45704         5.90703
           45705         6.08083
           45706         6.14282
           45707         6.22087
           45708         6.33854
           45709         6.29565
           45710         6.19858
           45711         6.08116
           45712         6.12272
           45713         6.01074
           45714         6.05295
           45715         5.91639
           45716         5.94135
           45717         6.15351
           45718     29.5701E-03
           45719     25.0889E-03
           45720     35.2151E-03
           45721     31.2745E-03
           45722     41.2704E-03
           45723     24.3752E-03
           45724     23.4520E-03
           45725     24.0814E-03
           45726     41.5076E-03
           45727     28.5003E-03
           45728     24.7196E-03
           45729     41.7197E-03
           45730     32.5208E-03
           45731     36.5147E-03
           45732     45.6332E-03
           45733     41.8455E-03
           45734     40.1234E-03
           45735     36.9992E-03
           45736     39.7466E-03
           45737     41.7952E-03
           45738     38.6414E-03
           45739     46.1995E-03
           45740     18.4916E-03
           45741     41.7977E-03
           45742     38.6087E-03
           45743     42.6814E-03
           45744     45.8389E-03
           45745     44.0659E-03
           45746         2.73634
           45747         2.74375
           45748         2.71904
           45749         2.71378
           45750         2.72171
           45751         2.74441
           45752         2.73684
           45753         5.39502
           45754         5.32805
           45755         5.36200
           45756         2.75385
           45757         2.76110
           45758         2.76212
           45759         2.76163
           45760         2.78187
           45761         2.76292
           45762         2.76316
           45763         2.10175
           45764         2.08123
           45765         2.11966
           45766         2.05295
           45767         2.08511
           45768         2.07925
           45769         2.02385
           45770         2.02630
           45771         2.05058
           45772         2.08334
           45773         2.11403
           45774         2.76471
           45775         2.74776
           45776         2.75069
           45777         2.74353
           45778         2.76087
           45779         2.75811
           45780         2.78515
           45781         2.78901
           45782         2.78072
           45783         2.76080
           45784         2.75776
           45785         2.77821
           45786         2.78101
           45787         2.80054
           45788         2.79773
           45789         2.74912
           45790         2.74260
           45791         4.20729
           45792         4.28338
           45793         4.23937
           45794         2.62923
           45795         2.64566
           45796         2.63940
           45797         2.64726
           45798         2.63109
           45799         2.63723
           45800         2.62160
           45801         2.60946
           45802         2.61044
           45803         2.61455
           45804         2.62686
           45805         2.62640
           45806         2.61840
           45807         2.61927
           45808         2.62770
           45809         2.62548
           45810         2.61357
           45811         2.61506
           45812         2.60748
           45813         2.59712
           45814         2.63263
           45815         2.62716
           45816         2.63695
           45817         2.64088
           45818         2.64557
           45819         2.63654
           45820     52.2761E-03
           45821     41.0448E-03
           45822     29.4975E-03
           45823     19.9803E-03
           45824     27.3239E-03
           45825     36.9383E-03
           45826     41.4069E-03
           45827     36.0632E-03
           45828     22.0645E-03
           45829     65.3965E-03
           45830     48.7550E-03
           45831         2.95930
           45832         2.94959
           45833         2.97299
           45834         2.95339
           45835         2.88761
           45836         2.90772
           45837         2.86053
           45838         2.92715
           45839         2.90591
           45840         2.91952
           45841         2.96620
           45842         2.95602
           45843         2.92058
           45844         2.73826
           45845         2.75005
           45846         2.73403
           45847         2.74235
           45848         2.74509
           45849         2.76218
           45850         2.74968
           45851         2.73223
           45852         2.72180
           45853         2.72549
           45854         2.71485
           45855         2.72419
           45856         2.72054
           45857         2.75824
           45858         2.74044
           45859         2.74416
           45860         2.72357
           45861         2.72175
           45862         2.71455
           45863         2.57739
           45864         2.58353
           45865         2.58402
           45866         2.57829
           45867         2.57283
           45868         2.58098
           45869         2.57892
           45870         2.57221
           45871         2.57831
           45872         2.57371
           45873         2.58090
           45874         2.57238
           45875         2.56872
           45876         6.52359
           45877         6.57076
           45878         6.53587
           45879         6.73422
           45880         6.68993
           45881         6.72671
           45882         6.67083
           45883         6.71172
           45884         6.52428
           45885         6.67434
           45886         6.63482
           45887         6.82780
           45888         6.39493
           45889         6.36008
           45890         6.40608
           45891         6.22249
           45892         6.37565
           45893         6.88348
           45894         6.72754
           45895         6.71085
           45896         6.82368
           45897         6.63129
           45898         6.66965
           45899         5.68760
           45900         5.66008
           45901         5.67146
           45902         5.69105
           45903         5.70264
           45904         5.70391
           45905         5.71586
           45906         5.72852
           45907         5.71792
           45908         5.69923
           45909         5.67546
           45910         5.68358
           45911         5.67891
           45912         5.69670
           45913         5.69866
           45914         5.69801
           45915         5.70569
           45916         5.67512
           45917         5.69311
           45918         5.67052
           45919         3.06637
           45920         3.13910
           45921         3.09007
           45922         3.17463
           45923         3.11645
           45924         3.08354
           45925         3.00991
           45926         6.90134
           45927         7.19322
           45928         7.16180
           45929         7.40305
           45930         7.10390
           45931         7.13517
           45932         7.10494
           45933         7.40393
           45934         6.91429
           45935         7.14953
           45936         6.54108
           45937         6.75841
           45938         6.68344
           45939         6.49029
           45940         6.46752
           45941     337.557E-03
           45942     363.788E-03
           45943         6.51978
           45944         6.69328
           45945         6.63984
           45946         6.46753
           45947         6.51985
           45948         6.81814
           45949         6.72317
           45950         6.93138
           45951         3.82880
           45952         3.87949
           45953         3.92211
           45954         3.81547
           45955         3.86961
           45956         3.71764
           45957         3.70505
           45958         3.76428
           45959         3.80452
           45960         3.72569
           45961         3.62703
           45962         3.64562
           45963     111.874E-03
           45964     149.518E-03
           45965         3.76602
           45966         3.66708
           45967         3.71257
           45968         3.67221
           45969         3.71957
           45970         5.16953
           45971         5.16610
           45972         4.97439
           45973         5.04709
           45974         5.12935
           45975         4.90090
           45976         4.98830
           45977         4.94463
           45978         4.85765
           45979         4.97298
           45980         4.84802
           45981         4.83442
           45982         4.90535
           45983         1.04344
           45984         1.05457
           45985         1.20331
           45986         1.06132
           45987         1.04731
           45988     938.273E-03
           45989     962.410E-03
           45990         1.07289
           45991         1.03150
           45992         1.00829
           45993     613.973E-03
           45994     749.446E-03
           45995     921.906E-03
           45996     797.481E-03
           45997     856.147E-03
           45998     616.889E-03
           45999     500.838E-03
           46000     723.325E-03
           46001     762.453E-03
           46002     713.950E-03
           46003     626.631E-03
           46004     711.859E-03
           46005     642.063E-03
           46006     680.767E-03
           46007     501.949E-03
           46008         2.68407
           46009         2.67924
           46010         2.68170
           46011         2.69096
           46012         2.68887
           46013         2.68804
           46014         2.68867
           46015         2.69075
           46016         2.69166
           46017         2.69437
           46018         2.69711
           46019         2.69474
           46020         2.69011
           46021         2.68725
           46022         2.68551
           46023         2.68995
           46024         2.68753
           46025         2.68397
           46026         2.68449
           46027         2.68418
           46028         2.68704
           46029         3.86688
           46030         3.78914
           46031         3.83933
           46032         3.92951
           46033         3.79182
           46034         3.73004
           46035         3.74055
           46036         3.78441
           46037         3.83390
           46038         3.82224
           46039     870.057E-03
           46040         1.07489
           46041         1.29973
           46042         1.02876
           46043         1.08353
           46044     996.232E-03
           46045     913.329E-03
           46046     987.137E-03
           46047         3.00573
           46048         3.13591
           46049         2.94716
           46050         2.99784
           46051         2.86169
           46052         3.05115
           46053         3.13876
           46054         2.94884
           46055         2.99986
           46056         2.86890
           46057         3.05820
           46058         2.92120
           46059         2.78207
           46060         2.83331
           46061         2.84057
           46062         2.69856
           46063         2.64751
           46064         2.61244
           46065         2.70602
           46066         2.74325
           46067         2.73854
           46068         2.73424
           46069         2.72231
           46070     210.319E-03
           46071     242.399E-03
           46072     175.761E-03
           46073     142.592E-03
           46074     128.516E-03
           46075     133.803E-03
           46076     262.279E-03
           46077     220.298E-03
           46078     227.268E-03
           46079     216.144E-03
           46080     145.053E-03
           46081     138.433E-03
           46082     13.6232E-03
           46083     5.79863E-03
           46084     12.3456E-03
           46085         6.36537
           46086         6.29389
           46087         6.35399
           46088         6.21553
           46089         6.28711
           46090         6.14763
           46091         6.17757
           46092         6.21878
           46093         6.16388
           46094         6.13006
           46095         6.09612
           46096         6.07010
           46097         6.01074
           46098         6.06977
           46099         6.02302
           46100         6.30339
           46101         6.29786
           46102         6.36058
           46103         6.23922
           46104         6.36597
           46105         1.95803
           46106         1.99171
           46107         1.97370
           46108         1.95938
           46109         1.94636
           46110         1.85143
           46111         1.80947
           46112         1.90630
           46113         1.86733
           46114         1.91846
           46115         1.96495
           46116         1.98340
           46117         1.94068
           46118         1.94621
           46119         1.90723
           46120         1.94893
           46121         1.97541
           46122         1.98966
           46123         2.01229
           46124         3.18752
           46125         5.43541
           46126         5.63817
           46127         5.61946
           46128         5.76646
           46129         5.55964
           46130         5.57852
           46131         5.26461
           46132         5.14845
           46133         5.29725
           46134         5.31635
           46135         5.28298
           46136         5.05600
           46137         5.20265
           46138         5.08711
           46139         5.61399
           46140         5.82234
           46141         5.66431
           46142         5.46127
           46143         5.65912
           46144         5.19892
           46145         5.41282
           46146         5.27490
           46147         5.27930
           46148         5.07010
           46149         4.27580
           46150         4.42500
           46151         4.33796
           46152         4.42778
           46153         4.36788
           46154         2.39023
           46155         2.42065
           46156         2.39980
           46157         2.41927
           46158         2.38922
           46159         2.41040
           46160         2.35708
           46161         2.34960
           46162         2.36089
           46163         2.37109
           46164         2.37841
           46165         2.36902
           46166         2.36131
           46167         2.33911
           46168         2.34669
           46169         2.33540
           46170         2.35000
           46171         2.40573
           46172         2.37572
           46173         2.39544
           46174         2.37055
           46175         2.37968
           46176         2.37277
           46177         3.26847
           46178         3.32958
           46179         3.21945
           46180         3.29760
           46181         3.21470
           46182         3.30106
           46183         3.27492
           46184         3.38827
           46185         3.32476
           46186         3.28752
           46187         3.12400
           46188         3.14225
           46189         3.16580
           46190         3.08577
           46191         3.13738
           46192         3.11212
           46193     579.799E-03
           46194     569.478E-03
           46195     539.077E-03
           46196     455.654E-03
           46197     415.771E-03
           46198     478.570E-03
           46199         2.33170
           46200         2.30534
           46201         2.31795
           46202         2.30498
           46203         2.35859
           46204         2.35890
           46205         2.37311
           46206         1.92221
           46207         1.98033
           46208         1.95563
           46209         1.95098
           46210         1.89351
           46211         1.84785
           46212         1.85340
           46213         1.87795
           46214         1.92922
           46215         1.98928
           46216         1.93439
           46217         1.98206
           46218         2.00224
           46219         1.94833
           46220         1.97909
           46221         1.97180
           46222         2.05178
           46223         2.06057
           46224         2.02863
           46225         2.01303
           46226         2.04309
           46227         2.05516
           46228         2.02235
           46229         1.99151
           46230         3.29634
           46231         3.52438
           46232         3.36495
           46233         3.14659
           46234         3.31214
           46235         3.15793
           46236         3.11403
           46237         3.04250
           46238         3.21791
           46239         3.14960
           46240         3.06930
           46241         3.19017
           46242         2.99266
           46243         2.82492
           46244         2.96264
           46245         2.78914
           46246         2.96479
           46247         2.81952
           46248         3.29289
           46249         3.27355
           46250         3.13894
           46251         1.31831
           46252         1.13365
           46253         1.41479
           46254     759.736E-03
           46255     740.076E-03
           46256     805.347E-03
           46257         2.67560
           46258         2.71105
           46259         2.70579
           46260         2.68941
           46261         2.70649
           46262         2.72342
           46263         2.70067
           46264         2.71130
           46265         2.72344
           46266         2.70655
           46267         2.69571
           46268         2.71145
           46269         2.67254
           46270         2.68070
           46271         2.72129
           46272         2.73989
           46273         2.73382
           46274         2.72200
           46275         2.69566
           46276         2.71161
           46277         2.81391
           46278         2.78396
           46279         2.77167
           46280         2.76367
           46281         2.80498
           46282         2.73432
           46283         2.78420
           46284         2.75430
           46285         2.72371
           46286         2.84743
           46287         2.84764
           46288         2.82370
           46289         2.84309
           46290         2.83572
           46291         2.75002
           46292         2.73476
           46293         2.71080
           46294         4.49718
           46295         4.59599
           46296         4.38319
           46297         2.80252
           46298         2.82622
           46299         2.87709
           46300         2.82303
           46301         1.66220
           46302         1.66882
           46303         1.70293
           46304         1.69455
           46305         1.53523
           46306         1.68411
           46307         1.71579
           46308         1.68463
           46309         1.62538
           46310         1.69166
           46311         1.66439
           46312         2.61642
           46313         2.60560
           46314         2.61540
           46315         2.60279
           46316         2.61361
           46317         2.60460
           46318         2.60049
           46319         2.60298
           46320         2.61506
           46321         2.61066
           46322         2.61216
           46323         2.63739
           46324         2.63461
           46325         2.62337
           46326         2.63201
           46327         2.63528
           46328         2.64657
           46329         2.62947
           46330         2.61877
           46331         2.61944
           46332         2.61161
           46333         2.62172
           46334         2.60992
           46335         5.06124
           46336         5.15069
           46337         4.57009
           46338         4.59109
           46339         4.71366
           46340         4.87114
           46341         4.98189
           46342         4.88637
           46343         4.82796
           46344         4.68088
           46345         2.59646
           46346         2.59258
           46347         2.60443
           46348         2.58451
           46349         2.57814
           46350         2.61745
           46351         2.62718
           46352         2.61395
           46353         4.55639
           46354         4.38662
           46355         4.39603
           46356         4.87360
           46357         4.75805
           46358         4.73477
           46359         4.82418
           46360         4.83466
           46361         4.92326
           46362         4.89542
           46363         4.95445
           46364         4.98247
           46365         4.70694
           46366         4.75416
           46367         4.86971
           46368         4.72450
           46369         2.69446
           46370         2.68493
           46371         2.68365
           46372         2.70250
           46373         2.70649
           46374         2.70597
           46375         2.67969
           46376         2.67086
           46377         2.68438
           46378         2.69396
           46379         2.68201
           46380         2.68226
           46381         2.69203
           46382         2.69491
           46383         2.69546
           46384         2.70604
           46385         2.70522
           46386     156.714E-03
           46387     137.298E-03
           46388     143.285E-03
           46389     163.204E-03
           46390     167.018E-03
           46391     100.719E-03
           46392     142.977E-03
           46393     123.600E-03
           46394     187.283E-03
           46395     195.827E-03
           46396     200.659E-03
           46397     120.446E-03
           46398         7.44598
           46399         7.60702
           46400         7.55694
           46401         6.93557
           46402         6.82444
           46403         6.91143
           46404         6.97671
           46405         7.09039
           46406         7.00061
           46407         6.93667
           46408         6.82568
           46409         6.66665
           46410         6.77710
           46411         6.69072
           46412         6.64609
           46413         6.89031
           46414         6.80584
           46415         3.24628
           46416         3.34777
           46417         3.36488
           46418         3.22874
           46419         3.18647
           46420         3.54092
           46421         3.63099
           46422         3.58304
           46423         3.49431
           46424         3.65424
           46425         3.56619
           46426         3.41225
           46427         3.49855
           46428         3.50456
           46429         3.46548
           46430         3.44007
           46431         3.36279
           46432         3.33542
           46433         3.47130
           46434         2.58365
           46435         2.64167
           46436         2.56999
           46437         2.56807
           46438         2.62196
           46439         2.67964
           46440         2.60458
           46441         2.71958
           46442         2.70288
           46443         2.57864
           46444         2.64059
           46445         2.58699
           46446         2.59696
           46447         2.58787
           46448         2.60579
           46449         2.57809
           46450         2.60548
           46451         2.58819
           46452         2.59696
           46453         2.59746
           46454         2.60447
           46455         2.64870
           46456         2.62492
           46457         2.63947
           46458         2.59843
           46459         2.58860
           46460         2.60583
           46461         2.65135
           46462         2.63871
           46463         2.62372
           46464         2.64742
           46465         12.3700
           46466         13.7789
           46467         10.4243
           46468     171.761E-03
           46469         6.75881
           46470         8.71648
           46471         9.04813
           46472         10.0722
           46473         7.85878
           46474         9.68922
           46475         10.5549
           46476         10.9725
           46477         10.9803
           46478         12.0912
           46479         10.0458
           46480         9.12856
           46481         10.3299
           46482         13.0526
           46483         13.8473
           46484         14.5718
           46485         4.64824
           46486         4.54848
           46487         4.65157
           46488         4.91335
           46489         4.83361
           46490         4.77721
           46491         4.70018
           46492         4.83550
           46493         4.68717
           46494         4.60416
           46495         4.59387
           46496         4.60622
           46497         4.60716
           46498         4.52502
           46499         4.61721
           46500         4.63063
           46501         4.76847
           46502         4.73711
           46503         1.54392
           46504         1.59461
           46505         1.75840
           46506         1.87527
           46507         1.79028
           46508         1.67253
           46509         1.67720
           46510     405.002E-03
           46511     465.189E-03
           46512     502.967E-03
           46513     461.784E-03
           46514     402.291E-03
           46515     365.533E-03
           46516         1.53700
           46517         1.59889
           46518         4.59046
           46519         4.68740
           46520         4.53469
           46521         4.61191
           46522         4.51750
           46523         4.66866
           46524         4.48002
           46525         4.31068
           46526         4.22165
           46527         4.35081
           46528         4.23265
           46529         4.19339
           46530         4.45836
           46531         4.37412
           46532         4.31509
           46533         4.40152
           46534         4.39186
           46535         4.48069
           46536         4.27725
           46537         2.77340
           46538         2.79663
           46539         2.84177
           46540         2.81458
           46541         2.80815
           46542         2.88965
           46543         2.88050
           46544         2.78834
           46545         2.86099
           46546         4.56011
           46547         4.65083
           46548         4.56021
           46549         4.57202
           46550         4.48139
           46551         4.57188
           46552         2.87549
           46553         2.78901
           46554         2.15084
           46555         2.12953
           46556         2.11840
           46557         2.13292
           46558         2.15653
           46559         2.16516
           46560         2.17357
           46561         2.21485
           46562         2.18382
           46563         2.19639
           46564         2.18620
           46565     141.980E-03
           46566     80.4331E-03
           46567         2.20646
           46568         2.17588
           46569         2.21200
           46570         2.20207
           46571         2.23242
           46572         2.16213
           46573         2.21757
           46574         2.17636
           46575         2.19479
           46576         2.17069
           46577         2.60817
           46578         2.61112
           46579         2.61148
           46580         2.61050
           46581         2.60982
           46582         2.61066
           46583         2.60857
           46584         2.60802
           46585         2.44719
           46586         2.44794
           46587         2.45376
           46588         2.46404
           46589         2.46315
           46590         2.46664
           46591         2.48981
           46592         2.48231
           46593         2.49610
           46594         2.47362
           46595         2.48071
           46596         2.44319
           46597         2.43351
           46598         2.44661
           46599         2.45601
           46600         2.48826
           46601         2.49626
           46602         2.44013
           46603         2.42256
           46604         2.42688
           46605         2.46549
           46606         2.47188
           46607     368.813E-03
           46608     385.109E-03
           46609         3.19882
           46610         3.11381
           46611         3.00506
           46612         3.12949
           46613         3.20722
           46614         2.87852
           46615         2.96197
           46616         6.10123
           46617         6.17838
           46618         6.08680
           46619         5.97777
           46620         5.91098
           46621         5.98830
           46622         5.89295
           46623         5.90784
           46624         6.03022
           46625         5.92480
           46626         5.78517
           46627         6.26382
           46628         6.28396
           46629         5.67688
           46630         5.69347
           46631         5.78479
           46632         5.83008
           46633         5.80857
           46634         5.71084
           46635         5.95515
           46636         6.10309
           46637         5.93252
           46638         5.91105
           46639         5.75733
           46640         5.73182
           46641         5.64493
           46642         5.68047
           46643         5.86625
           46644         6.06278
           46645         5.96608
           46646         5.77195
           46647         5.87637
           46648         5.87725
           46649         5.86369
           46650         5.97245
           46651         5.85825
           46652         5.82250
           46653         3.94782
           46654         3.93800
           46655         4.00007
           46656         4.19289
           46657         4.15954
           46658         4.12158
           46659         4.17754
           46660         4.11102
           46661         4.05865
           46662         4.00439
           46663         4.17275
           46664         4.11706
           46665         4.10775
           46666     350.097E-03
           46667     277.026E-03
           46668     240.692E-03
           46669     258.620E-03
           46670     361.127E-03
           46671     318.184E-03
           46672     357.420E-03
           46673     266.346E-03
           46674     299.382E-03
           46675     259.160E-03
           46676     226.753E-03
           46677     288.397E-03
           46678     322.671E-03
           46679     334.594E-03
           46680         2.06666
           46681         1.99968
           46682         2.04744
           46683         2.03270
           46684         2.05171
           46685         2.03805
           46686         2.01099
           46687         2.07777
           46688         2.06825
           46689         2.11617
           46690         2.18834
           46691         2.13007
           46692         2.16895
           46693         1.43440
           46694         1.38098
           46695         1.46730
           46696         1.42202
           46697         1.47517
           46698         1.39111
           46699         1.56681
           46700         1.61931
           46701         1.67184
           46702         1.57341
           46703         1.61921
           46704         1.67513
           46705         1.57810
           46706         1.63062
           46707         1.87758
           46708         1.87691
           46709         1.87916
           46710         1.87749
           46711         1.88201
           46712         1.89263
           46713         1.89451
           46714         1.88999
           46715         1.91413
           46716         1.91757
           46717         1.89651
           46718         1.91106
           46719         1.87506
           46720         1.87089
           46721         1.87743
           46722         1.90842
           46723         1.88564
           46724         1.88166
           46725         1.88824
           46726         1.91045
           46727         1.89226
           46728         4.95721
           46729         1.87622
           46730         1.87046
           46731         3.23340
           46732         3.13059
           46733         3.27412
           46734         3.34820
           46735         3.30553
           46736         3.38086
           46737         3.68398
           46738         4.77724
           46739         4.77912
           46740         4.89436
           46741         4.95224
           46742         4.94938
           46743         4.83527
           46744         5.02986
           46745         4.89855
           46746         4.92690
           46747         5.25537
           46748         5.19841
           46749         5.09312
           46750         5.40757
           46751         5.15002
           46752         5.01699
           46753         4.96240
           46754         5.26682
           46755         5.10589
           46756         5.42077
           46757         5.31104
           46758         5.24527
           46759         5.23257
           46760         4.79114
           46761         4.78933
           46762         4.85715
           46763     724.637E-03
           46764     861.951E-03
           46765     662.866E-03
           46766     733.237E-03
           46767     600.665E-03
           46768     797.183E-03
           46769     670.857E-03
           46770     836.862E-03
           46771     869.817E-03
           46772     388.594E-03
           46773     485.376E-03
           46774     414.573E-03
           46775     827.277E-03
           46776     772.053E-03
           46777     699.506E-03
           46778         4.24673
           46779         4.40842
           46780         4.29400
           46781         4.35007
           46782         4.21324
           46783         4.27305
           46784         4.30696
           46785         3.94450
           46786         3.89864
           46787         4.04865
           46788         4.17057
           46789         4.14830
           46790         4.15634
           46791         4.31706
           46792         4.30886
           46793         4.20041
           46794         4.33570
           46795         4.24555
           46796         3.78649
           46797         3.85453
           46798         5.02328
           46799         5.39236
           46800         5.43489
           46801         5.44717
           46802         8.87990
           46803         9.12415
           46804         8.80298
           46805         9.04095
           46806         8.80105
           46807         9.12291
           46808         5.51333
           46809         5.52708
           46810         5.46275
           46811         5.59023
           46812         5.58123
           46813         5.57221
           46814         5.54423
           46815         5.65065
           46816         5.59940
           46817         5.56929
           46818         5.61484
           46819         5.50136
           46820         5.49956
           46821         5.43362
           46822     214.691E-03
           46823         7.25898
           46824         7.07817
           46825         7.28493
           46826         6.96063
           46827         7.13802
           46828         6.93700
           46829         6.98469
           46830         7.10149
           46831         7.35529
           46832         7.30303
           46833         7.27096
           46834         7.08919
           46835         7.24485
           46836         7.43005
           46837         7.22773
           46838         2.67100
           46839         2.67280
           46840         2.67585
           46841         2.68334
           46842         2.68179
           46843         2.67840
           46844         2.66845
           46845         2.66652
           46846         2.66886
           46847         2.67060
           46848         2.65946
           46849         2.66500
           46850         2.66940
           46851         2.67882
           46852         2.67293
           46853         2.66299
           46854         2.66827
           46855         2.66065
           46856         2.68567
           46857         2.68703
           46858         2.70013
           46859         2.69418
           46860         2.69303
           46861         2.68063
           46862         1.56550
           46863         1.58950
           46864         1.62994
           46865         1.58061
           46866         1.60817
           46867         1.57748
           46868         1.55303
           46869         1.54333
           46870         1.61212
           46871         1.63548
           46872         1.57117
           46873         1.58298
           46874         1.53905
           46875         1.64694
           46876         1.66992
           46877         1.68355
           46878         8.05910
           46879         7.89281
           46880         8.05580
           46881         7.89087
           46882         8.33199
           46883         5.72407
           46884         5.11216
           46885         6.85366
           46886         7.54534
           46887         7.69075
           46888         6.46217
           46889         6.14224
           46890         5.74390
           46891         5.32343
           46892         2.70209
           46893         2.71722
           46894         2.72968
           46895         2.73088
           46896         2.77398
           46897         2.83875
           46898         2.80681
           46899         2.84432
           46900         2.77912
           46901         2.80958
           46902         2.75608
           46903         2.77234
           46904         2.80575
           46905         2.76177
           46906     980.882E-03
           46907         1.12685
           46908         1.13487
           46909         1.14343
           46910         1.18903
           46911         1.03759
           46912         1.17540
           46913     11.2508E-03
           46914     13.5356E-03
           46915     10.2599E-03
           46916     21.4518E-03
           46917     31.3706E-03
           46918     31.5923E-03
           46919     16.7033E-03
           46920     8.21604E-03
           46921     14.8271E-03
           46922     15.8818E-03
           46923     14.3034E-03
           46924     15.7885E-03
           46925     13.0033E-03
           46926     14.6671E-03
           46927     32.8674E-03
           46928     38.0333E-03
           46929     46.4343E-03
           46930     21.7263E-03
           46931     23.0325E-03
           46932     21.5998E-03
           46933     19.8852E-03
           46934     17.7723E-03
           46935     17.8520E-03
           46936     715.093E-03
           46937     576.960E-03
           46938     539.103E-03
           46939     577.428E-03
           46940     554.072E-03
           46941     839.012E-03
           46942     812.741E-03
           46943     853.856E-03
           46944     876.953E-03
           46945     840.273E-03
           46946     639.997E-03
           46947     664.907E-03
           46948     637.772E-03
           46949     602.467E-03
           46950     611.871E-03
           46951     843.276E-03
           46952     855.979E-03
           46953     721.966E-03
           46954     705.835E-03
           46955     744.024E-03
           46956         2.20878
           46957         2.23624
           46958         2.24480
           46959         2.23453
           46960         2.24279
           46961         2.26497
           46962         2.25716
           46963         2.26693
           46964         2.28385
           46965         2.25095
           46966         2.26058
           46967         2.21235
           46968         2.40843
           46969         2.38521
           46970         2.42102
           46971         2.36415
           46972         2.41690
           46973         2.45651
           46974         2.43454
           46975         2.46501
           46976         2.46693
           46977         2.49055
           46978         2.45932
           46979         2.53394
           46980         2.49545
           46981         2.48135
           46982         2.48408
           46983         2.52070
           46984         2.45589
           46985         2.43323
           46986         2.41953
           46987         2.45537
           46988         5.09955
           46989         5.05539
           46990         5.02406
           46991         5.01497
           46992         5.06688
           46993         5.23262
           46994         5.31894
           46995         5.31393
           46996         5.22939
           46997         5.31235
           46998         5.08984
           46999         4.99584
           47000         5.03708
           47001         4.90558
           47002         5.00485
           47003         4.95317
           47004         5.13596
           47005         5.09383
           47006         5.13927
           47007         5.14192
           47008         5.01496
           47009         5.10375
           47010         5.06075
           47011         2.44172
           47012         2.67213
           47013         2.56742
           47014         2.53214
           47015         2.41087
           47016         2.54911
           47017         2.40970
           47018         2.56613
           47019         2.67062
           47020         2.54658
           47021         2.81063
           47022         2.76526
           47023         2.64114
           47024         2.40208
           47025         2.87954
           47026         2.82913
           47027         2.88801
           47028         2.83364
           47029         2.80384
           47030         2.84295
           47031         2.84355
           47032         2.87487
           47033         2.83491
           47034         2.84747
           47035         2.79844
           47036         2.83594
           47037         2.87601
           47038         2.83788
           47039         2.83603
           47040         2.79719
           47041         2.79172
           47042         2.84824
           47043         2.50523
           47044         2.49014
           47045         2.50950
           47046         2.49719
           47047         2.51204
           47048         2.49335
           47049         2.52153
           47050         2.51052
           47051         2.50584
           47052         2.52055
           47053         2.52483
           47054         2.49653
           47055         2.50751
           47056         2.51209
           47057         2.53802
           47058         2.52418
           47059         2.53218
           47060         2.53191
           47061         2.54580
           47062         2.53862
           47063         2.53301
           47064         2.53241
           47065         2.54705
           47066         2.52125
           47067         2.50992
           47068         2.51302
           47069         2.53061
           47070         2.52703
           47071         2.51795
           47072         2.51602
           47073         1.97933
           47074         1.99078
           47075         1.98139
           47076         1.96587
           47077         1.95606
           47078         1.96527
           47079         2.00477
           47080         1.99934
           47081         2.02956
           47082         1.99967
           47083         2.03283
           47084         1.95110
           47085         1.96598
           47086         1.96614
           47087         1.97229
           47088         1.94824
           47089         2.01150
           47090         2.01090
           47091         1.95231
           47092         1.95357
           47093         1.97695
           47094         1.97083
           47095         3.67930
           47096     31.0370E-03
           47097     30.3452E-03
           47098     14.3125E-03
           47099     23.2628E-03
           47100     23.9053E-03
           47101     41.0431E-03
           47102     57.2812E-03
           47103     65.8355E-03
           47104     57.7416E-03
           47105     90.5089E-03
           47106     73.8167E-03
           47107     56.5755E-03
           47108     90.4858E-03
           47109     67.7509E-03
           47110     38.9725E-03
           47111     43.5104E-03
           47112     17.8958E-03
           47113     45.6450E-03
           47114         2.67125
           47115         2.65104
           47116         2.65185
           47117         2.64254
           47118         2.66088
           47119         2.66036
           47120         2.65853
           47121         2.65719
           47122         2.65754
           47123         2.67051
           47124         2.65860
           47125         2.67967
           47126         2.70053
           47127         2.69172
           47128         2.69217
           47129         2.67994
           47130         2.67329
           47131         2.65504
           47132         2.67056
           47133         2.68529
           47134         2.67736
           47135         2.69501
           47136         2.68978
           47137         2.69793
           47138         1.59049
           47139         1.71454
           47140         1.58541
           47141         1.68306
           47142         1.52239
           47143         1.71810
           47144         1.71803
           47145         1.58569
           47146         1.70846
           47147         1.56668
           47148         1.52962
           47149         1.51053
           47150         1.44370
           47151         1.50917
           47152     906.269E-03
           47153     968.360E-03
           47154     917.504E-03
           47155         1.23545
           47156         1.17223
           47157         1.18891
           47158         1.17234
           47159         1.20933
           47160         1.47490
           47161         1.24147
           47162         1.24756
           47163         1.18044
           47164         1.21875
           47165         1.58127
           47166         1.61417
           47167         3.84032
           47168         3.74998
           47169         3.79941
           47170         3.85884
           47171         3.81779
           47172         3.76478
           47173         3.74710
           47174         3.78714
           47175         3.92153
           47176         3.93982
           47177         3.90636
           47178         3.88765
           47179         3.62157
           47180         3.59955
           47181         3.66692
           47182         3.58934
           47183         3.70949
           47184         3.62320
           47185         3.70214
           47186         3.72869
           47187         3.63236
           47188         4.68075
           47189         3.72314
           47190         3.27522
           47191         2.99793
           47192         3.30415
           47193         4.25577
           47194         4.68543
           47195         4.25833
           47196         2.57720
           47197         2.21330
           47198         2.60711
           47199         3.06777
           47200         2.32775
           47201         4.41837
           47202         4.24421
           47203         3.69020
           47204         3.35840
           47205         2.75320
           47206         2.14891
           47207         2.53118
           47208         2.16862
           47209         2.83255
           47210         2.30549
           47211         1.92103
           47212         1.92800
           47213         1.95373
           47214         1.96908
           47215         4.84218
           47216         4.74451
           47217         4.90367
           47218         1.96696
           47219         1.90958
           47220         1.93313
           47221         1.90549
           47222         1.96078
           47223         1.93724
           47224         1.96010
           47225         1.93125
           47226         1.95851
           47227         1.98220
           47228         2.01293
           47229         1.98420
           47230         1.90306
           47231         1.89411
           47232         1.95187
           47233         1.91977
           47234         4.06299
           47235         4.14136
           47236         4.24337
           47237         4.02383
           47238         4.16616
           47239         4.42495
           47240         4.43848
           47241         4.88030
           47242         4.70565
           47243         4.73865
           47244         4.91308
           47245         4.75989
           47246         4.68419
           47247         4.67229
           47248         4.56803
           47249         4.39034
           47250         4.78791
           47251         4.53717
           47252         4.81629
           47253         1.17150
           47254         3.37888
           47255         3.31420
           47256     874.664E-03
           47257     925.296E-03
           47258         1.01961
           47259     978.448E-03
           47260     809.388E-03
           47261     917.487E-03
           47262         1.01478
           47263         1.10218
           47264         1.17648
           47265         1.00391
           47266         1.02538
           47267         1.33996
           47268         1.41175
           47269         1.48779
           47270         1.71603
           47271         1.54470
           47272         4.95813
           47273         5.02233
           47274     866.073E-03
           47275     850.171E-03
           47276     889.397E-03
           47277     987.178E-03
           47278     906.060E-03
           47279         1.11353
           47280         1.01402
           47281     897.928E-03
           47282         1.02251
           47283         1.01896
           47284     965.287E-03
           47285         1.07129
           47286     860.886E-03
           47287     875.667E-03
           47288         6.95291
           47289         7.19798
           47290         7.07728
           47291         7.18531
           47292         6.94016
           47293         7.05886
           47294         6.83345
           47295         6.95592
           47296         6.95721
           47297         6.84515
           47298         6.72200
           47299         7.07654
           47300         6.95225
           47301         6.83601
           47302         6.95831
           47303         6.82104
           47304         6.70964
           47305         7.20414
           47306         6.95204
           47307         7.07579
           47308         6.94887
           47309         3.57509
           47310         3.62389
           47311         3.78816
           47312         3.69849
           47313         3.76510
           47314         3.89151
           47315         3.83460
           47316         3.65726
           47317         3.74285
           47318         3.57450
           47319         3.64490
           47320         3.87078
           47321         3.81641
           47322         3.79677
           47323         3.88003
           47324         3.60391
           47325         3.44950
           47326         3.40970
           47327         3.56466
           47328         3.49627
           47329         3.58650
           47330         3.70500
           47331         3.42538
           47332         3.58115
           47333         3.57546
           47334         6.17894
           47335         6.21144
           47336         6.26910
           47337         6.35602
           47338         6.45372
           47339         6.36083
           47340         6.40435
           47341         6.31785
           47342         6.40399
           47343         6.31093
           47344         6.25124
           47345         6.33693
           47346         6.40249
           47347         6.40871
           47348         6.15978
           47349         6.14776
           47350         6.21136
           47351         6.22744
           47352         6.12371
           47353         6.22868
           47354         6.27858
           47355         6.12861
           47356         6.06845
           47357         6.07183
           47358         6.15455
           47359         6.21860
           47360         6.20983
           47361         6.33742
           47362         6.19463
           47363         6.13789
           47364         6.06662
           47365         6.20128
           47366         6.35183
           47367         6.21424
           47368         6.06440
           47369         6.13720
           47370         2.93113
           47371         2.63927
           47372         3.14947
           47373         3.56509
           47374         2.45513
           47375     37.4173E-03
           47376     42.3047E-03
           47377     36.1671E-03
           47378     25.2895E-03
           47379     18.5076E-03
           47380         5.75897
           47381         5.97877
           47382         5.83682
           47383         5.90193
           47384         5.82334
           47385         5.81417
           47386         5.97049
           47387         5.74978
           47388         5.72826
           47389         5.65395
           47390         5.58980
           47391         5.87137
           47392         5.84057
           47393         5.76799
           47394         5.53598
           47395         5.46591
           47396         5.70639
           47397         5.80483
           47398         5.84810
           47399         5.87894
           47400         6.03385
           47401         5.93956
           47402         6.00835
           47403         5.90867
           47404         6.01633
           47405         5.92504
           47406         2.52330
           47407         2.51507
           47408         2.52278
           47409         2.52434
           47410         2.53193
           47411         2.52448
           47412         2.51434
           47413         2.50680
           47414         2.51534
           47415         2.52298
           47416         2.52771
           47417         2.53224
           47418         2.54578
           47419         2.53937
           47420         2.54857
           47421         2.51989
           47422         2.50668
           47423         2.52804
           47424         2.52873
           47425         2.53077
           47426         2.53862
           47427         5.17080
           47428         5.13616
           47429         2.46470
           47430         2.46626
           47431         2.48489
           47432         2.46129
           47433         2.48330
           47434         2.47030
           47435         2.46612
           47436         2.48390
           47437         2.57665
           47438         2.53793
           47439         2.53625
           47440         2.51784
           47441         1.86142
           47442         3.53554
           47443         3.35813
           47444         3.37064
           47445         3.46708
           47446         1.74343
           47447         1.84324
           47448         1.97300
           47449     845.764E-03
           47450     973.697E-03
           47451         1.44419
           47452         1.10352
           47453         1.36910
           47454         1.15915
           47455         2.74959
           47456         2.76919
           47457         2.75679
           47458         2.76795
           47459         2.74868
           47460         2.76029
           47461         2.72702
           47462         2.73804
           47463         2.74132
           47464         2.73397
           47465         2.73048
           47466         2.73808
           47467         2.74558
           47468         2.74930
           47469         2.72565
           47470         2.71577
           47471         2.73582
           47472         2.74722
           47473         2.73451
           47474         1.15303
           47475         1.18782
           47476         1.19684
           47477         1.16048
           47478         1.09718
           47479         1.07446
           47480         1.11087
           47481         1.04140
           47482         1.04553
           47483     927.467E-03
           47484     909.044E-03
           47485         1.03471
           47486         7.65647
           47487         7.33232
           47488         7.52076
           47489         7.46963
           47490         7.95664
           47491         8.13305
           47492         7.83475
           47493         7.66294
           47494         8.01995
           47495         7.46871
           47496         7.20878
           47497         7.33895
           47498         7.19007
           47499         7.44915
           47500         7.31818
           47501         7.46661
           47502         7.51859
           47503         7.63142
           47504         7.33522
           47505         2.65890
           47506         2.68889
           47507         2.68398
           47508         2.67059
           47509         2.67573
           47510         2.63054
           47511         2.65187
           47512         2.62936
           47513         2.68409
           47514         2.63825
           47515         2.59987
           47516         2.61292
           47517         2.64498
           47518         2.66606
           47519         2.65709
           47520         2.61561
           47521         1.78431
           47522         1.69196
           47523         1.70906
           47524         1.73127
           47525         1.78524
           47526         1.76978
           47527         1.76253
           47528         1.71010
           47529         1.69231
           47530         1.74561
           47531         1.74684
           47532         1.78540
           47533         1.82600
           47534         1.71220
           47535         1.69616
           47536         1.73492
           47537     538.168E-03
           47538     529.049E-03
           47539     488.287E-03
           47540     561.457E-03
           47541     496.868E-03
           47542     616.580E-03
           47543     687.929E-03
           47544     672.471E-03
           47545     670.560E-03
           47546     598.874E-03
           47547     613.842E-03
           47548     631.282E-03
           47549     660.795E-03
           47550     633.070E-03
           47551     668.408E-03
           47552     638.809E-03
           47553     667.017E-03
           47554     700.668E-03
           47555     709.162E-03
           47556     650.500E-03
           47557     625.941E-03
           47558     623.331E-03
           47559     718.558E-03
           47560     646.991E-03
           47561     647.733E-03
           47562     647.474E-03
           47563     579.067E-03
           47564     690.453E-03
           47565     693.402E-03
           47566     509.906E-03
           47567         3.98531
           47568         4.07931
           47569         4.09378
           47570         4.08970
           47571         3.99540
           47572         3.98129
           47573         4.21999
           47574         4.12248
           47575         4.11855
           47576         4.19731
           47577         4.10009
           47578         4.27979
           47579         4.17470
           47580         4.27325
           47581         4.05382
           47582         3.89994
           47583         4.00896
           47584         4.05758
           47585         3.96425
           47586         4.06373
           47587         2.60845
           47588         2.55627
           47589         2.55320
           47590         2.55337
           47591         2.55495
           47592         2.54747
           47593         2.60470
           47594         2.53338
           47595         2.54443
           47596         2.56667
           47597         2.54590
           47598         4.58576
           47599         4.61102
           47600         4.72662
           47601         4.77038
           47602         4.74555
           47603         4.62953
           47604         4.80111
           47605         4.90912
           47606         4.80780
           47607         4.85198
           47608         4.84569
           47609         2.74892
           47610         2.75534
           47611         2.72138
           47612         2.74864
           47613         2.74202
           47614         2.77891
           47615         2.64748
           47616         2.66853
           47617         2.65077
           47618         2.64732
           47619         2.72932
           47620         2.71368
           47621         2.76546
           47622         2.73628
           47623         2.77298
           47624         2.76711
           47625         2.74349
           47626         2.78061
           47627         2.70362
           47628         5.05024
           47629         5.15985
           47630         5.15101
           47631         2.70418
           47632         2.72971
           47633         2.73051
           47634         2.73799
           47635         4.86130
           47636         4.74285
           47637         4.79702
           47638         4.80229
           47639         4.93408
           47640         4.87274
           47641         4.80979
           47642         4.82453
           47643         4.82391
           47644         4.71410
           47645         4.71415
           47646         4.95383
           47647         4.88561
           47648         4.90666
           47649         5.03033
           47650         4.92944
           47651         4.92774
           47652         4.81158
           47653         4.90648
           47654         5.03543
           47655         4.93512
           47656         4.93984
           47657         5.03671
           47658         5.02254
           47659         5.00478
           47660         5.00768
           47661         4.99647
           47662         2.66808
           47663         2.67211
           47664         2.66537
           47665         2.66758
           47666         2.66399
           47667         2.67027
           47668         4.90873
           47669         2.66556
           47670         2.67112
           47671         2.67325
           47672         2.66695
           47673         2.66512
           47674         2.66006
           47675         2.66100
           47676         2.65898
           47677         2.66329
           47678         2.45634
           47679         2.43776
           47680         2.44746
           47681         2.44402
           47682         2.45302
           47683         2.47114
           47684         2.46213
           47685         2.47067
           47686         2.47044
           47687         2.46560
           47688         2.45003
           47689         2.44991
           47690         2.45484
           47691         5.61673
           47692         5.57926
           47693         5.60608
           47694         5.61936
           47695         5.66037
           47696         5.62836
           47697         5.59290
           47698         5.54814
           47699         5.59399
           47700         5.57196
           47701         5.61875
           47702         5.56936
           47703         5.62346
           47704         5.59550
           47705         5.66520
           47706         5.70152
           47707         5.67549
           47708         6.59576
           47709         6.49792
           47710         6.42730
           47711         6.15272
           47712         6.19649
           47713         6.05326
           47714         6.12939
           47715         5.87364
           47716         6.11749
           47717         6.18833
           47718         6.09794
           47719         3.83657
           47720         4.03466
           47721         4.10577
           47722         3.91091
           47723         6.12267
           47724         6.28473
           47725         6.11178
           47726         6.14172
           47727         5.98418
           47728         6.36763
           47729         6.24126
           47730         6.33698
           47731         6.41219
           47732         6.54097
           47733         6.54916
           47734         6.38128
           47735         6.42137
           47736         6.06805
           47737         6.16486
           47738         6.23751
           47739         6.06539
           47740     82.1181E-03
           47741     89.7501E-03
           47742     112.830E-03
           47743     128.588E-03
           47744     120.073E-03
           47745     195.354E-03
           47746     184.908E-03
           47747     235.225E-03
           47748     201.898E-03
           47749     193.066E-03
           47750     184.873E-03
           47751     171.791E-03
           47752     161.234E-03
           47753     139.451E-03
           47754     152.353E-03
           47755         4.12002
           47756         4.08268
           47757         4.29775
           47758         4.56299
           47759         4.32420
           47760         2.85927
           47761         2.79226
           47762         4.18281
           47763         3.90447
           47764         4.04443
           47765         3.85429
           47766         3.97682
           47767         4.52195
           47768         4.96970
           47769         4.75689
           47770         5.02872
           47771         4.54510
           47772         4.73782
           47773         4.80755
           47774         4.58874
           47775         4.41945
           47776         4.15201
           47777         4.35238
           47778         2.22594
           47779         2.17763
           47780         2.18028
           47781         2.20040
           47782         2.25477
           47783         2.24834
           47784         2.25591
           47785         2.29473
           47786         2.31171
           47787         2.41296
           47788         2.37059
           47789         2.34967
           47790         2.21489
           47791         2.14360
           47792         2.18031
           47793         2.19426
           47794         2.11059
           47795         2.18466
           47796         2.16398
           47797         2.21836
           47798         2.16330
           47799         2.29466
           47800         4.34844
           47801         1.83694
           47802         1.81150
           47803         1.75371
           47804         1.71245
           47805         1.73608
           47806         1.79344
           47807         1.68864
           47808         1.62083
           47809         1.71387
           47810         1.66961
           47811         1.64633
           47812         1.84844
           47813         1.85962
           47814         1.78909
           47815         1.72672
           47816         1.71747
           47817         1.78648
           47818         1.72382
           47819         1.65032
           47820         1.82493
           47821         2.04637
           47822         1.94469
           47823         1.90244
           47824         2.00484
           47825         1.77201
           47826         1.87252
           47827         1.70563
           47828         1.65384
           47829         1.71241
           47830         1.81385
           47831         1.89107
           47832         3.01183
           47833         4.07013
           47834         4.26926
           47835         4.14783
           47836         2.91722
           47837         2.90700
           47838         2.91988
           47839         2.92978
           47840         2.89976
           47841         2.89155
           47842         2.90089
           47843         2.86455
           47844         2.89966
           47845         2.90435
           47846         2.89267
           47847         2.85301
           47848         2.83091
           47849         2.95944
           47850         2.93634
           47851         4.64895
           47852         4.60004
           47853         4.69868
           47854         4.64687
           47855         2.65963
           47856         2.65618
           47857         2.65624
           47858         2.65752
           47859         2.66043
           47860         2.65790
           47861         2.65706
           47862         2.65654
           47863         2.65838
           47864         2.65894
           47865         3.01321
           47866         3.04158
           47867         3.06495
           47868         2.99587
           47869         2.96755
           47870         2.94552
           47871         3.14750
           47872         3.24388
           47873         3.12708
           47874         3.18674
           47875         3.09299
           47876         3.20851
           47877     734.621E-03
           47878         2.93636
           47879         2.95816
           47880         2.96311
           47881         3.04115
           47882         3.01781
           47883         3.13161
           47884         3.15665
           47885         3.06950
           47886         2.52525
           47887         2.54237
           47888         2.52120
           47889         2.53906
           47890         2.54329
           47891         5.22684
           47892         5.26726
           47893         5.15161
           47894     542.937E-03
           47895         2.53045
           47896         2.54933
           47897         2.55302
           47898         2.54370
           47899         2.49946
           47900         2.49138
           47901         2.50211
           47902         2.52177
           47903     358.974E-03
           47904         2.55307
           47905         2.54920
           47906         2.55058
           47907         2.55931
           47908         2.56572
           47909         2.54651
           47910         2.55003
           47911         2.56175
           47912         2.57162
           47913         2.55169
           47914         2.55891
           47915         2.53621
           47916         2.54714
           47917         3.68288
           47918         3.68737
           47919         3.69001
           47920         3.71016
           47921         3.70231
           47922         3.78678
           47923         3.70853
           47924         3.89255
           47925         3.82875
           47926         3.80088
           47927         2.69489
           47928         2.70305
           47929         2.69396
           47930         2.69936
           47931         2.69210
           47932         2.70045
           47933         2.69149
           47934         2.68561
           47935         2.68968
           47936         2.68871
           47937         2.68753
           47938         2.68731
           47939         2.69048
           47940         2.69166
           47941         2.69202
           47942     277.529E-03
           47943     234.333E-03
           47944     168.189E-03
           47945         3.32179
           47946         3.52162
           47947         2.68548
           47948         2.67850
           47949         2.68073
           47950         2.67593
           47951         2.68173
           47952         2.67965
           47953         2.68314
           47954         2.67844
           47955         4.02134
           47956         3.96628
           47957         4.02662
           47958         4.08267
           47959         4.14573
           47960         4.09851
           47961         3.99207
           47962         4.05118
           47963         4.04573
           47964         4.01638
           47965         3.98719
           47966         4.06890
           47967         4.17840
           47968         4.10841
           47969         4.20042
           47970         4.24158
           47971         7.87528
           47972         7.68208
           47973         7.65816
           47974         7.55808
           47975         7.58226
           47976         8.16042
           47977         8.23423
           47978         7.92316
           47979         7.94819
           47980         8.18676
           47981         7.41599
           47982         7.58706
           47983         7.52796
           47984         7.49553
           47985         7.38833
           47986         4.43721
           47987         4.45586
           47988         4.36859
           47989         4.34243
           47990         4.32570
           47991         4.41503
           47992         4.26483
           47993         4.31869
           47994         3.91738
           47995         3.89231
           47996         3.94263
           47997         3.94003
           47998         4.31090
           47999         4.23892
           48000         4.24669
           48001         4.37079
           48002         4.39652
           48003         3.22033
           48004         3.19045
           48005         3.24349
           48006         3.17086
           48007         3.14079
           48008         3.14626
           48009         3.22270
           48010         3.20302
           48011         3.00667
           48012         3.03689
           48013         2.98651
           48014         3.06354
           48015         3.03258
           48016         3.09183
           48017         3.06845
           48018         3.27889
           48019         3.19296
           48020         3.01497
           48021         3.09254
           48022         3.04560
           48023         5.01990
           48024         4.99934
           48025         5.00157
           48026         4.92767
           48027         4.95088
           48028         5.00609
           48029         5.07114
           48030         5.06864
           48031         5.00575
           48032         5.07891
           48033         4.86428
           48034         4.85672
           48035         4.84860
           48036         4.92155
           48037         4.85689
           48038         5.02168
           48039         4.94769
           48040         5.01721
           48041         5.02497
           48042         5.02533
           48043         5.02156
           48044         5.00754
           48045         5.01959
           48046         5.01801
           48047         5.01918
           48048         5.04366
           48049         5.01806
           48050         5.00749
           48051         5.02386
           48052         5.03867
           48053         5.02437
           48054         5.01877
           48055         5.02116
           48056         4.97365
           48057         4.91578
           48058         4.58395
           48059         4.54909
           48060         4.44985
           48061         4.57346
           48062         4.81982
           48063         4.70476
           48064         4.77483
           48065         4.79054
           48066         4.76478
           48067         4.88171
           48068         4.85088
           48069         4.89092
           48070         4.87009
           48071         3.21791
           48072         2.58335
           48073         2.52033
           48074         2.37874
           48075         2.72571
           48076         2.62233
           48077         2.59097
           48078         2.51572
           48079         2.67858
           48080         2.81763
           48081         1.01126
           48082     922.490E-03
           48083     978.892E-03
           48084         1.05657
           48085         1.07207
           48086     978.390E-03
           48087         1.03795
           48088     963.564E-03
           48089     942.083E-03
           48090     882.007E-03
           48091     955.980E-03
           48092     784.903E-03
           48093     851.856E-03
           48094     869.279E-03
           48095     908.393E-03
           48096     843.067E-03
           48097     904.587E-03
           48098     816.866E-03
           48099     841.010E-03
           48100     822.903E-03
           48101     772.837E-03
           48102     751.590E-03
           48103     809.145E-03
           48104     802.651E-03
           48105         2.23542
           48106         2.22222
           48107         2.24878
           48108         2.21747
           48109         2.21401
           48110         2.25827
           48111         2.31505
           48112         2.27162
           48113         2.26107
           48114         2.16729
           48115         2.15644
           48116         2.20971
           48117         2.69386
           48118         2.74988
           48119         2.72839
           48120         2.68312
           48121         2.62324
           48122         2.65133
           48123         2.56580
           48124         2.42382
           48125         2.52291
           48126         2.60531
           48127         2.50319
           48128         2.59868
           48129         2.52617
           48130         2.72974
           48131         2.75152
           48132         2.65631
           48133         2.62759
           48134         2.69063
           48135         2.72147
           48136         2.73079
           48137         2.66903
           48138         2.60379
           48139         2.76025
           48140         2.70233
           48141         2.62707
           48142         2.62843
           48143         2.62994
           48144         2.64016
           48145         2.63984
           48146         2.65032
           48147         2.65213
           48148         2.64206
           48149         2.64344
           48150         2.62672
           48151         2.62955
           48152         5.58737
           48153         5.50448
           48154         5.69202
           48155         5.66049
           48156         4.25130
           48157         4.34143
           48158         4.16177
           48159         5.34339
           48160         5.38042
           48161         5.40048
           48162         5.35975
           48163         5.42735
           48164         5.37011
           48165         5.32232
           48166         5.52341
           48167         5.45808
           48168         2.35202
           48169         2.39575
           48170         2.42964
           48171         2.39865
           48172         2.35709
           48173         2.32326
           48174         2.47192
           48175         2.47805
           48176         2.47448
           48177         2.43429
           48178         2.42773
           48179         2.52718
           48180         2.52008
           48181         2.52599
           48182         2.39235
           48183         2.31247
           48184         2.34611
           48185         2.38444
           48186         2.43529
           48187         2.39609
           48188         2.49285
           48189         2.48554
           48190         2.52695
           48191         2.38204
           48192         2.44705
           48193     476.202E-03
           48194     424.838E-03
           48195         4.70553
           48196         4.89100
           48197     497.828E-03
           48198     543.231E-03
           48199     505.770E-03
           48200     476.704E-03
           48201     433.306E-03
           48202     468.926E-03
           48203     625.039E-03
           48204     733.281E-03
           48205     623.265E-03
           48206     424.967E-03
           48207     404.577E-03
           48208     541.657E-03
           48209     468.189E-03
           48210     475.711E-03
           48211         2.58738
           48212         2.57568
           48213         2.59533
           48214         2.57540
           48215         2.58697
           48216         2.56832
           48217         2.58782
           48218         2.58548
           48219         2.60514
           48220         2.58608
           48221         2.60503
           48222         2.61555
           48223         2.58697
           48224         2.60654
           48225         2.59645
           48226         2.62578
           48227         2.56603
           48228         2.58050
           48229         2.54978
           48230         2.55829
           48231         3.61848
           48232         3.77909
           48233         2.59179
           48234         2.59820
           48235         2.35746
           48236         2.37917
           48237         2.38143
           48238         2.37855
           48239         2.42334
           48240         2.45178
           48241         2.43885
           48242         2.45331
           48243         2.43789
           48244         2.36341
           48245         2.37292
           48246         2.37879
           48247         2.43474
           48248         5.43294
           48249         5.57126
           48250         5.42542
           48251         5.29387
           48252         5.73854
           48253         4.74465
           48254         4.46957
           48255         4.70237
           48256         4.69089
           48257         4.96393
           48258         4.72267
           48259         4.33328
           48260         5.00593
           48261         4.74835
           48262         5.02021
           48263         4.51887
           48264         4.79873
           48265         4.83193
           48266         5.62290
           48267         5.55472
           48268         5.59750
           48269         5.42941
           48270         5.43860
           48271         5.42465
           48272         5.50139
           48273         5.48760
           48274         5.55393
           48275         2.82126
           48276         2.69086
           48277         2.76696
           48278         2.66215
           48279         2.79536
           48280         2.71636
           48281         2.69639
           48282         2.70236
           48283         2.73651
           48284         2.92531
           48285         2.56936
           48286         2.66281
           48287         2.79463
           48288         2.59962
           48289         3.21828
           48290         4.09767
           48291         4.06752
           48292         4.26342
           48293         4.18061
           48294         4.34767
           48295         4.16000
           48296         4.69965
           48297         4.56988
           48298         4.64342
           48299         4.57890
           48300         4.50543
           48301         4.50160
           48302         4.48662
           48303         4.37705
           48304         4.37953
           48305         4.51348
           48306         4.56583
           48307         4.21096
           48308         4.33208
           48309         4.41420
           48310         4.37573
           48311         4.40523
           48312         4.90549
           48313         4.99833
           48314         4.91253
           48315         5.02183
           48316         4.94156
           48317         5.01939
           48318         4.78999
           48319         4.86650
           48320         4.84270
           48321         4.75635
           48322         4.93324
           48323         5.02230
           48324         5.04370
           48325         4.87552
           48326         4.97860
           48327         4.94960
           48328         4.72790
           48329         4.79720
           48330         4.98040
           48331         4.87616
           48332         4.97177
           48333         2.62966
           48334         2.63134
           48335         2.61912
           48336         2.61703
           48337         2.63048
           48338         2.63723
           48339         2.64730
           48340     172.123E-03
           48341     230.301E-03
           48342     139.505E-03
           48343     160.039E-03
           48344     147.472E-03
           48345     126.355E-03
           48346     100.494E-03
           48347     297.007E-03
           48348     330.193E-03
           48349     260.540E-03
           48350     310.031E-03
           48351     368.949E-03
           48352     331.064E-03
           48353     103.003E-03
           48354     128.912E-03
           48355     160.333E-03
           48356     170.096E-03
           48357     194.897E-03
           48358     137.552E-03
           48359     185.103E-03
           48360     376.050E-03
           48361     338.064E-03
           48362     360.143E-03
           48363     317.650E-03
           48364     398.677E-03
           48365     284.014E-03
           48366     297.463E-03
           48367     181.187E-03
           48368     168.377E-03
           48369     225.989E-03
           48370     284.001E-03
           48371     318.047E-03
           48372     274.047E-03
           48373         1.48357
           48374         1.41102
           48375         1.50137
           48376         1.70456
           48377         1.63892
           48378         1.71935
           48379         1.76416
           48380         1.68105
           48381         1.34937
           48382         1.22090
           48383         1.25235
           48384         1.30479
           48385         1.27083
           48386         1.19896
           48387         1.37840
           48388         1.45209
           48389         1.36271
           48390         5.56472
           48391         5.58362
           48392         5.61534
           48393         5.63996
           48394         5.60904
           48395         1.31848
           48396         1.92721
           48397         1.98479
           48398         2.03428
           48399         1.98446
           48400         1.93339
           48401         1.98496
           48402         2.03269
           48403         1.98309
           48404         1.98081
           48405         1.90611
           48406         1.84732
           48407         1.87607
           48408         4.88963
           48409         4.72216
           48410         4.72228
           48411         4.65910
           48412         4.82424
           48413         5.06197
           48414         5.06254
           48415         5.19843
           48416         5.02104
           48417         5.02071
           48418         5.17466
           48419         4.99875
           48420         5.10254
           48421         4.99056
           48422         5.16733
           48423         4.95424
           48424         5.05340
           48425         4.94935
           48426         5.08404
           48427         5.12607
           48428         4.96222
           48429         4.86149
           48430         4.92134
           48431         5.39093
           48432         5.39071
           48433         5.38438
           48434         5.34929
           48435         5.34974
           48436         5.35942
           48437         5.34960
           48438         5.30964
           48439         5.34595
           48440         5.35166
           48441         5.38918
           48442         5.35469
           48443         5.41139
           48444         5.41339
           48445         5.41778
           48446         5.41653
           48447         5.44354
           48448         5.42097
           48449         5.45151
           48450         5.43766
           48451         5.40560
           48452         5.44122
           48453         5.38464
           48454         5.37622
           48455         5.39903
           48456         5.42276
           48457         5.44913
           48458     93.4350E-03
           48459     105.834E-03
           48460     91.0989E-03
           48461     126.401E-03
           48462     112.849E-03
           48463     127.501E-03
           48464     77.5676E-03
           48465     91.3841E-03
           48466     110.527E-03
           48467     67.7552E-03
           48468     57.9030E-03
           48469     80.2248E-03
           48470     79.0953E-03
           48471     18.8673E-03
           48472     26.8885E-03
           48473     37.8267E-03
           48474     56.2710E-03
           48475     65.9412E-03
           48476     50.4629E-03
           48477         4.57001
           48478         4.43735
           48479         4.48308
           48480         4.43331
           48481         4.56677
           48482         4.52038
           48483         4.70704
           48484         4.66616
           48485         4.76954
           48486         4.75824
           48487         4.57715
           48488     300.295E-03
           48489         2.06247
           48490         2.09078
           48491         2.05917
           48492         2.10133
           48493         2.05393
           48494         2.04019
           48495         2.02574
           48496         2.04662
           48497         2.07892
           48498         2.03902
           48499         2.01820
           48500         2.07079
           48501         2.02042
           48502         2.02426
           48503         1.99236
           48504         2.00128
           48505         1.99930
           48506         2.01300
           48507         1.98137
           48508         2.00271
           48509         2.01611
           48510         3.29072
           48511         3.35150
           48512         3.35651
           48513         3.29507
           48514         3.21557
           48515         3.26163
           48516         3.18077
           48517         3.24842
           48518         3.28570
           48519         4.20123
           48520         4.14615
           48521         3.30724
           48522         3.25166
           48523         3.30781
           48524         3.33378
           48525         3.34666
           48526         3.12884
           48527         3.18217
           48528         3.25712
           48529         3.18872
           48530         6.95448
           48531         7.57858
           48532         7.31592
           48533         7.92195
           48534         7.26051
           48535         7.73802
           48536         7.13811
           48537         7.23741
           48538         7.41883
           48539         7.79532
           48540         8.27201
           48541         7.97252
           48542         7.46134
           48543         8.91537
           48544         8.90487
           48545         8.56924
           48546         8.50342
           48547         8.67120
           48548         4.45156
           48549         4.65709
           48550         4.32017
           48551         4.25872
           48552         4.25951
           48553         4.22697
           48554         4.10845
           48555         4.27656
           48556         4.46029
           48557         4.46371
           48558         4.27626
           48559         4.31358
           48560         3.34610
           48561         3.22606
           48562         3.21563
           48563         3.17682
           48564         3.29845
           48565         2.88647
           48566         2.92300
           48567         2.83665
           48568         2.94339
           48569         3.08012
           48570         3.15312
           48571         3.19814
           48572         3.04078
           48573         2.95141
           48574         2.93486
           48575         3.14375
           48576         3.14379
           48577         3.14447
           48578         3.13921
           48579         3.24736
           48580         1.53894
           48581         1.65234
           48582         1.59643
           48583         1.64559
           48584         1.53140
           48585         1.58852
           48586         1.37024
           48587         1.32430
           48588         1.43580
           48589         1.38407
           48590         1.43212
           48591         1.31765
           48592         1.45671
           48593         1.50098
           48594         1.44656
           48595         1.40239
           48596         1.55001
           48597         1.60469
           48598         1.54028
           48599         1.65306
           48600         1.54448
           48601         1.56144
           48602         1.51319
           48603         2.65650
           48604         2.66404
           48605         2.66018
           48606         2.66166
           48607         2.65894
           48608         2.66295
           48609         2.66119
           48610         2.65894
           48611         2.66046
           48612         2.65886
           48613         2.65755
           48614         2.65621
           48615         2.66029
           48616         2.65754
           48617         2.65368
           48618         2.65485
           48619         2.65664
           48620         5.76936
           48621         5.74315
           48622         5.76008
           48623         5.82103
           48624         5.78419
           48625         7.60443
           48626         8.25202
           48627         8.08098
           48628         7.46128
           48629         7.35731
           48630         7.11839
           48631         7.59647
           48632         7.64873
           48633     131.936E-03
           48634     118.104E-03
           48635     59.4168E-03
           48636     72.9554E-03
           48637     69.4037E-03
           48638     52.3158E-03
           48639         4.83240
           48640         4.71356
           48641         5.20610
           48642         4.42348
           48643         3.86427
           48644         4.60722
           48645         5.23355
           48646         4.92822
           48647         4.73919
           48648         5.46976
           48649         2.59666
           48650         2.60111
           48651         2.59924
           48652         2.61774
           48653         2.61257
           48654         2.60434
           48655         2.61198
           48656         2.59033
           48657         2.59160
           48658         2.61050
           48659         2.61804
           48660         2.62553
           48661         2.61660
           48662         2.60234
           48663         2.64340
           48664         2.64488
           48665         2.64154
           48666         2.63986
           48667         2.63629
           48668         2.65551
           48669         2.62819
           48670         2.62305
           48671         2.62993
           48672         4.62968
           48673         4.50247
           48674         4.55990
           48675         4.68855
           48676         4.54336
           48677         4.75394
           48678         4.84310
           48679         4.87469
           48680         4.80849
           48681         4.71883
           48682         4.90680
           48683         5.00123
           48684         5.00229
           48685         4.58776
           48686         4.83830
           48687         4.97010
           48688         4.93335
           48689         4.93657
           48690         4.78193
           48691         7.20854
           48692         7.39735
           48693         7.70254
           48694         9.34640
           48695         9.04612
           48696         9.67717
           48697         7.94013
           48698         7.64192
           48699         8.80475
           48700         8.36980
           48701         5.72286
           48702         5.74004
           48703         5.71369
           48704         5.71251
           48705         5.69846
           48706         5.66521
           48707         5.62801
           48708         5.66214
           48709         5.65044
           48710         5.69257
           48711         5.65533
           48712         5.71140
           48713         5.73911
           48714         5.74605
           48715         5.70541
           48716         5.71854
           48717         5.73523
           48718         5.71998
           48719         5.74602
           48720         5.71452
           48721         5.72984
           48722         5.68094
           48723         5.64583
           48724         5.67307
           48725         5.71192
           48726         5.68766
           48727         5.73852
           48728         5.73298
           48729         3.16916
           48730         3.20084
           48731         3.36866
           48732         3.34891
           48733         3.39024
           48734         3.43064
           48735         3.34145
           48736         3.38864
           48737         7.42666
           48738         7.16005
           48739         7.16941
           48740         7.04155
           48741         7.29611
           48742         6.88581
           48743         7.06193
           48744         6.84431
           48745         6.82140
           48746         6.65585
           48747         7.19056
           48748         7.43220
           48749         7.29652
           48750         7.32357
           48751         2.59541
           48752         2.64673
           48753         2.58963
           48754         2.55256
           48755         2.50290
           48756         2.56086
           48757         5.52799
           48758         5.59844
           48759         5.57999
           48760         2.68889
           48761         2.65499
           48762         2.71430
           48763         2.77507
           48764         2.73308
           48765         2.66352
           48766         2.69744
           48767         2.61019
           48768         2.52823
           48769         2.59138
           48770         2.56795
           48771         2.50526
           48772     669.422E-03
           48773     746.395E-03
           48774     671.312E-03
           48775     746.220E-03
           48776     744.427E-03
           48777         1.28099
           48778     789.057E-03
           48779     870.723E-03
           48780     827.048E-03
           48781     829.501E-03
           48782     789.950E-03
           48783     920.514E-03
           48784     836.985E-03
           48785     785.743E-03
           48786     789.914E-03
           48787     830.223E-03
           48788     882.295E-03
           48789     878.861E-03
           48790     923.101E-03
           48791     974.058E-03
           48792     925.119E-03
           48793     874.548E-03
           48794     971.014E-03
           48795     788.655E-03
           48796         2.43639
           48797         2.47622
           48798         2.72903
           48799         2.64565
           48800         2.52481
           48801         2.49073
           48802         2.36721
           48803         2.52034
           48804         2.90188
           48805         2.74415
           48806         2.84304
           48807         2.78882
           48808         2.36893
           48809         2.51809
           48810         2.36342
           48811         6.83371
           48812         7.12161
           48813         6.99859
           48814         6.44557
           48815         6.47633
           48816         6.53780
           48817         6.57604
           48818         6.54938
           48819         6.48070
           48820         6.66991
           48821         6.84378
           48822         6.77091
           48823         6.69321
           48824         6.59450
           48825         6.71322
           48826         6.73667
           48827         6.91150
           48828         6.66291
           48829         6.89687
           48830         5.96509
           48831         5.98650
           48832         6.02085
           48833         7.48624
           48834         7.44316
           48835         7.31527
           48836         7.14869
           48837         7.17788
           48838         6.96383
           48839         5.55364
           48840         5.54169
           48841         5.58764
           48842         5.56913
           48843         5.58211
           48844         5.53679
           48845         5.53463
           48846         5.57987
           48847         5.55960
           48848         5.58079
           48849         5.53388
           48850         5.64176
           48851         5.66144
           48852         5.67024
           48853         5.64748
           48854         5.62693
           48855         5.61664
           48856         3.20565
           48857         3.16077
           48858         3.16930
           48859         3.24851
           48860         2.33184
           48861         2.35785
           48862         2.35087
           48863         2.32445
           48864         2.31088
           48865         3.35021
           48866         3.35415
           48867         3.41260
           48868         3.32502
           48869         3.35582
           48870         3.35181
           48871         3.44060
           48872         3.40815
           48873         3.09801
           48874         3.12212
           48875         3.14682
           48876         1.97822
           48877         1.95253
           48878         1.95699
           48879         1.96827
           48880         1.97310
           48881         2.04212
           48882         2.00757
           48883         1.99309
           48884         2.01223
           48885         2.05675
           48886         2.07384
           48887         5.71558
           48888         4.86219
           48889         5.40602
           48890         6.22951
           48891         8.33288
           48892         11.6205
           48893         8.99420
           48894         10.4424
           48895         7.75980
           48896         9.63850
           48897         11.2969
           48898         8.07504
           48899         9.61783
           48900         5.47139
           48901         6.34851
           48902         5.54697
           48903         5.78365
           48904         4.96002
           48905         2.35443
           48906         2.34254
           48907         2.33153
           48908         2.29329
           48909         2.30737
           48910         2.31726
           48911         6.77406
           48912         7.97666
           48913         8.32243
           48914         5.40409
           48915         6.26407
           48916         5.95331
           48917         5.48930
           48918         5.45636
           48919         5.51508
           48920         5.45075
           48921         5.39653
           48922         5.40823
           48923         5.39482
           48924         5.39976
           48925         5.46690
           48926         5.42546
           48927         5.45222
           48928         5.48511
           48929         5.50754
           48930         5.46381
           48931         5.41364
           48932         1.15757
           48933     976.555E-03
           48934     850.293E-03
           48935     708.652E-03
           48936     573.815E-03
           48937         1.34664
           48938     789.266E-03
           48939         2.41415
           48940         2.45089
           48941         2.36409
           48942         2.34870
           48943         2.37195
           48944         2.38701
           48945         2.35391
           48946         2.37530
           48947         2.38214
           48948         2.41000
           48949         2.36001
           48950         2.32142
           48951         2.30333
           48952         2.33805
           48953         2.34617
           48954         2.63924
           48955         2.64863
           48956         2.65246
           48957         2.64940
           48958         2.65127
           48959         2.65258
           48960         2.65835
           48961         2.61755
           48962         2.03976
           48963         2.22287
           48964         2.18873
           48965         2.29758
           48966         2.24535
           48967         2.20997
           48968         2.33255
           48969         2.38380
           48970         2.41956
           48971         2.17447
           48972         2.21233
           48973         2.02604
           48974         2.40890
           48975         2.55681
           48976         2.41006
           48977         2.50085
           48978         2.35434
           48979         2.50009
           48980         2.53129
           48981         2.44516
           48982         3.59870
           48983         3.67519
           48984         3.71394
           48985         3.76735
           48986         3.68792
           48987         3.64962
           48988         3.60361
           48989         3.53031
           48990         3.56078
           48991         3.52454
           48992         3.59806
           48993         3.56723
           48994         3.67659
           48995         3.76226
           48996         3.71980
           48997         3.76700
           48998         3.68154
           48999         3.72365
           49000         3.09896
           49001         3.12924
           49002         3.13606
           49003         3.11311
           49004         3.20040
           49005         3.16800
           49006         3.20583
           49007         3.14074
           49008         3.17253
           49009         3.08517
           49010         3.10470
           49011         3.13833
           49012         3.13095
           49013         3.11133
           49014         3.07925
           49015         3.13378
           49016         3.11395
           49017         3.08056
           49018         3.22143
           49019         3.25041
           49020         3.18306
           49021         3.08882
           49022         3.05722
           49023         3.11787
           49024         3.14850
           49025         5.29359
           49026         5.18562
           49027         5.26275
           49028         5.21384
           49029         5.13460
           49030         5.20009
           49031         5.20377
           49032         5.31578
           49033         2.05991
           49034         2.04206
           49035         2.05868
           49036         2.10470
           49037         2.11033
           49038         2.00811
           49039         1.96885
           49040         1.99383
           49041         2.01349
           49042         2.03213
           49043         2.00333
           49044         1.93890
           49045         2.01442
           49046         2.01277
           49047         2.08096
           49048         1.99968
           49049         2.09313
           49050         2.17138
           49051         2.10632
           49052         2.21887
           49053         2.29165
           49054         2.14297
           49055         2.10283
           49056         2.11187
           49057         2.23340
           49058         2.22182
           49059         2.32634
           49060         5.57871
           49061         5.66468
           49062         5.61574
           49063         5.53259
           49064         5.65753
           49065         5.52565
           49066         5.60750
           49067         5.64962
           49068         5.61821
           49069         5.50576
           49070         5.56492
           49071         5.63105
           49072         5.65348
           49073         5.66987
           49074         5.70648
           49075         5.62711
           49076         5.64099
           49077         5.59935
           49078         5.57727
           49079         5.56057
           49080         5.60162
           49081         2.73754
           49082         2.77082
           49083         2.81520
           49084         2.74080
           49085         2.78134
           49086         2.61403
           49087         2.64094
           49088         2.57709
           49089         2.61366
           49090         2.67007
           49091         2.60449
           49092         2.70545
           49093         2.74992
           49094         2.74347
           49095         2.82845
           49096         2.78166
           49097         2.78893
           49098         2.78663
           49099         2.82630
           49100         2.79146
           49101         2.74672
           49102         2.78913
           49103         2.69969
           49104         2.72568
           49105         2.67894
           49106         2.67558
           49107         2.71351
           49108         7.04481
           49109         7.15681
           49110         7.05717
           49111         6.36489
           49112         7.47142
           49113         7.31705
           49114         7.41623
           49115         7.26197
           49116         7.55860
           49117         7.25398
           49118         7.34418
           49119         6.50038
           49120         6.39016
           49121         6.53914
           49122         6.50338
           49123         7.47298
           49124         6.96486
           49125         7.16177
           49126         7.12775
           49127         6.95845
           49128         7.59113
           49129         7.50294
           49130         7.55391
           49131         7.29863
           49132         3.92126
           49133         3.59311
           49134         3.52838
           49135         3.52443
           49136         3.58958
           49137         3.56842
           49138         3.74002
           49139         3.76042
           49140         3.77343
           49141         3.67550
           49142         3.65611
           49143         3.64383
           49144         3.65903
           49145         3.75588
           49146         3.66315
           49147         3.66000
           49148         3.55959
           49149         3.65101
           49150         3.63913
           49151         2.68085
           49152         2.68143
           49153         2.68815
           49154         2.67559
           49155         2.67599
           49156         2.68076
           49157         2.68245
           49158         2.68107
           49159         2.67942
           49160         2.68384
           49161         2.68500
           49162         2.69351
           49163         2.69028
           49164         2.68264
           49165         2.67733
           49166         2.67998
           49167         2.67895
           49168         2.68492
           49169         2.68158
           49170         2.68716
           49171         2.69141
           49172         2.69396
           49173         2.68986
           49174         5.63604
           49175         5.59303
           49176         5.58904
           49177         5.61121
           49178         5.63202
           49179         5.54932
           49180         5.50887
           49181         5.54260
           49182         5.48357
           49183         5.52462
           49184         5.49079
           49185         5.55153
           49186         5.58516
           49187         5.54438
           49188         5.66305
           49189         5.68841
           49190         5.64133
           49191         5.66562
           49192         5.63031
           49193         5.67726
           49194         5.69798
           49195         5.64922
           49196         5.66402
           49197         5.52702
           49198         5.50151
           49199         5.56624
           49200         5.53286
           49201         5.58168
           49202         5.56686
           49203         5.60098
           49204     427.966E-03
           49205     556.725E-03
           49206     596.207E-03
           49207     557.172E-03
           49208     488.347E-03
           49209     450.810E-03
           49210     382.389E-03
           49211     412.146E-03
           49212     408.736E-03
           49213     487.843E-03
           49214     565.621E-03
           49215     551.771E-03
           49216     592.475E-03
           49217     473.351E-03
           49218         2.58483
           49219         2.57864
           49220         2.58245
           49221         2.56609
           49222         2.55889
           49223         2.56401
           49224         2.56795
           49225         2.56915
           49226         2.56233
           49227         2.56045
           49228         2.57548
           49229         3.83515
           49230         3.78483
           49231         3.82081
           49232         3.86677
           49233         3.75741
           49234         3.80688
           49235         3.77470
           49236         3.72506
           49237         3.74244
           49238         3.87514
           49239         3.84618
           49240         3.80198
           49241         3.74485
           49242         4.00076
           49243         2.48544
           49244         2.49295
           49245         2.50631
           49246         2.42302
           49247         2.45733
           49248         4.43796
           49249         4.74299
           49250         4.49477
           49251         2.46860
           49252         2.45837
           49253         2.47318
           49254         2.46183
           49255         2.80281
           49256         2.78811
           49257         2.78613
           49258         2.79701
           49259         2.81350
           49260         2.81400
           49261         2.82838
           49262         2.82805
           49263         2.83929
           49264         2.81720
           49265         2.80761
           49266         2.79296
           49267         2.81223
           49268         2.82187
           49269         2.83957
           49270         2.78259
           49271         2.78482
           49272         2.80880
           49273         2.80797
           49274         2.78854
           49275     51.4951E-03
           49276     36.7813E-03
           49277     71.7671E-03
           49278     36.1628E-03
           49279     53.8798E-03
           49280         2.50392
           49281         2.73964
           49282     117.488E-03
           49283     64.4289E-03
           49284     80.7312E-03
           49285     134.658E-03
           49286     72.8114E-03
           49287     55.8054E-03
           49288     39.0337E-03
           49289     35.9186E-03
           49290     37.4820E-03
           49291     145.414E-03
           49292     188.016E-03
           49293     127.569E-03
           49294         4.93551
           49295         4.99626
           49296     116.753E-03
           49297         2.53295
           49298         2.50708
           49299         2.50400
           49300         2.49498
           49301         2.50603
           49302         2.52091
           49303         2.65532
           49304         2.63814
           49305         2.64326
           49306         2.65900
           49307         2.61050
           49308         2.61776
           49309         2.63198
           49310         2.61552
           49311         2.59443
           49312         2.58167
           49313         2.58558
           49314         2.59848
           49315         2.56855
           49316         2.60093
           49317         2.63841
           49318         2.65199
           49319     718.041E-03
           49320     743.507E-03
           49321     655.602E-03
           49322     631.722E-03
           49323     721.892E-03
           49324     747.698E-03
           49325     637.627E-03
           49326     584.437E-03
           49327     505.679E-03
           49328     443.976E-03
           49329     522.037E-03
           49330     477.568E-03
           49331     495.520E-03
           49332     508.260E-03
           49333     552.940E-03
           49334     597.858E-03
           49335     537.824E-03
           49336     660.859E-03
           49337     693.273E-03
           49338     696.837E-03
           49339     600.990E-03
           49340     549.296E-03
           49341         4.30313
           49342         4.34391
           49343         4.31390
           49344         4.39915
           49345         4.18482
           49346         4.08351
           49347         4.21422
           49348         3.94993
           49349         4.07977
           49350         4.61962
           49351         4.55203
           49352         4.44872
           49353         4.48998
           49354         4.49710
           49355         4.60179
           49356         4.55919
           49357         4.31006
           49358         4.25561
           49359         4.21051
           49360         4.20132
           49361         4.19917
           49362         4.31301
           49363         4.20937
           49364         4.43466
           49365         4.34317
           49366         4.35401
           49367         4.40341
           49368         4.28416
           49369         4.38795
           49370         2.64561
           49371         2.65256
           49372         2.65239
           49373         2.64408
           49374         2.66297
           49375         1.10524
           49376     959.217E-03
           49377         2.26909
           49378         2.28669
           49379         2.28612
           49380         2.66235
           49381         2.67247
           49382         2.66350
           49383         2.66461
           49384         2.66355
           49385         2.65768
           49386         2.66267
           49387         2.64136
           49388         2.75914
           49389         2.81407
           49390         2.88614
           49391         2.83573
           49392         2.77976
           49393         2.38206
           49394         2.03202
           49395         1.79566
           49396         2.41025
           49397         2.10660
           49398         2.32253
           49399         2.53517
           49400         2.55410
           49401         2.67842
           49402         2.76357
           49403         2.46097
           49404         3.57846
           49405         2.66368
           49406         2.66564
           49407         2.66614
           49408         2.66438
           49409         2.66598
           49410         2.66090
           49411         2.66145
           49412         2.66060
           49413         3.80160
           49414         4.11176
           49415         3.72426
           49416         4.65699
           49417         5.18534
           49418         4.55180
           49419         4.52779
           49420         4.04933
           49421         4.62074
           49422         3.64321
           49423         3.49389
           49424         3.93553
           49425         3.96348
           49426         3.64792
           49427         3.52324
           49428         3.22854
           49429         3.72330
           49430         3.28670
           49431         3.36583
           49432         4.25847
           49433         4.40271
           49434         4.43313
           49435         4.91899
           49436         4.56442
           49437         4.22585
           49438         4.70621
           49439         2.42609
           49440         2.43594
           49441         2.40920
           49442         2.38506
           49443         2.37494
           49444         2.39862
           49445         2.39952
           49446         2.41133
           49447     168.928E-03
           49448     154.802E-03
           49449     190.609E-03
           49450     162.988E-03
           49451     176.389E-03
           49452         2.79056
           49453         2.80456
           49454         2.79710
           49455         2.75109
           49456         2.72368
           49457         2.72267
           49458         2.80019
           49459         2.80643
           49460         4.44481
           49461         4.48379
           49462         4.43947
           49463         4.35991
           49464         4.40289
           49465         4.58838
           49466         4.54477
           49467         4.62706
           49468         4.22210
           49469         4.33765
           49470         4.24139
           49471         4.37961
           49472         4.26377
           49473         5.75371
           49474         5.80078
           49475         5.78170
           49476         4.62760
           49477         4.48466
           49478         4.51091
           49479         4.42986
           49480         4.57156
           49481         4.52804
           49482         4.42245
           49483         4.46043
           49484     706.652E-03
           49485     707.719E-03
           49486     633.472E-03
           49487     869.242E-03
           49488     635.584E-03
           49489     764.560E-03
           49490     722.447E-03
           49491     730.271E-03
           49492     644.273E-03
           49493     753.245E-03
           49494     658.091E-03
           49495     778.052E-03
           49496     717.923E-03
           49497     763.015E-03
           49498     643.767E-03
           49499     704.484E-03
           49500     640.778E-03
           49501     759.760E-03
           49502     795.737E-03
           49503     676.013E-03
           49504     718.696E-03
           49505     795.951E-03
           49506     673.704E-03
           49507     755.349E-03
           49508         6.14624
           49509         6.26116
           49510         6.23988
           49511         5.90306
           49512         5.90624
           49513         6.03649
           49514         6.07829
           49515         6.06224
           49516         5.91586
           49517         6.14958
           49518         6.32725
           49519         6.23760
           49520         6.17084
           49521         6.07997
           49522         2.59431
           49523         2.60340
           49524         2.59418
           49525         2.63446
           49526         2.62788
           49527         2.62417
           49528         2.62550
           49529         2.60656
           49530         2.61200
           49531         2.60187
           49532         2.61150
           49533         2.62218
           49534         2.61190
           49535         2.61723
           49536         2.60760
           49537         2.62057
           49538         2.58868
           49539         2.59097
           49540         2.59963
           49541         2.59138
           49542         2.67359
           49543         2.66629
           49544         2.67084
           49545         2.67042
           49546         2.67682
           49547         2.67312
           49548         2.67397
           49549         2.67349
           49550         1.66550
           49551         2.68283
           49552         2.68287
           49553         2.68634
           49554         2.68802
           49555         2.68668
           49556         2.68834
           49557         2.68288
           49558         2.68109
           49559         5.88434
           49560         5.87242
           49561         5.84169
           49562         5.81083
           49563         5.82098
           49564         5.85079
           49565         2.68617
           49566         5.13700
           49567         5.17486
           49568         5.04089
           49569         5.09838
           49570         5.05781
           49571         5.19330
           49572         4.97762
           49573         4.87786
           49574         4.93698
           49575         5.01885
           49576         4.87871
           49577         5.03567
           49578         5.05666
           49579         4.95253
           49580         4.73021
           49581         4.70833
           49582         2.51972
           49583         2.52773
           49584         2.54231
           49585         2.53275
           49586         2.52513
           49587         2.51064
           49588         2.52552
           49589         2.54644
           49590         2.53017
           49591         2.49748
           49592         2.50219
           49593         2.50642
           49594         2.51205
           49595         2.50345
           49596         2.51126
           49597         2.49243
           49598         2.47475
           49599         2.48577
           49600         2.47791
           49601         2.48434
           49602         2.49870
           49603         2.49287
           49604         2.48771
           49605         5.84627
           49606         5.80482
           49607         5.81707
           49608         2.80633
           49609         2.81078
           49610         2.82100
           49611         2.85542
           49612         2.84473
           49613         2.79033
           49614         2.77506
           49615         2.91270
           49616         2.93400
           49617         2.91614
           49618         2.90510
           49619         2.88429
           49620         2.90155
           49621         2.94759
           49622         2.96622
           49623         2.91286
           49624         2.90182
           49625         2.88355
           49626         2.93569
           49627         2.94773
           49628         2.96696
           49629         2.87829
           49630         2.87712
           49631         2.99545
           49632         2.93374
           49633         2.99307
           49634         3.13554
           49635         3.19110
           49636         3.23382
           49637         3.31083
           49638         3.25075
           49639         3.25424
           49640         3.32893
           49641         3.27826
           49642         3.31261
           49643         3.36538
           49644         3.38641
           49645         3.41528
           49646         3.34062
           49647         3.17794
           49648         3.22267
           49649         3.10653
           49650         3.13667
           49651         2.82270
           49652         2.79664
           49653         2.80184
           49654         2.78090
           49655         2.80605
           49656         2.80129
           49657         2.78240
           49658         2.80989
           49659         2.80070
           49660         2.82106
           49661         2.82608
           49662         7.54042
           49663         7.41045
           49664         7.49973
           49665         7.66077
           49666         7.59975
           49667         7.60014
           49668         7.66023
           49669         7.86326
           49670         5.79734
           49671         7.14075
           49672         7.40670
           49673         7.34810
           49674         2.76255
           49675         2.76150
           49676         2.77520
           49677         2.77213
           49678         2.73467
           49679         2.73754
           49680         2.72658
           49681         2.73751
           49682         2.73504
           49683         2.73704
           49684         2.72618
           49685         2.73354
           49686         2.02000
           49687         1.97524
           49688         2.04922
           49689         2.08095
           49690         2.00359
           49691         2.02574
           49692         2.03969
           49693         2.01447
           49694         1.93266
           49695         1.96028
           49696     557.895E-03
           49697     708.015E-03
           49698     800.501E-03
           49699     784.619E-03
           49700     744.877E-03
           49701     654.992E-03
           49702     683.209E-03
           49703     654.391E-03
           49704     588.431E-03
           49705     784.192E-03
           49706     674.357E-03
           49707     740.699E-03
           49708     776.732E-03
           49709     900.939E-03
           49710     821.209E-03
           49711     907.151E-03
           49712     877.255E-03
           49713     683.309E-03
           49714     823.184E-03
           49715     723.813E-03
           49716     481.326E-03
           49717     596.209E-03
           49718     581.473E-03
           49719         2.04613
           49720         2.09392
           49721         2.05488
           49722         5.80801
           49723         5.74382
           49724         2.07467
           49725         2.05942
           49726         2.10425
           49727         2.06126
           49728         2.03048
           49729         5.38055
           49730         1.97525
           49731         2.02803
           49732         1.99372
           49733         1.92538
           49734         1.98006
           49735         1.97651
           49736         1.97774
           49737         2.05721
           49738         2.02520
           49739         2.01193
           49740         2.04181
           49741         1.92918
           49742         1.97399
           49743         2.72703
           49744         2.73775
           49745         2.75586
           49746         2.73525
           49747         2.74871
           49748         2.73190
           49749         2.73443
           49750         2.75089
           49751         2.75327
           49752         2.75429
           49753         2.75942
           49754         2.77605
           49755         2.77440
           49756         2.76947
           49757         2.77116
           49758         2.77243
           49759         2.75196
           49760         2.75103
           49761         2.76363
           49762         2.58810
           49763         2.59029
           49764         2.58390
           49765         2.60387
           49766         2.60472
           49767         2.60194
           49768         2.59858
           49769         2.60103
           49770         2.61190
           49771         2.60816
           49772         2.60556
           49773         2.60665
           49774         2.60963
           49775         2.60516
           49776         2.60966
           49777         2.60737
           49778         2.61125
           49779         2.60590
           49780         2.60589
           49781         2.60490
           49782         2.60025
           49783         2.60310
           49784         2.59964
           49785         2.60596
           49786         2.60751
           49787         5.44037
           49788         5.49601
           49789         5.50741
           49790         5.50958
           49791     881.338E-03
           49792         5.48058
           49793         5.42003
           49794         5.42517
           49795         5.32756
           49796         5.27338
           49797         5.48051
           49798         5.40304
           49799         5.40219
           49800         5.38232
           49801         5.45892
           49802         5.46015
           49803         5.54140
           49804         5.54367
           49805         5.52013
           49806         5.92485
           49807         5.96267
           49808         5.95269
           49809         5.42300
           49810         5.40734
           49811         5.34093
           49812         5.35642
           49813         5.34241
           49814         5.36033
           49815         5.41514
           49816         5.33279
           49817         5.30286
           49818         5.49399
           49819         5.59965
           49820         5.66287
           49821         5.30508
           49822         5.34772
           49823         5.45234
           49824         5.37799
           49825         5.33514
           49826         5.71325
           49827         5.53118
           49828         5.26136
           49829         5.37151
           49830         5.50133
           49831         5.47565
           49832         5.63171
           49833         5.58077
           49834         7.04384
           49835         7.00679
           49836         6.96410
           49837         7.00045
           49838         7.15582
           49839         7.35564
           49840         7.05349
           49841         7.19980
           49842         6.90455
           49843         6.92035
           49844         6.74871
           49845         5.89704
           49846         5.85901
           49847         5.92408
           49848         6.96850
           49849         6.78665
           49850         7.01467
           49851         5.70966
           49852         5.77571
           49853         5.87773
           49854         5.84252
           49855         5.62908
           49856         5.83258
           49857         5.60961
           49858         5.62534
           49859         5.98647
           49860         6.00327
           49861         5.99110
           49862         5.83893
           49863         5.92915
           49864         6.04297
           49865         6.20171
           49866         6.02675
           49867         6.16921
           49868         6.01042
           49869         5.93667
           49870         2.85042
           49871         2.81660
           49872         3.07253
           49873         2.98988
           49874         2.92086
           49875         2.80169
           49876         1.60542
           49877         1.58791
           49878         1.61396
           49879         1.26954
           49880         1.61041
           49881         1.43719
           49882         1.61429
           49883         2.27732
           49884         2.07377
           49885         2.11584
           49886         1.97830
           49887         1.97996
           49888         1.79200
           49889         1.98048
           49890         3.62752
           49891         3.57870
           49892         3.69382
           49893         3.63315
           49894         3.68325
           49895         3.56863
           49896         3.75635
           49897         3.70965
           49898         3.64930
           49899         3.73001
           49900         3.76477
           49901         3.81613
           49902         3.83272
           49903         3.70972
           49904         3.81594
           49905         3.17067
           49906         3.15725
           49907         3.18081
           49908         3.10617
           49909         3.15902
           49910         3.18215
           49911         3.22709
           49912         3.21711
           49913         3.28155
           49914         3.19929
           49915         3.23775
           49916     254.021E-03
           49917     198.389E-03
           49918     231.628E-03
           49919     229.193E-03
           49920     285.559E-03
           49921     251.431E-03
           49922     344.656E-03
           49923     278.733E-03
           49924     316.940E-03
           49925     270.179E-03
           49926     293.951E-03
           49927     313.092E-03
           49928     360.959E-03
           49929     236.044E-03
           49930     278.444E-03
           49931     344.898E-03
           49932     310.448E-03
           49933     357.716E-03
           49934     392.559E-03
           49935     328.477E-03
           49936         2.22687
           49937         2.19462
           49938         2.21002
           49939         2.19018
           49940         2.20728
           49941         2.25436
           49942         2.26591
           49943         2.23345
           49944     870.119E-03
           49945     937.785E-03
           49946     974.672E-03
           49947         1.04090
           49948     875.555E-03
           49949     832.678E-03
           49950     967.355E-03
           49951         3.98302
           49952         2.60609
           49953         2.60693
           49954         2.61200
           49955         2.60834
           49956         2.60754
           49957         2.60235
           49958         2.60720
           49959         2.61221
           49960         2.61749
           49961         2.61459
           49962         2.60949
           49963         2.61708
           49964         2.61457
           49965         2.61598
           49966         2.60741
           49967         2.60171
           49968         2.60462
           49969         2.60945
           49970         2.60639
           49971         2.61457
           49972         2.61860
           49973         2.61627
           49974         5.06461
           49975         5.08837
           49976         5.10733
           49977         5.08430
           49978         4.98353
           49979         5.16893
           49980         5.22352
           49981         5.22160
           49982         5.30562
           49983         5.25219
           49984         5.09297
           49985         4.98507
           49986         5.08573
           49987         5.11341
           49988         2.35804
           49989         2.35910
           49990         5.93775
           49991         5.87888
           49992         5.96556
           49993         5.24761
           49994     404.376E-03
           49995     375.134E-03
           49996     375.952E-03
           49997     405.180E-03
           49998     433.696E-03
           49999     319.535E-03
           50000     373.744E-03
           50001     403.031E-03
           50002     346.078E-03
           50003     319.358E-03
           50004     347.948E-03
           50005         6.29847
           50006         6.20231
           50007         6.17824
           50008         6.07661
           50009         5.84389
           50010         5.95834
           50011         5.85690
           50012         5.92885
           50013         5.81476
           50014         6.28959
           50015         5.85327
           50016         5.89306
           50017         5.89020
           50018         6.02275
           50019         5.88342
           50020         5.98318
           50021         6.08367
           50022         6.20301
           50023         6.29859
           50024         6.17877
           50025         6.10776
           50026         5.79191
           50027         5.91888
           50028         5.07905
           50029         5.03310
           50030         5.03253
           50031         5.00925
           50032         5.02125
           50033         5.01072
           50034         5.02267
           50035         5.03428
           50036         5.02973
           50037         5.00376
           50038         5.06855
           50039         5.02776
           50040         5.03807
           50041         5.04540
           50042         5.03297
           50043         5.04605
           50044         5.00255
           50045         3.22484
           50046         3.24240
           50047         3.26402
           50048         3.25245
           50049         3.23544
           50050         3.21454
           50051         3.17296
           50052         3.16692
           50053         3.22026
           50054         3.27126
           50055         3.32967
           50056         3.30316
           50057         3.33299
           50058         3.27334
           50059         3.30000
           50060         3.28324
           50061         3.34019
           50062         3.30842
           50063         3.18332
           50064         3.17136
           50065         3.15546
           50066         3.19953
           50067         3.27510
           50068         3.33327
           50069         3.34466
           50070         3.28772
           50071         3.31652
           50072         6.39444
           50073         6.30095
           50074         6.47167
           50075         6.26978
           50076         6.20678
           50077         6.13608
           50078         6.15035
           50079         6.05267
           50080         6.33271
           50081         6.28706
           50082         6.33960
           50083         6.17864
           50084         6.33150
           50085         6.71978
           50086         6.56251
           50087         6.68642
           50088         6.11297
           50089         6.09059
           50090         6.07857
           50091         6.17283
           50092         6.15147
           50093         6.30790
           50094         6.25922
           50095     308.773E-03
           50096     192.664E-03
           50097     252.471E-03
           50098     179.835E-03
           50099     295.091E-03
           50100     233.741E-03
           50101     611.709E-03
           50102     493.304E-03
           50103     597.422E-03
           50104     384.575E-03
           50105     434.461E-03
           50106     422.355E-03
           50107     369.087E-03
           50108     318.428E-03
           50109     329.240E-03
           50110     241.325E-03
           50111     295.656E-03
           50112     306.093E-03
           50113     379.035E-03
           50114     315.605E-03
           50115     299.437E-03
           50116         6.03246
           50117         6.08524
           50118         5.93070
           50119         5.82648
           50120         5.76724
           50121         5.92893
           50122         5.64071
           50123         5.58684
           50124         5.83480
           50125         5.96367
           50126         5.99385
           50127         5.77219
           50128         5.65379
           50129         5.71983
           50130         5.79223
           50131         5.51669
           50132         6.11289
           50133         6.06057
           50134         5.92642
           50135         5.90886
           50136         5.87569
           50137         5.60857
           50138         2.40213
           50139         2.47800
           50140         2.54619
           50141         2.66461
           50142         2.60593
           50143         2.56677
           50144         2.75288
           50145         2.69221
           50146         2.78168
           50147         2.60199
           50148         2.66137
           50149         2.56594
           50150         2.00663
           50151         1.96455
           50152         1.97431
           50153         1.95835
           50154         2.00097
           50155         1.99206
           50156         2.06716
           50157         2.04710
           50158         2.03234
           50159         2.02179
           50160         1.97485
           50161         2.06341
           50162         2.07811
           50163         2.08246
           50164         2.09678
           50165         2.09132
           50166         2.11856
           50167         2.05419
           50168         4.68347
           50169         4.80775
           50170         4.80830
           50171         4.87478
           50172         4.74947
           50173         4.74949
           50174         4.64526
           50175         4.71197
           50176         4.76554
           50177         4.69944
           50178         4.66190
           50179         4.57852
           50180         4.52696
           50181         4.82411
           50182         4.78448
           50183         4.66898
           50184         4.57432
           50185         4.55875
           50186         5.59613
           50187         5.70655
           50188         5.65661
           50189         5.74367
           50190         5.70541
           50191         5.59379
           50192         5.65121
           50193         5.31925
           50194         5.41037
           50195         5.29163
           50196         5.44086
           50197         5.60335
           50198         5.78506
           50199         5.61677
           50200         5.52632
           50201         5.69110
           50202         5.37489
           50203         5.46198
           50204         5.37283
           50205         5.39257
           50206         5.48085
           50207         5.39716
           50208         5.36613
           50209         5.39438
           50210         5.38542
           50211         5.62603
           50212         5.50957
           50213         5.24148
           50214         5.26745
           50215         5.34000
           50216         5.37531
           50217         5.95975
           50218         5.67757
           50219         5.77264
           50220         5.79525
           50221         5.52215
           50222         5.39339
           50223         2.25836
           50224         2.26606
           50225         2.20861
           50226         2.27485
           50227         2.32952
           50228         2.16450
           50229         2.12753
           50230         2.52209
           50231         2.51789
           50232         2.50663
           50233         2.51895
           50234         2.52251
           50235         2.54345
           50236         2.52814
           50237     525.818E-03
           50238     700.500E-03
           50239         2.39600
           50240         2.48452
           50241         2.56651
           50242         5.71143
           50243         5.68085
           50244         5.69727
           50245         5.66633
           50246         5.65884
           50247         5.65106
           50248         5.67127
           50249         5.67963
           50250         5.67019
           50251         5.68442
           50252         5.69717
           50253         5.69889
           50254         5.68037
           50255         5.69012
           50256         5.69262
           50257         5.70700
           50258         5.67265
           50259         5.65153
           50260         5.65247
           50261         5.66422
           50262         5.71802
           50263         5.72546
           50264         5.77904
           50265         5.75380
           50266         2.64979
           50267         2.69819
           50268         2.59815
           50269         2.73112
           50270         2.67043
           50271         2.66656
           50272         2.74036
           50273         2.57302
           50274         2.54481
           50275         2.52987
           50276         2.63046
           50277         2.64854
           50278         2.61813
           50279         2.65391
           50280         3.88702
           50281         4.11229
           50282         4.01697
           50283         4.37089
           50284         4.12792
           50285         4.59423
           50286         4.52721
           50287         5.09604
           50288         4.66522
           50289         5.19172
           50290         4.88424
           50291         4.83013
           50292         2.71767
           50293         2.71129
           50294         2.71641
           50295         2.71809
           50296         2.72506
           50297         2.71895
           50298         2.72326
           50299         2.72564
           50300         2.72596
           50301         2.73450
           50302         2.73191
           50303         2.73170
           50304         2.72669
           50305         2.72434
           50306         2.73279
           50307         2.74383
           50308         2.73309
           50309         2.73309
           50310         2.18831
           50311         2.14024
           50312         2.16600
           50313         2.16235
           50314         2.19785
           50315         2.17714
           50316         2.16759
           50317         2.17554
           50318         2.19710
           50319         2.20523
           50320         2.23045
           50321         2.23038
           50322     566.203E-03
           50323         2.66180
           50324         2.67178
           50325         2.65400
           50326         2.62599
           50327         2.63390
           50328         2.65752
           50329         2.66355
           50330         2.64069
           50331         2.61860
           50332         2.73874
           50333         2.75629
           50334         2.68105
           50335         2.66165
           50336         2.68705
           50337         2.68403
           50338         2.73907
           50339         2.71646
           50340         2.59188
           50341         2.60570
           50342         2.62309
           50343         2.64880
           50344         2.63244
           50345         2.61560
           50346         5.80533
           50347         5.79546
           50348         4.57301
           50349         4.52218
           50350         5.07819
           50351         4.79698
           50352         4.84180
           50353         4.32630
           50354         5.45199
           50355         5.10057
           50356         5.45360
           50357         5.04277
           50358         4.20635
           50359         3.98829
           50360         4.23147
           50361         4.21826
           50362         6.15202
           50363         4.96814
           50364         5.31135
           50365         5.74377
           50366     178.472E-03
           50367     109.760E-03
           50368     148.592E-03
           50369     209.203E-03
           50370     243.838E-03
           50371         4.44530
           50372         4.06483
           50373         4.65182
           50374         5.04353
           50375         3.75466
           50376         6.01977
           50377         4.62943
           50378         4.99800
           50379         5.11525
           50380     114.487E-03
           50381     139.651E-03
           50382     97.3130E-03
           50383     113.635E-03
           50384     89.5877E-03
           50385     131.162E-03
           50386     78.7730E-03
           50387     122.641E-03
           50388     90.3177E-03
           50389     98.6129E-03
           50390     139.265E-03
           50391     97.2642E-03
           50392     104.054E-03
           50393     77.9769E-03
           50394     121.605E-03
           50395     57.9131E-03
           50396     76.9008E-03
           50397     84.4105E-03
           50398     99.7139E-03
           50399     67.1969E-03
           50400     102.217E-03
           50401     60.9139E-03
           50402     90.8473E-03
           50403     54.8768E-03
           50404     104.726E-03
           50405     142.369E-03
           50406     106.933E-03
           50407     181.118E-03
           50408     198.649E-03
           50409     145.313E-03
           50410     110.674E-03
           50411     153.637E-03
           50412     139.863E-03
           50413     119.211E-03
           50414     79.1787E-03
           50415     100.112E-03
           50416     98.4198E-03
           50417     67.7858E-03
           50418     108.288E-03
           50419         7.68433
           50420         7.92504
           50421         7.80015
           50422         8.80926
           50423         8.58147
           50424         8.73847
           50425         8.10304
           50426         7.85546
           50427         8.88452
           50428         7.36360
           50429         6.85900
           50430         7.54977
           50431         7.37191
           50432         7.04828
           50433         6.96388
           50434         6.48844
           50435         6.12606
           50436         7.00009
           50437         6.06591
           50438         6.56925
           50439         6.35942
           50440         7.20147
           50441         6.68235
           50442         2.87651
           50443         2.89504
           50444         2.90649
           50445         2.91973
           50446         2.88841
           50447         2.85288
           50448         2.86985
           50449         2.89414
           50450         2.88326
           50451         2.94198
           50452         2.89510
           50453         2.90793
           50454         5.85507
           50455         5.81750
           50456         5.83830
           50457         5.87197
           50458         2.89150
           50459         2.85142
           50460         2.87292
           50461         7.49406
           50462         7.74375
           50463         7.76417
           50464         3.33988
           50465         3.30914
           50466         3.30769
           50467         3.27332
           50468         3.30325
           50469         3.30441
           50470         3.37511
           50471         3.34425
           50472         3.41614
           50473         3.45068
           50474         3.33856
           50475         3.37418
           50476         3.37648
           50477         3.44973
           50478         3.41413
           50479         6.47389
           50480         6.52680
           50481         6.40388
           50482         6.64309
           50483         6.55593
           50484         6.68455
           50485         5.88215
           50486         5.93833
           50487         5.90329
           50488         5.93723
           50489         5.91628
           50490         6.55931
           50491         6.55881
           50492         6.48320
           50493     573.290E-03
           50494     605.011E-03
           50495     642.839E-03
           50496     545.908E-03
           50497     519.857E-03
           50498     480.181E-03
           50499     478.741E-03
           50500     574.008E-03
           50501     532.116E-03
           50502     461.132E-03
           50503     413.635E-03
           50504         5.87037
           50505         5.84302
           50506         5.82257
           50507         5.84608
           50508     703.649E-03
           50509     660.999E-03
           50510     660.655E-03
           50511     576.546E-03
           50512     612.232E-03
           50513     547.621E-03
           50514     427.492E-03
           50515     642.606E-03
           50516     524.658E-03
           50517         4.27725
           50518         4.36167
           50519         4.30788
           50520         4.43302
           50521         4.34758
           50522         4.32746
           50523         4.19031
           50524         4.28499
           50525         4.46602
           50526         4.50490
           50527         4.89434
           50528         5.02572
           50529         4.74842
           50530         4.71927
           50531     762.252E-03
           50532     862.251E-03
           50533     719.794E-03
           50534         1.12303
           50535     855.582E-03
           50536         1.00291
           50537     735.732E-03
           50538         1.08720
           50539         1.24471
           50540         1.13772
           50541         1.04022
           50542     887.297E-03
           50543     992.125E-03
           50544     966.980E-03
           50545         1.30403
           50546     775.154E-03
           50547         1.27620
           50548         1.07394
           50549         1.37264
           50550         1.22663
           50551         1.34887
           50552         1.07518
           50553         1.42507
           50554         1.21752
           50555     757.289E-03
           50556         5.29812
           50557         5.20349
           50558         5.40047
           50559         5.26154
           50560         5.35735
           50561         5.15898
           50562         5.68814
           50563         5.56879
           50564         5.55513
           50565         5.42404
           50566         5.29638
           50567         5.36873
           50568         5.17240
           50569         5.22597
           50570         5.16938
           50571         5.36821
           50572         5.29483
           50573         6.05005
           50574         6.35343
           50575         6.13376
           50576         6.00945
           50577         5.72667
           50578         5.91561
           50579         5.69925
           50580         5.51391
           50581         5.54721
           50582         5.22570
           50583         5.38659
           50584         5.35844
           50585         5.18397
           50586         5.23020
           50587         5.49104
           50588         6.19938
           50589         6.06533
           50590         6.09285
           50591         6.46855
           50592         5.59783
           50593         5.55838
           50594         2.67015
           50595         2.66270
           50596         2.66634
           50597         2.66231
           50598         2.65897
           50599         2.64283
           50600         2.65237
           50601         2.63660
           50602         2.63451
           50603         2.63982
           50604         2.64637
           50605         2.64275
           50606         2.61090
           50607         2.62652
           50608         2.61577
           50609         3.83778
           50610         3.64430
           50611         4.12165
           50612         2.35187
           50613         2.40641
           50614         2.40097
           50615         5.72967
           50616         5.75270
           50617         5.82904
           50618         5.82176
           50619         5.80244
           50620         5.71763
           50621         2.24256
           50622         2.14848
           50623         2.18707
           50624         2.21550
           50625         2.37658
           50626         2.35960
           50627         2.43148
           50628         2.39019
           50629         2.46055
           50630         2.45054
           50631         2.44211
           50632         2.42523
           50633         2.35946
           50634     316.311E-03
           50635     252.815E-03
           50636     318.767E-03
           50637     315.919E-03
           50638     381.566E-03
           50639     313.704E-03
           50640         5.98537
           50641         6.00834
           50642         5.98180
           50643     158.677E-03
           50644     115.457E-03
           50645     120.775E-03
           50646     165.319E-03
           50647     163.349E-03
           50648     232.437E-03
           50649     212.753E-03
           50650     193.205E-03
           50651     234.993E-03
           50652     182.874E-03
           50653     164.117E-03
           50654     235.363E-03
           50655     321.649E-03
           50656     291.236E-03
           50657     321.310E-03
           50658     266.814E-03
           50659         2.68853
           50660         2.64635
           50661         2.66249
           50662         2.71376
           50663         2.75749
           50664         2.73949
           50665         2.66482
           50666         2.69021
           50667         2.77814
           50668         2.76151
           50669         2.82259
           50670         2.63108
           50671         2.58982
           50672         2.63489
           50673         2.67728
           50674         2.60286
           50675         2.33726
           50676         2.32781
           50677         2.31968
           50678         2.30739
           50679         2.31706
           50680         2.31440
           50681         2.28558
           50682         2.33587
           50683         2.33862
           50684         2.32109
           50685         6.08722
           50686         5.97237
           50687         6.04815
           50688         6.14850
           50689         6.26241
           50690         6.18999
           50691         2.35001
           50692         2.35712
           50693         2.34738
           50694         2.33070
           50695         2.31645
           50696         2.28520
           50697         2.29018
           50698         2.27833
           50699         2.27502
           50700         2.26141
           50701         2.27679
           50702         2.29111
           50703         2.26539
           50704         2.29315
           50705         3.66536
           50706         3.59856
           50707         3.56584
           50708         3.69166
           50709         3.63180
           50710         3.71231
           50711         3.68772
           50712         3.73487
           50713         3.73699
           50714         3.91896
           50715         3.99483
           50716         3.92311
           50717         3.95356
           50718         3.95364
           50719         3.99462
           50720         3.95344
           50721         3.77579
           50722         3.70171
           50723         3.77586
           50724         3.05490
           50725         3.01041
           50726         5.90562
           50727         5.88366
           50728         3.17350
           50729         3.22998
           50730         3.26829
           50731         3.33876
           50732         3.27797
           50733         3.43596
           50734         3.33098
           50735         3.39274
           50736         3.23390
           50737         3.33474
           50738         3.24717
           50739         3.14909
           50740         3.20820
           50741         2.60885
           50742         2.58873
           50743         2.52581
           50744         2.53427
           50745         2.52170
           50746         2.53227
           50747         2.54923
           50748         2.57784
           50749         2.59692
           50750         2.59697
           50751         2.58700
           50752         2.60123
           50753         2.62978
           50754         2.63373
           50755         2.60524
           50756         2.62651
           50757     828.509E-03
           50758         1.38497
           50759         1.35533
           50760         1.18147
           50761         1.30379
           50762         1.02592
           50763         1.03803
           50764         1.05691
           50765         1.16766
           50766         1.25399
           50767     862.224E-03
           50768     981.530E-03
           50769         6.01055
           50770         2.54531
           50771         2.51836
           50772         2.52193
           50773         2.50287
           50774         2.51037
           50775         2.48589
           50776         2.47842
           50777         2.49792
           50778         2.49086
           50779         2.51571
           50780         2.51116
           50781         2.50769
           50782         2.50094
           50783         2.47723
           50784         2.48474
           50785         2.48749
           50786     17.4109E-03
           50787     19.7616E-03
           50788     16.5893E-03
           50789     23.6494E-03
           50790     20.0833E-03
           50791     17.4225E-03
           50792     20.1949E-03
           50793     12.2381E-03
           50794     15.4637E-03
           50795     13.1415E-03
           50796     20.0783E-03
           50797     28.2010E-03
           50798     20.6302E-03
           50799     13.3825E-03
           50800     16.1477E-03
           50801     12.3516E-03
           50802         3.14893
           50803         3.14732
           50804         3.06244
           50805         3.11370
           50806         2.91434
           50807         2.85017
           50808         2.94394
           50809         2.89320
           50810         2.96124
           50811         3.04634
           50812         3.12988
           50813         3.08481
           50814         5.98348
           50815         6.21973
           50816         5.99207
           50817         6.02670
           50818         5.80010
           50819         6.01792
           50820         5.67647
           50821         5.77292
           50822         5.86863
           50823         5.69985
           50824         5.60402
           50825         5.53175
           50826         5.59865
           50827         5.34362
           50828         5.35165
           50829         5.45561
           50830         5.63414
           50831         5.78992
           50832         5.59859
           50833         5.58858
           50834         5.43426
           50835         6.10141
           50836         5.87791
           50837         5.99195
           50838         6.09213
           50839         5.12158
           50840         5.04159
           50841         5.16079
           50842         5.33025
           50843         5.20769
           50844         5.42951
           50845         5.46111
           50846         5.27359
           50847         5.36221
           50848         5.07095
           50849         5.00141
           50850         5.03625
           50851         5.10634
           50852         4.93700
           50853         5.03608
           50854         5.10640
           50855         5.13710
           50856         5.27988
           50857         5.06761
           50858         5.14807
           50859         5.18407
           50860         4.97885
           50861         5.01376
           50862         3.04059
           50863         3.07276
           50864         3.00159
           50865         3.06234
           50866         3.03884
           50867         3.33832
           50868         3.03815
           50869         3.00709
           50870         2.97323
           50871         3.00371
           50872         2.86102
           50873         2.96537
           50874         2.85286
           50875         2.96681
           50876         2.74955
           50877         2.97815
           50878         2.82716
           50879         2.92613
           50880         2.93942
           50881         3.06502
           50882         2.96466
           50883         2.81911
           50884         2.90730
           50885         3.02088
           50886         2.89259
           50887         2.76268
           50888         2.71547
           50889         3.36409
           50890         3.38967
           50891         3.21370
           50892         3.25861
           50893         3.40287
           50894         2.62866
           50895         2.77188
           50896         2.80638
           50897         2.38835
           50898         3.91138
           50899         3.89055
           50900         3.86493
           50901         3.89277
           50902         3.91281
           50903         3.93896
           50904         3.82707
           50905         3.87178
           50906         3.82531
           50907         3.78135
           50908         4.02919
           50909         4.00243
           50910         4.09890
           50911         4.07711
           50912         4.09995
           50913         4.01004
           50914         3.98211
           50915         4.00132
           50916         2.95277
           50917         2.90365
           50918         2.94680
           50919         2.89048
           50920         2.93744
           50921         2.89490
           50922         3.02381
           50923         2.97610
           50924         2.98554
           50925         3.32440
           50926         2.96228
           50927         2.92899
           50928         3.00359
           50929         2.98403
           50930         3.12231
           50931         3.11334
           50932         3.15982
           50933         3.17983
           50934         3.04430
           50935         3.03423
           50936         2.98548
           50937         3.03330
           50938         8.22261
           50939         8.36095
           50940         8.51182
           50941         8.55035
           50942         8.39530
           50943         8.62410
           50944         8.72727
           50945         8.96631
           50946         8.99683
           50947         8.01568
           50948         8.11714
           50949         8.23442
           50950         7.53126
           50951         8.03728
           50952         8.01361
           50953         7.93509
           50954         8.25883
           50955         8.10471
           50956         8.09078
           50957         8.23030
           50958         8.36916
           50959         8.20991
           50960         8.00336
           50961         2.73446
           50962         2.74512
           50963         2.74538
           50964         2.74269
           50965         2.74862
           50966         2.73734
           50967         2.74569
           50968         2.73406
           50969         2.71805
           50970         2.70867
           50971         2.71621
           50972         2.71509
           50973         2.71696
           50974         2.73774
           50975         2.32330
           50976         2.35589
           50977         2.26755
           50978         2.25364
           50979         2.27849
           50980         2.26966
           50981         2.28121
           50982         2.25711
           50983         2.27961
           50984         2.25247
           50985         2.24208
           50986         2.26695
           50987         2.25189
           50988         2.25081
           50989         2.27748
           50990         2.26208
           50991         2.32786
           50992         2.29970
           50993         2.30986
           50994         2.33564
           50995         2.29138
           50996         2.29320
           50997         2.23503
           50998         2.25143
           50999         2.23176
           51000         2.20303
           51001         3.83332
           51002         4.02364
           51003         4.03053
           51004         3.97714
           51005         3.91180
           51006         3.97664
           51007         3.95835
           51008         4.03865
           51009         6.12949
           51010         6.15200
           51011         6.10981
           51012         6.06600
           51013         6.04530
           51014         6.08151
           51015         2.38601
           51016         2.40546
           51017         2.39340
           51018         2.42245
           51019         2.36743
           51020         2.36778
           51021         2.38585
           51022         2.33691
           51023         2.35334
           51024         2.32945
           51025         2.32539
           51026         2.30816
           51027         2.33289
           51028         2.38086
           51029         2.35963
           51030         2.37791
           51031         2.39778
           51032         2.29633
           51033         2.27226
           51034         2.27848
           51035         3.18122
           51036         3.26786
           51037         3.40406
           51038         3.42128
           51039         3.38324
           51040         3.49194
           51041         3.47456
           51042         3.51572
           51043         3.44087
           51044         3.47450
           51045         3.55004
           51046         3.48929
           51047         3.45562
           51048         3.38063
           51049         3.31532
           51050         3.21794
           51051         3.21048
           51052         3.30596
           51053         3.25573
           51054     11.3085E-03
           51055     18.3965E-03
           51056     14.0421E-03
           51057     15.0723E-03
           51058     9.32910E-03
           51059     34.4343E-03
           51060     37.4151E-03
           51061     37.3570E-03
           51062     16.4381E-03
           51063     13.5595E-03
           51064     13.2833E-03
           51065     9.80925E-03
           51066     15.3758E-03
           51067     32.9055E-03
           51068     16.2502E-03
           51069     32.1807E-03
           51070     32.2635E-03
           51071     36.0404E-03
           51072     68.7031E-03
           51073     75.1252E-03
           51074     16.3634E-03
           51075     32.9962E-03
           51076     706.882E-03
           51077     628.958E-03
           51078     702.296E-03
           51079     782.982E-03
           51080     703.936E-03
           51081     581.507E-03
           51082     634.538E-03
           51083     558.201E-03
           51084     778.364E-03
           51085     653.453E-03
           51086     529.491E-03
           51087     649.818E-03
           51088     669.406E-03
           51089     704.861E-03
           51090     649.193E-03
           51091     598.777E-03
           51092     923.569E-03
           51093         2.62825
           51094         2.62875
           51095         2.60383
           51096         2.60540
           51097         2.60710
           51098         2.60583
           51099         2.61010
           51100         2.59230
           51101         2.59644
           51102         2.59026
           51103         2.59930
           51104         2.61550
           51105         2.62116
           51106         2.61353
           51107     17.4563E-03
           51108     41.0898E-03
           51109     25.3682E-03
           51110     27.2567E-03
           51111     9.11955E-03
           51112     19.2503E-03
           51113     17.8569E-03
           51114     41.5086E-03
           51115     24.7379E-03
           51116     40.8064E-03
           51117     12.4305E-03
           51118     8.32129E-03
           51119     14.0220E-03
           51120     11.7926E-03
           51121     18.1208E-03
           51122     11.6545E-03
           51123     30.3348E-03
           51124     32.5326E-03
           51125     36.6305E-03
           51126     14.9670E-03
           51127     29.5794E-03
           51128         6.22864
           51129         6.16853
           51130         2.51672
           51131         2.51027
           51132         2.51848
           51133         2.51939
           51134         2.52554
           51135         2.51747
           51136         2.50251
           51137         2.50259
           51138         2.51237
           51139         2.51042
           51140         2.53357
           51141         2.54131
           51142         2.53268
           51143         2.53634
           51144         2.52843
           51145         2.53721
           51146         2.53554
           51147         2.54328
           51148         2.52157
           51149         2.52488
           51150         2.52222
           51151         2.51900
           51152         2.51502
           51153         2.51255
           51154         2.50591
           51155         2.50815
           51156         5.42930
           51157         5.40072
           51158         5.39280
           51159         5.37927
           51160         5.47165
           51161         5.47684
           51162         5.44494
           51163         5.43570
           51164         5.45981
           51165         5.47296
           51166         5.50302
           51167         5.52188
           51168         5.49552
           51169         5.52461
           51170         5.49383
           51171         5.52094
           51172         5.46031
           51173         5.48924
           51174         5.42010
           51175         5.48082
           51176         5.44872
           51177         5.90417
           51178         5.92844
           51179         2.75917
           51180         2.86603
           51181         2.76341
           51182         2.76202
           51183         2.65915
           51184         2.76010
           51185         2.65487
           51186         2.70880
           51187         2.66221
           51188         2.56516
           51189         2.49521
           51190         2.56336
           51191         2.66151
           51192         2.80769
           51193         2.75668
           51194         2.75910
           51195         4.98572
           51196         4.91945
           51197         5.45034
           51198         5.42692
           51199         5.52641
           51200         5.63418
           51201         5.48192
           51202         5.30863
           51203         5.09619
           51204         5.52949
           51205         5.54164
           51206         5.50197
           51207         5.48616
           51208         5.47209
           51209         5.40441
           51210         5.42736
           51211         5.42592
           51212         5.40699
           51213         5.39735
           51214         5.45357
           51215         5.41889
           51216         5.43876
           51217         5.39986
           51218         5.38082
           51219         5.38569
           51220         5.41399
           51221         5.39523
           51222         5.44060
           51223         5.18810
           51224         5.19289
           51225         5.29195
           51226         5.30920
           51227         5.28326
           51228         5.26184
           51229         5.24367
           51230         5.26954
           51231         5.24977
           51232         5.27075
           51233         5.28984
           51234         5.27510
           51235         5.31006
           51236         5.31224
           51237         5.33574
           51238         5.28735
           51239         5.34386
           51240         5.36338
           51241         5.31965
           51242         5.23890
           51243         5.21809
           51244         5.19436
           51245         5.21652
           51246         5.23938
           51247         6.09049
           51248         6.07702
           51249     37.3913E-03
           51250     25.5175E-03
           51251     13.4012E-03
           51252     23.4567E-03
           51253     22.3895E-03
           51254     37.1972E-03
           51255     21.9697E-03
           51256     23.2936E-03
           51257     13.3871E-03
           51258     55.3653E-03
           51259     46.3185E-03
           51260     56.5044E-03
           51261     66.9781E-03
           51262     82.0374E-03
           51263         2.55282
           51264         2.55651
           51265         2.54315
           51266         2.56481
           51267         2.56052
           51268         2.57398
           51269         2.51286
           51270         2.51423
           51271         2.52316
           51272         2.52169
           51273         2.49470
           51274         2.50326
           51275         2.49881
           51276         2.53160
           51277         2.55155
           51278         2.56415
           51279         2.57275
           51280         2.47691
           51281         2.50282
           51282         2.49278
           51283         2.52990
           51284         2.50204
           51285         2.48567
           51286         2.48712
           51287         4.04001
           51288         4.11557
           51289         4.13762
           51290         3.94448
           51291         3.83984
           51292         3.89634
           51293         3.87019
           51294         3.97570
           51295         3.91747
           51296         4.16312
           51297         4.06579
           51298         4.10307
           51299         4.12676
           51300         4.06930
           51301         4.13976
           51302         4.04248
           51303         4.03116
           51304         3.90893
           51305         3.96669
           51306         4.00420
           51307         3.98250
           51308         3.93932
           51309         2.26428
           51310         2.23260
           51311         2.19096
           51312         2.20098
           51313         6.03961
           51314         6.02586
           51315         6.07452
           51316         6.13275
           51317         6.09822
           51318         2.04684
           51319         1.94813
           51320         2.07024
           51321         2.37287
           51322         2.69670
           51323         2.71339
           51324         2.66751
           51325         2.66821
           51326         2.62810
           51327         2.62931
           51328         2.59821
           51329         7.69353
           51330         7.95078
           51331         7.99951
           51332         7.94421
           51333         7.68263
           51334         7.62989
           51335         8.00135
           51336         8.26476
           51337         7.97010
           51338         7.57684
           51339         7.80903
           51340         7.53031
           51341         7.33697
           51342         7.10232
           51343         7.29286
           51344         6.93430
           51345         6.92692
           51346         7.26882
           51347         7.65789
           51348         7.22884
           51349         7.67487
           51350         7.28993
           51351         7.04710
           51352         7.37006
           51353         5.72343
           51354         5.80685
           51355         5.66386
           51356         5.69585
           51357         5.84300
           51358         5.68559
           51359         5.56572
           51360         5.54332
           51361         5.58929
           51362         5.86085
           51363         5.78868
           51364         5.81590
           51365         5.66753
           51366         5.79710
           51367         5.48880
           51368         5.43953
           51369         5.53473
           51370         5.53648
           51371         5.59627
           51372         5.49208
           51373         5.61141
           51374         5.66428
           51375         14.4950
           51376         13.6363
           51377         13.0738
           51378         12.6606
           51379         14.1430
           51380         12.8617
           51381         12.8756
           51382         13.5915
           51383         12.7682
           51384         12.9211
           51385         12.5122
           51386         10.3181
           51387         13.2645
           51388         16.7726
           51389         7.13368
           51390         6.93114
           51391         7.37975
           51392         7.49397
           51393         7.24339
           51394         7.39355
           51395         7.08281
           51396         7.32548
           51397         7.17480
           51398         7.18861
           51399         7.04575
           51400         6.60880
           51401         6.78673
           51402         4.91299
           51403         4.94786
           51404         4.92322
           51405         5.17176
           51406         5.17630
           51407         5.32696
           51408         5.31593
           51409         5.34128
           51410         5.34610
           51411         5.21883
           51412         5.27644
           51413         5.40087
           51414         5.39498
           51415         5.20293
           51416         4.85899
           51417         4.91998
           51418         5.02695
           51419         5.02162
           51420         4.96017
           51421         4.85498
           51422         5.03092
           51423         4.96943
           51424         5.15523
           51425         5.09691
           51426     112.641E-03
           51427     88.3453E-03
           51428     120.901E-03
           51429     96.2291E-03
           51430     144.780E-03
           51431     58.4755E-03
           51432     114.062E-03
           51433     83.2988E-03
           51434     130.138E-03
           51435     163.127E-03
           51436     129.481E-03
           51437     183.604E-03
           51438     94.0855E-03
           51439     61.7721E-03
           51440     20.6315E-03
           51441     22.7116E-03
           51442     43.3320E-03
           51443     34.8174E-03
           51444     33.6242E-03
           51445     56.0041E-03
           51446     34.0281E-03
           51447         3.51445
           51448         3.50141
           51449         3.23120
           51450         3.19180
           51451         3.36895
           51452         3.40032
           51453         3.44563
           51454         3.27942
           51455         3.29666
           51456         3.18016
           51457     260.493E-03
           51458     228.594E-03
           51459     177.307E-03
           51460         5.27654
           51461         5.09058
           51462         5.13847
           51463         3.01366
           51464         3.16218
           51465         3.12539
           51466         3.03401
           51467         3.16313
           51468         2.35068
           51469         2.29644
           51470         2.02182
           51471         2.07973
           51472         1.78430
           51473         1.99561
           51474         2.22725
           51475         1.82534
           51476         2.19179
           51477         2.34113
           51478         2.31782
           51479         2.60796
           51480         2.55034
           51481         5.29872
           51482         5.33271
           51483         5.29647
           51484         5.37706
           51485         5.34515
           51486         5.37761
           51487         5.18484
           51488         5.26985
           51489         5.18067
           51490         5.21229
           51491         5.30541
           51492         5.07786
           51493         5.29144
           51494         5.23660
           51495         5.21861
           51496         5.24509
           51497         6.83372
           51498         6.95486
           51499         6.72439
           51500         6.83137
           51501         6.61223
           51502         7.18854
           51503         7.05936
           51504         5.56397
           51505         5.55067
           51506         5.54651
           51507         5.57231
           51508         5.58760
           51509         5.58900
           51510         5.52419
           51511         5.54024
           51512         5.51589
           51513         5.49241
           51514         5.50118
           51515         5.45248
           51516         5.50200
           51517         5.53304
           51518         5.61837
           51519         5.59620
           51520         5.57118
           51521         5.60237
           51522         5.61510
           51523         5.62056
           51524         5.59853
           51525         3.47091
           51526         3.16893
           51527         3.68035
           51528         4.90737
           51529         4.88443
           51530         4.81649
           51531         4.83509
           51532         4.94715
           51533         5.96442
           51534         6.02209
           51535         6.03858
           51536         5.95075
           51537         5.89417
           51538         5.87591
           51539         4.96113
           51540         4.95821
           51541         4.90929
           51542         4.85493
           51543         4.83376
           51544         4.77488
           51545         4.74546
           51546         4.82821
           51547         4.91955
           51548         4.84232
           51549         3.07358
           51550         3.14938
           51551         2.58316
           51552         2.58903
           51553         2.58803
           51554         2.61653
           51555         2.61345
           51556         2.58892
           51557         2.59140
           51558         2.58650
           51559         2.59524
           51560         2.59297
           51561         6.21382
           51562         2.58960
           51563         2.58880
           51564         2.74439
           51565         2.76931
           51566         2.77643
           51567         2.75704
           51568         5.76811
           51569         5.82765
           51570         5.79366
           51571         2.80665
           51572         2.78127
           51573         2.80492
           51574         2.77112
           51575         2.79535
           51576         2.77244
           51577         2.82087
           51578         2.82391
           51579         2.83546
           51580         2.78355
           51581         2.79284
           51582         2.75675
           51583         2.76493
           51584         2.76841
           51585         2.74623
           51586         6.17448
           51587         6.03767
           51588         6.14947
           51589         6.27336
           51590         5.88740
           51591         5.85401
           51592         5.79910
           51593         5.69286
           51594         5.72540
           51595         5.78016
           51596         5.42102
           51597         5.55200
           51598         5.47604
           51599         5.56011
           51600         5.66371
           51601         5.69785
           51602         5.71713
           51603         6.01120
           51604         5.83881
           51605         5.63747
           51606         5.65652
           51607         4.53022
           51608         4.60763
           51609         4.53458
           51610         4.52189
           51611         4.38410
           51612         4.44073
           51613         4.36632
           51614         4.50612
           51615         4.44630
           51616         4.68387
           51617         4.53320
           51618         4.61256
           51619         4.41946
           51620         4.45176
           51621         4.66036
           51622         6.37538
           51623         4.43242
           51624         4.54715
           51625         4.54447
           51626         4.63060
           51627         4.67642
           51628         4.80413
           51629         5.08316
           51630         5.15418
           51631         5.07060
           51632         5.00080
           51633         5.20783
           51634     145.172E-03
           51635     166.709E-03
           51636     188.200E-03
           51637     138.559E-03
           51638     168.263E-03
           51639     224.370E-03
           51640     207.623E-03
           51641     198.961E-03
           51642     230.947E-03
           51643     249.569E-03
           51644     257.470E-03
           51645     196.741E-03
           51646     205.750E-03
           51647     224.767E-03
           51648         4.76004
           51649         4.55332
           51650         4.68302
           51651         4.42872
           51652         4.75156
           51653         4.77642
           51654         4.63273
           51655         4.60738
           51656         4.65737
           51657         4.63512
           51658         4.54700
           51659         4.51556
           51660         4.66984
           51661         4.60325
           51662         4.45686
           51663         4.56058
           51664         4.47013
           51665         2.68514
           51666         2.67449
           51667         2.67028
           51668         2.65114
           51669         2.69931
           51670         2.67812
           51671         2.66056
           51672         2.68135
           51673         2.65846
           51674         2.66525
           51675         10.1077
           51676         10.3141
           51677         9.91988
           51678         10.4087
           51679         10.2346
           51680         10.7169
           51681         9.76079
           51682         10.3905
           51683         10.1336
           51684         9.53611
           51685         9.66559
           51686         8.92483
           51687         8.74110
           51688         8.62133
           51689         9.04886
           51690         9.21259
           51691         9.36455
           51692         8.19816
           51693         8.36180
           51694         8.49555
           51695     933.748E-03
           51696     905.863E-03
           51697     817.156E-03
           51698     881.711E-03
           51699     808.514E-03
           51700     773.120E-03
           51701     799.314E-03
           51702     748.202E-03
           51703         6.48436
           51704     747.911E-03
           51705     755.658E-03
           51706     780.783E-03
           51707     696.280E-03
           51708     922.284E-03
           51709         2.64916
           51710         2.65060
           51711         2.65466
           51712         2.65626
           51713         2.65477
           51714         2.65074
           51715         2.64474
           51716         2.64814
           51717         2.64839
           51718         2.65348
           51719         2.64940
           51720         2.65724
           51721         2.65598
           51722         1.36149
           51723         1.25705
           51724         1.30731
           51725         1.06727
           51726         1.19946
           51727         1.22298
           51728         1.30915
           51729         1.28576
           51730         1.25100
           51731         1.34415
           51732         1.33073
           51733         1.25571
           51734         1.20882
           51735         1.20290
           51736         1.27196
           51737         1.31446
           51738         1.28025
           51739         1.29756
           51740         1.42102
           51741         1.49921
           51742         1.64725
           51743         1.55954
           51744         1.54038
           51745         1.44420
           51746         1.53859
           51747         1.39259
           51748         1.29468
           51749         5.86370
           51750         5.83250
           51751         5.91031
           51752         5.86552
           51753         5.89563
           51754         5.81911
           51755         6.57971
           51756         6.55633
           51757         6.51767
           51758         6.70030
           51759         2.67609
           51760         2.49139
           51761         2.57227
           51762         2.60997
           51763         2.52962
           51764         2.69744
           51765         2.51405
           51766         2.61915
           51767         2.49381
           51768         2.67873
           51769         2.53441
           51770         2.62265
           51771         2.82752
           51772         2.80332
           51773         2.33578
           51774         2.22167
           51775         2.18752
           51776         2.11954
           51777         2.22872
           51778         2.25826
           51779         2.37197
           51780         2.39489
           51781         2.32619
           51782         2.23072
           51783         2.20858
           51784         2.27538
           51785         2.37838
           51786         2.42614
           51787         2.35385
           51788         2.10522
           51789         2.09660
           51790         2.01388
           51791         2.07719
           51792         2.38465
           51793         2.45306
           51794         2.37700
           51795         2.30938
           51796         2.66311
           51797         2.49671
           51798         2.32132
           51799         2.23480
           51800         2.43076
           51801         2.80378
           51802         2.74668
           51803         2.76021
           51804         2.70532
           51805         2.76056
           51806         2.74594
           51807         2.68284
           51808         2.65240
           51809         2.60960
           51810         2.65266
           51811         2.69424
           51812         2.63655
           51813         2.61610
           51814         2.62031
           51815         2.62577
           51816         2.62111
           51817         2.62880
           51818         2.64243
           51819         2.63693
           51820         2.60637
           51821         2.61756
           51822         2.63794
           51823         2.62329
           51824         5.69149
           51825         5.68147
           51826         5.68557
           51827         5.66471
           51828         5.66941
           51829         5.66369
           51830         5.67999
           51831         5.71874
           51832         5.72889
           51833         5.67430
           51834         5.73486
           51835         5.69478
           51836         5.73926
           51837         5.69848
           51838         5.70570
           51839         5.71248
           51840         5.72512
           51841         2.98096
           51842         2.99518
           51843         2.98138
           51844         2.82085
           51845         2.80151
           51846         2.81187
           51847         2.37168
           51848         2.45773
           51849         2.45821
           51850         2.45439
           51851         2.41861
           51852         2.55518
           51853         2.51012
           51854         2.50185
           51855         2.77403
           51856         2.41322
           51857         2.50851
           51858         2.46686
           51859         2.60658
           51860         2.51050
           51861         2.64748
           51862         2.50803
           51863         2.38750
           51864         2.52832
           51865         2.52444
           51866         2.84645
           51867         3.83846
           51868         4.60118
           51869         5.36700
           51870         2.25252
           51871         2.22734
           51872         2.24734
           51873         2.23572
           51874         2.27880
           51875         2.29189
           51876         2.23611
           51877         2.25842
           51878         2.23125
           51879         2.26198
           51880         2.27960
           51881         2.20834
           51882         2.22919
           51883         2.21874
           51884         2.88307
           51885         2.30692
           51886         2.29665
           51887         2.28742
           51888         2.31262
           51889         2.30305
           51890         2.28445
           51891         2.28598
           51892         2.63083
           51893         2.67426
           51894         2.66324
           51895         2.69115
           51896         2.64597
           51897         5.55033
           51898         5.42940
           51899         5.44186
           51900         5.51122
           51901         5.43041
           51902         5.42622
           51903         5.45709
           51904         5.47864
           51905         5.50506
           51906         5.47509
           51907         5.44849
           51908         5.47405
           51909         5.30380
           51910         5.40199
           51911         5.53007
           51912         5.51130
           51913         6.83561
           51914         6.74987
           51915         6.93471
           51916         6.67712
           51917         6.89776
           51918         6.66965
           51919         7.07441
           51920         7.08433
           51921         7.05839
           51922         7.09389
           51923         7.15466
           51924         7.23016
           51925         7.15583
           51926         7.16270
           51927         7.38221
           51928         7.69635
           51929         7.46381
           51930         7.74305
           51931         7.49162
           51932         7.72014
           51933         7.44364
           51934         7.31274
           51935         7.41138
           51936         3.46754
           51937         3.46695
           51938         3.41049
           51939         3.41170
           51940         3.46859
           51941         3.50904
           51942         3.59095
           51943         3.48787
           51944         3.41079
           51945         3.50872
           51946         3.48867
           51947         3.48412
           51948         3.44770
           51949         3.37720
           51950         3.41466
           51951         3.62582
           51952         7.48321
           51953         7.03979
           51954         7.00276
           51955         6.87420
           51956         7.43793
           51957         7.42311
           51958         7.11700
           51959         7.19628
           51960         7.54231
           51961         7.54025
           51962         6.90734
           51963         7.03692
           51964         5.48423
           51965         5.45218
           51966         5.59879
           51967         5.44220
           51968         5.86153
           51969         6.01917
           51970         6.04632
           51971         6.09252
           51972         5.92901
           51973         6.01750
           51974         6.12751
           51975         5.39558
           51976         5.59195
           51977         5.73603
           51978         5.76084
           51979         5.86448
           51980         5.86360
           51981         5.83551
           51982         5.66749
           51983         5.68206
           51984         5.77436
           51985         5.78419
           51986         5.89746
           51987         5.71373
           51988         5.87367
           51989         5.90523
           51990         1.26210
           51991         6.57386
           51992         6.45623
           51993         6.40947
           51994         2.92428
           51995         3.02949
           51996         3.32239
           51997         3.25530
           51998         3.09454
           51999         3.35075
           52000         3.30713
           52001         3.19902
           52002         3.06761
           52003         3.05450
           52004         3.09029
           52005         3.03133
           52006         3.04426
           52007         3.00990
           52008         3.05969
           52009         3.07307
           52010         3.01530
           52011         3.11563
           52012         3.07877
           52013         3.09922
           52014         3.13077
           52015         3.10613
           52016         3.08009
           52017         3.04994
           52018         4.50161
           52019         4.61442
           52020         4.44778
           52021         4.56686
           52022         4.37389
           52023         4.40226
           52024         4.49804
           52025         4.27901
           52026         4.38514
           52027         4.35046
           52028         4.24393
           52029         4.25543
           52030         4.50578
           52031         4.64696
           52032         4.64293
           52033         4.58030
           52034         4.34269
           52035         6.23617
           52036         7.29906
           52037         7.39977
           52038         6.17390
           52039         7.43252
           52040         7.37496
           52041         8.52972
           52042         7.99362
           52043         6.91821
           52044         5.74081
           52045         5.81785
           52046         5.86571
           52047         5.79753
           52048         5.74822
           52049         5.73036
           52050         4.67925
           52051         5.21547
           52052         4.49812
           52053         5.46058
           52054         4.92223
           52055         4.66346
           52056         5.22457
           52057         5.70953
           52058         4.62905
           52059         4.65401
           52060         5.39649
           52061         4.47297
           52062         4.82329
           52063         5.62965
           52064         6.65294
           52065         5.90423
           52066         5.85330
           52067         5.91212
           52068         5.96364
           52069         5.93305
           52070         5.38421
           52071         5.39837
           52072         5.53931
           52073         5.58445
           52074         5.54750
           52075         5.50307
           52076         5.59716
           52077         5.55332
           52078         5.62136
           52079         5.36083
           52080         5.42260
           52081         5.54136
           52082         5.48650
           52083         5.50018
           52084         5.54254
           52085         2.72073
           52086         2.69542
           52087         2.68708
           52088         2.74241
           52089         2.76899
           52090         2.77699
           52091         2.62332
           52092         2.57289
           52093         2.61165
           52094         2.64495
           52095         2.69545
           52096         2.65882
           52097         2.68172
           52098         2.66365
           52099         2.64047
           52100         2.66911
           52101         2.70917
           52102         2.63414
           52103         2.52770
           52104         3.97245
           52105         4.02890
           52106         3.85635
           52107         4.00616
           52108         3.94779
           52109         4.11994
           52110         3.81205
           52111         3.73012
           52112         3.87711
           52113         3.71303
           52114         3.80641
           52115         3.64138
           52116         3.42451
           52117         3.49807
           52118         3.55324
           52119         3.54285
           52120         3.73909
           52121         3.56694
           52122         3.47456
           52123         3.64963
           52124         3.69548
           52125         3.48485
           52126         3.89899
           52127         3.80810
           52128         3.79201
           52129         3.77417
           52130     562.563E-03
           52131     446.395E-03
           52132     552.418E-03
           52133     496.183E-03
           52134     608.144E-03
           52135     500.852E-03
           52136     787.681E-03
           52137     966.122E-03
           52138     841.511E-03
           52139     880.777E-03
           52140     528.877E-03
           52141     486.120E-03
           52142     396.892E-03
           52143     444.147E-03
           52144     340.609E-03
           52145     451.320E-03
           52146     366.227E-03
           52147     569.770E-03
           52148     452.777E-03
           52149     522.638E-03
           52150     808.208E-03
           52151     690.919E-03
           52152     721.763E-03
           52153     703.994E-03
           52154     818.305E-03
           52155     633.210E-03
           52156     653.231E-03
           52157     588.638E-03
           52158     534.127E-03
           52159         5.83535
           52160         5.79841
           52161         5.84467
           52162         5.86839
           52163         5.93677
           52164         5.91398
           52165         5.86451
           52166         6.02243
           52167         5.76355
           52168         5.81740
           52169         5.73781
           52170         5.76254
           52171         3.00519
           52172         2.99007
           52173         3.03068
           52174         3.01789
           52175         3.04582
           52176         3.02182
           52177         2.99471
           52178         3.00516
           52179         3.01714
           52180         3.02472
           52181         3.03673
           52182         2.99751
           52183         2.97902
           52184         2.99830
           52185         2.99740
           52186         3.01268
           52187         3.02416
           52188         3.00230
           52189         2.98595
           52190         2.98389
           52191         2.89877
           52192         3.09296
           52193         3.06675
           52194         3.51251
           52195         3.52216
           52196         2.65832
           52197         2.65813
           52198         2.66041
           52199         2.66104
           52200         2.66103
           52201         2.65877
           52202         2.65965
           52203         2.65760
           52204         2.65336
           52205         2.65033
           52206         2.64792
           52207         2.65495
           52208         1.26117
           52209         1.20945
           52210         2.65003
           52211         2.65589
           52212         2.65329
           52213         2.65628
           52214         5.16056
           52215         5.18459
           52216         5.16167
           52217         5.20233
           52218         5.17713
           52219         5.27968
           52220         5.31225
           52221         5.08857
           52222         5.07274
           52223         5.05661
           52224         5.08532
           52225         5.14926
           52226         5.16839
           52227         5.13779
           52228         5.58667
           52229         5.63096
           52230         5.52371
           52231         5.52259
           52232         5.58704
           52233         5.08452
           52234         5.23931
           52235         5.17486
           52236         5.16082
           52237         5.10582
           52238         5.09820
           52239         5.13603
           52240         5.19557
           52241         5.15794
           52242         5.10822
           52243     20.3954E-03
           52244     11.3252E-03
           52245     17.4341E-03
           52246     11.6808E-03
           52247     17.8035E-03
           52248     19.4565E-03
           52249     19.4452E-03
           52250     13.1699E-03
           52251     15.7246E-03
           52252     18.6040E-03
           52253     20.3902E-03
           52254     19.3975E-03
           52255     17.9019E-03
           52256     19.6751E-03
           52257     18.7083E-03
           52258         7.72595
           52259         7.76080
           52260         10.0255
           52261         10.3982
           52262         13.1914
           52263         10.3250
           52264         5.25615
           52265         5.71772
           52266         5.30185
           52267         7.86430
           52268         6.35059
           52269         6.31275
           52270         4.96079
           52271         6.33355
           52272         6.43311
           52273         7.56903
           52274         10.1433
           52275         10.4424
           52276         6.38602
           52277         6.25370
           52278         6.45128
           52279         4.68922
           52280         7.88033
           52281         7.95305
           52282         8.16122
           52283         8.19191
           52284         8.09055
           52285         8.06469
           52286         8.38260
           52287         2.70865
           52288         7.99385
           52289         7.84508
           52290         7.80287
           52291         7.75860
           52292         8.08578
           52293         8.17513
           52294         8.57548
           52295         8.33280
           52296         8.47999
           52297         8.57393
           52298         8.42252
           52299         8.36804
           52300         8.27889
           52301         8.57397
           52302         5.51846
           52303         5.49725
           52304         5.50400
           52305         5.55785
           52306         5.73197
           52307         5.93699
           52308         5.87745
           52309         5.91859
           52310         5.86158
           52311         5.91856
           52312         5.94980
           52313         5.90160
           52314         3.50561
           52315         3.57965
           52316         3.57519
           52317         3.35716
           52318         3.34427
           52319         3.36149
           52320         3.30152
           52321         3.40742
           52322         3.36882
           52323         3.38287
           52324         3.49212
           52325         3.47193
           52326         3.41495
           52327         3.48520
           52328         3.36408
           52329         4.69581
           52330         4.62598
           52331         4.78625
           52332         4.74625
           52333         4.81839
           52334         4.65918
           52335         4.88482
           52336         4.84969
           52337         4.81998
           52338         4.74871
           52339         4.81207
           52340         4.89188
           52341         4.95956
           52342         5.04751
           52343         4.94016
           52344         5.05009
           52345         4.96459
           52346         5.06863
           52347         4.99138
           52348         4.99846
           52349         4.92190
           52350         4.92635
           52351         5.03609
           52352         5.00925
           52353         2.92760
           52354         2.88161
           52355         2.88319
           52356         2.92891
           52357         2.75531
           52358         3.29365
           52359         2.93020
           52360         2.98213
           52361         2.86855
           52362         2.84244
           52363         2.97599
           52364         2.73293
           52365         2.84093
           52366         3.21232
           52367         3.17423
           52368         5.54269
           52369         5.59034
           52370         5.54378
           52371         5.59294
           52372         5.63800
           52373         5.49769
           52374         5.47459
           52375         5.53051
           52376         5.55446
           52377         5.48233
           52378         5.53447
           52379         5.55794
           52380         5.53075
           52381         5.50923
           52382         5.38081
           52383         5.45784
           52384         5.41701
           52385         5.43184
           52386         5.35638
           52387         5.39238
           52388         5.55099
           52389         5.52051
           52390         5.47542
           52391         5.45937
           52392         5.49851
           52393         5.69026
           52394         5.65959
           52395         5.70554
           52396         5.73894
           52397         5.65002
           52398         2.64391
           52399         2.63774
           52400         2.63774
           52401         2.62861
           52402         2.63376
           52403         2.64832
           52404         2.64565
           52405         5.78150
           52406         5.81470
           52407         5.76676
           52408         5.72969
           52409         5.73308
           52410         2.64494
           52411         2.62287
           52412         2.61325
           52413         2.62684
           52414         2.61241
           52415         2.63433
           52416         2.87799
           52417         2.85701
           52418         2.87257
           52419         2.87617
           52420         2.89991
           52421         2.88114
           52422         2.88736
           52423         2.86975
           52424         2.88265
           52425         2.90131
           52426         2.89225
           52427         2.93856
           52428         2.89868
           52429         2.93487
           52430         2.90955
           52431         2.95153
           52432         2.91252
           52433         2.95675
           52434         2.96332
           52435         2.98577
           52436         2.94107
           52437         2.91631
           52438         2.90748
           52439         2.92182
           52440         2.89934
           52441         2.88656
           52442         2.89712
           52443         2.87945
           52444         2.88322
           52445         2.85682
           52446         2.92103
           52447         2.90670
           52448         5.86535
           52449         5.90497
           52450         5.84047
           52451         5.85768
           52452         5.82030
           52453         5.88148
           52454         5.80134
           52455         5.81530
           52456         5.76405
           52457         5.74642
           52458         5.74346
           52459         5.82484
           52460         5.88651
           52461         5.85879
           52462         5.81914
           52463         4.77653
           52464         4.87728
           52465         4.97091
           52466         5.13074
           52467         5.15553
           52468         5.02789
           52469         4.71963
           52470         4.56415
           52471         4.59974
           52472         4.52409
           52473         4.69638
           52474         4.64453
           52475         4.74307
           52476         4.65288
           52477         5.38686
           52478         5.46577
           52479         5.27060
           52480         5.30333
           52481         5.02150
           52482         5.16272
           52483         5.18914
           52484         5.16603
           52485         5.21298
           52486         5.23619
           52487         5.22716
           52488         5.30175
           52489         2.96295
           52490         3.03992
           52491         3.01330
           52492         3.01571
           52493         2.93976
           52494         2.96672
           52495         2.98302
           52496         2.97997
           52497         2.90049
           52498         2.90744
           52499         2.94353
           52500         2.92842
           52501         2.93296
           52502         3.00989
           52503         3.00557
           52504         2.93730
           52505         2.93790
           52506         3.01552
           52507         3.11782
           52508         3.03658
           52509         3.11105
           52510         3.00506
           52511         3.08574
           52512         3.06309
           52513         3.11464
           52514         3.01932
           52515         3.01424
           52516         3.09575
           52517         1.67315
           52518         1.89348
           52519         1.85562
           52520         1.93630
           52521         1.74540
           52522         1.93552
           52523         1.94791
           52524         2.05913
           52525         2.05430
           52526         2.10871
           52527         2.20987
           52528         2.21984
           52529         2.16104
           52530         1.93183
           52531         2.12055
           52532     610.929E-03
           52533     659.594E-03
           52534     696.919E-03
           52535     634.370E-03
           52536     648.004E-03
           52537     617.276E-03
           52538     580.410E-03
           52539     617.487E-03
           52540     671.088E-03
           52541     493.014E-03
           52542     518.191E-03
           52543         5.79293
           52544         5.76934
           52545         5.71780
           52546         5.68413
           52547         5.70870
           52548         5.75888
           52549         5.57197
           52550         5.60572
           52551         5.65719
           52552         5.62287
           52553         5.78606
           52554         5.70007
           52555         5.61997
           52556         5.70584
           52557         5.74821
           52558         5.58193
           52559         5.77101
           52560         5.79446
           52561         5.75748
           52562         5.68124
           52563         2.24285
           52564         2.20015
           52565         2.18945
           52566         2.23174
           52567         2.24169
           52568         2.18568
           52569         2.18755
           52570         2.12896
           52571         2.14446
           52572         2.26525
           52573         2.28719
           52574         2.25335
           52575         2.28181
           52576         2.31461
           52577         2.22288
           52578         2.24744
           52579         2.27388
           52580         2.29055
           52581         2.26783
           52582         2.31761
           52583         2.16942
           52584         2.23752
           52585         2.25157
           52586     19.8816E-03
           52587     20.3728E-03
           52588     21.4220E-03
           52589     28.1130E-03
           52590     26.6216E-03
           52591     25.2829E-03
           52592     28.1713E-03
           52593     26.5494E-03
           52594     36.3670E-03
           52595     18.7033E-03
           52596     18.7949E-03
           52597     18.6340E-03
           52598     19.0141E-03
           52599     18.7419E-03
           52600     17.6052E-03
           52601     19.2596E-03
           52602     12.7142E-03
           52603     15.1437E-03
           52604     14.7061E-03
           52605     17.0099E-03
           52606     20.7502E-03
           52607     20.0772E-03
           52608     25.5257E-03
           52609     14.5355E-03
           52610     12.7734E-03
           52611     19.2685E-03
           52612     16.9871E-03
           52613         1.43051
           52614         1.35032
           52615         1.40216
           52616         1.48233
           52617         1.47374
           52618         1.55381
           52619         1.44744
           52620         1.49957
           52621         1.43852
           52622         1.39893
           52623         1.49633
           52624         1.57892
           52625         1.53078
           52626         1.55997
           52627         1.38934
           52628         1.37732
           52629         1.36735
           52630         1.39290
           52631     14.0161E-03
           52632     119.483E-03
           52633     526.891E-03
           52634     529.839E-03
           52635     524.555E-03
           52636     562.454E-03
           52637     560.009E-03
           52638     564.658E-03
           52639     565.864E-03
           52640     529.465E-03
           52641     491.407E-03
           52642     527.428E-03
           52643     631.822E-03
           52644     599.925E-03
           52645     595.643E-03
           52646     493.821E-03
           52647     537.759E-03
           52648     714.239E-03
           52649     701.624E-03
           52650     678.329E-03
           52651         2.40464
           52652         2.39968
           52653         2.39947
           52654         2.42929
           52655         2.43456
           52656         2.43485
           52657         2.37208
           52658         2.37332
           52659         2.40624
           52660         2.40664
           52661         2.40376
           52662         2.37095
           52663         2.43123
           52664         2.43376
           52665         2.41583
           52666         2.44245
           52667         2.39594
           52668         2.43599
           52669         2.43576
           52670         2.42592
           52671         4.10672
           52672         4.02965
           52673         4.10640
           52674         4.04935
           52675         3.98907
           52676         3.96409
           52677         4.09516
           52678         3.95701
           52679         4.10663
           52680         4.15557
           52681         4.07969
           52682         4.05334
           52683         4.00306
           52684         4.07910
           52685         4.16262
           52686         4.19672
           52687         4.23279
           52688         4.20461
           52689         4.12797
           52690         4.26046
           52691         7.33132
           52692         7.00747
           52693         6.98271
           52694         7.30278
           52695         7.20565
           52696         6.63558
           52697         6.42788
           52698         6.59227
           52699         6.75276
           52700         6.79570
           52701         6.78999
           52702         6.76333
           52703         6.34439
           52704         6.38507
           52705         6.85694
           52706         6.47211
           52707         6.68205
           52708         2.57594
           52709         2.58143
           52710         2.58128
           52711         2.58152
           52712         2.57522
           52713         2.57540
           52714         2.58321
           52715         2.57716
           52716         2.57965
           52717         2.58588
           52718         2.58106
           52719         2.58371
           52720         2.58754
           52721         2.58700
           52722         2.58058
           52723         2.59152
           52724         2.59242
           52725         2.59107
           52726         2.59050
           52727         2.59740
           52728         2.59316
           52729         2.59342
           52730         6.76532
           52731         6.14728
           52732         6.41535
           52733         2.58656
           52734         2.59117
           52735         2.59252
           52736         2.58790
           52737         2.59235
           52738         6.29477
           52739         5.93859
           52740         6.53217
           52741         2.78440
           52742         2.72935
           52743         2.78052
           52744         2.67678
           52745         2.64967
           52746         2.63227
           52747         2.67550
           52748         2.71176
           52749     236.200E-03
           52750     250.352E-03
           52751     246.707E-03
           52752     308.799E-03
           52753     299.243E-03
           52754     296.020E-03
           52755     466.063E-03
           52756     382.298E-03
           52757     387.384E-03
           52758     375.004E-03
           52759     469.181E-03
           52760     230.780E-03
           52761     195.211E-03
           52762     210.213E-03
           52763     188.651E-03
           52764     227.967E-03
           52765     222.573E-03
           52766     296.870E-03
           52767     253.026E-03
           52768     243.523E-03
           52769     299.837E-03
           52770     211.855E-03
           52771     226.997E-03
           52772         2.60995
           52773         2.61319
           52774         2.61354
           52775         2.61275
           52776         2.60964
           52777         2.61235
           52778         2.61580
           52779         2.61758
           52780         2.62144
           52781         2.63646
           52782         2.60220
           52783         2.60844
           52784         5.78925
           52785         5.68203
           52786         5.79802
           52787         5.91102
           52788         5.79637
           52789         5.90344
           52790         6.00633
           52791         5.47430
           52792         5.51420
           52793         5.42351
           52794         5.79247
           52795         5.70943
           52796         5.64271
           52797         5.61566
           52798         5.57115
           52799         5.61295
           52800         5.32829
           52801         5.52929
           52802         5.49893
           52803         5.30196
           52804         5.33652
           52805         5.50078
           52806         3.54650
           52807         3.46099
           52808         3.40801
           52809         3.49172
           52810         3.47374
           52811         3.45453
           52812         3.56145
           52813         3.51693
           52814         3.43641
           52815         3.52058
           52816         3.44829
           52817         3.25771
           52818         3.32028
           52819         3.29208
           52820         3.38693
           52821         3.32302
           52822         3.35169
           52823         5.58266
           52824         5.56761
           52825         5.63068
           52826         3.34035
           52827         3.27361
           52828         3.36063
           52829         3.27693
           52830         3.24282
           52831         3.27143
           52832         3.30500
           52833         2.77197
           52834         2.79368
           52835         2.78436
           52836         2.78671
           52837         3.37477
           52838         2.30237
           52839         2.47695
           52840         2.41089
           52841         2.23766
           52842         2.38028
           52843         2.47608
           52844         2.29220
           52845         2.45082
           52846         2.38654
           52847         5.96512
           52848         5.98335
           52849         2.00760
           52850         1.99421
           52851         2.14437
           52852         2.19949
           52853         2.21419
           52854         2.06249
           52855         2.07550
           52856         2.16053
           52857         2.24657
           52858         2.10728
           52859         2.07426
           52860         2.02202
           52861         3.16235
           52862         3.23166
           52863         3.21711
           52864         3.38957
           52865         3.44992
           52866         3.35871
           52867         3.41713
           52868         3.44863
           52869         3.41552
           52870         3.41057
           52871         3.35793
           52872         3.44382
           52873         3.23428
           52874         3.13766
           52875         3.18927
           52876         3.15286
           52877         3.17828
           52878         3.09735
           52879         3.23441
           52880         3.26133
           52881         3.20965
           52882         6.01051
           52883         6.17700
           52884         6.14341
           52885         6.03564
           52886         6.06921
           52887         3.08386
           52888         3.05862
           52889         3.15431
           52890         3.11164
           52891         3.23769
           52892         3.33783
           52893         3.35125
           52894         3.30748
           52895         3.13875
           52896         3.22399
           52897         3.06807
           52898         2.92426
           52899         2.85848
           52900         2.93512
           52901         2.90450
           52902         2.96984
           52903         3.00117
           52904         3.02703
           52905         3.20272
           52906         3.10345
           52907         2.92949
           52908         2.95307
           52909         2.87516
           52910         5.48686
           52911         5.42553
           52912         5.46794
           52913         5.52899
           52914         5.42305
           52915         5.34934
           52916         5.43560
           52917         5.45793
           52918         4.31980
           52919         4.00099
           52920         3.96173
           52921         4.09255
           52922         3.85334
           52923         3.86800
           52924         3.83347
           52925         3.82379
           52926     880.795E-03
           52927     695.031E-03
           52928     708.467E-03
           52929     654.336E-03
           52930     838.589E-03
           52931     541.234E-03
           52932     446.436E-03
           52933     544.895E-03
           52934     567.723E-03
           52935     665.665E-03
           52936     564.173E-03
           52937     946.493E-03
           52938     799.940E-03
           52939     850.424E-03
           52940     799.428E-03
           52941     679.444E-03
           52942     821.045E-03
           52943         2.65208
           52944         2.65331
           52945         2.65178
           52946         2.64904
           52947         2.64482
           52948         2.64699
           52949         2.65393
           52950         2.65480
           52951         2.65183
           52952         2.65153
           52953         2.64527
           52954         2.65121
           52955         2.63379
           52956         6.15086
           52957         5.86920
           52958         5.87159
           52959         5.50723
           52960         5.78414
           52961         2.65618
           52962         2.64250
           52963         2.63564
           52964         4.10169
           52965         4.23067
           52966         4.37050
           52967         4.22374
           52968         3.96928
           52969         3.98364
           52970         3.97536
           52971         3.98251
           52972         3.92897
           52973         3.99196
           52974         3.78119
           52975         3.83623
           52976         4.14854
           52977         4.30901
           52978         4.28446
           52979     40.0791E-03
           52980     49.8298E-03
           52981     28.9766E-03
           52982     29.6581E-03
           52983     55.9118E-03
           52984     47.1096E-03
           52985     11.5106E-03
           52986     10.5710E-03
           52987     10.5614E-03
           52988     11.6767E-03
           52989     12.2401E-03
           52990     11.8355E-03
           52991     11.7381E-03
           52992         2.36431
           52993         2.38680
           52994         2.37780
           52995         6.11610
           52996         6.08162
           52997         6.22453
           52998         2.35123
           52999         2.34161
           53000         2.33686
           53001         2.34902
           53002         2.35948
           53003         2.34902
           53004         2.32430
           53005         2.33209
           53006         2.31905
           53007         2.33365
           53008         2.35769
           53009         2.39400
           53010         2.39164
           53011         2.42591
           53012         2.38794
           53013         8.25629
           53014         8.01523
           53015         5.59853
           53016         5.69090
           53017         2.00712
           53018         2.00350
           53019         1.95548
           53020         2.01487
           53021         2.06224
           53022         1.86721
           53023         1.93479
           53024         1.89023
           53025         1.83433
           53026         1.87986
           53027         2.00491
           53028         1.95207
           53029         1.95622
           53030         5.36349
           53031         5.33312
           53032         5.45857
           53033         5.29008
           53034         5.32061
           53035         5.46547
           53036         5.43567
           53037         5.54965
           53038         5.58079
           53039         5.55721
           53040         5.42374
           53041         5.54982
           53042         5.51889
           53043         3.10203
           53044         3.13551
           53045         3.07743
           53046         3.12567
           53047         3.15157
           53048         3.06550
           53049         3.03474
           53050         3.08935
           53051         3.06749
           53052         3.16284
           53053         3.24435
           53054         3.18670
           53055         3.21670
           53056         3.11780
           53057         3.17405
           53058         3.21044
           53059         3.15735
           53060         3.18423
           53061     983.097E-03
           53062     941.618E-03
           53063         1.03038
           53064     961.118E-03
           53065     766.005E-03
           53066     686.089E-03
           53067     828.075E-03
           53068     880.739E-03
           53069     775.525E-03
           53070     810.386E-03
           53071     742.669E-03
           53072     864.929E-03
           53073         2.38235
           53074         2.52329
           53075         2.49349
           53076         2.64042
           53077         2.68265
           53078         2.71377
           53079         2.56567
           53080         2.93171
           53081         3.09079
           53082         2.91560
           53083         2.83775
           53084         3.01233
           53085         2.99883
           53086         2.98382
           53087         2.82407
           53088         2.82145
           53089         2.68211
           53090         2.77001
           53091         2.91802
           53092         2.78257
           53093         2.88094
           53094         2.94954
           53095         2.75189
           53096         2.81059
           53097         5.34439
           53098         5.63993
           53099         2.50561
           53100         2.64713
           53101         3.08479
           53102         3.15122
           53103         3.01273
           53104         3.22286
           53105         3.16332
           53106         3.31352
           53107         3.40378
           53108         3.45233
           53109         3.22495
           53110         3.28795
           53111         3.35992
           53112         3.22046
           53113         3.01053
           53114         3.16147
           53115         3.28149
           53116         3.55075
           53117         3.59795
           53118         3.13590
           53119         2.99495
           53120         3.05332
           53121         3.47582
           53122         3.41490
           53123         2.98876
           53124         3.45722
           53125         3.27363
           53126         2.87538
           53127         3.26432
           53128         2.72056
           53129         2.92771
           53130         2.97951
           53131         2.95718
           53132         2.90562
           53133         2.94502
           53134         3.11291
           53135         3.04994
           53136         3.03576
           53137         3.13923
           53138         5.80936
           53139         5.77522
           53140         5.91320
           53141         3.01593
           53142         3.03258
           53143         3.11704
           53144         3.09777
           53145         3.07890
           53146         3.04902
           53147         2.99121
           53148         3.68751
           53149         3.80204
           53150         3.86078
           53151         3.74487
           53152         3.66567
           53153         3.53239
           53154         3.62405
           53155         3.64867
           53156         3.36764
           53157         3.38686
           53158         3.49508
           53159         3.47462
           53160         3.33016
           53161         3.70242
           53162         3.95499
           53163         3.79454
           53164         5.08649
           53165         5.67899
           53166         5.26855
           53167         5.36838
           53168         4.77463
           53169         3.35250
           53170         3.52060
           53171         3.40157
           53172         3.27670
           53173         6.07257
           53174         6.09244
           53175         3.34104
           53176         3.44919
           53177         3.59368
           53178         3.61972
           53179         3.74184
           53180         2.82488
           53181         2.77003
           53182         2.85581
           53183         2.77026
           53184         2.82660
           53185         2.81920
           53186         2.67636
           53187         2.68355
           53188         2.66211
           53189         2.60180
           53190         2.77319
           53191         2.79973
           53192         2.75351
           53193         2.42964
           53194         2.44209
           53195         2.41547
           53196         2.42962
           53197         2.41625
           53198         2.44502
           53199         2.41108
           53200         2.44200
           53201         2.42649
           53202         2.35547
           53203         2.36688
           53204         2.38961
           53205         2.37512
           53206         2.41385
           53207         2.44219
           53208         2.42445
           53209         2.43729
           53210         5.98495
           53211         6.04782
           53212         5.99357
           53213         6.01170
           53214         5.94767
           53215         6.00129
           53216         5.95625
           53217         6.00975
           53218         5.96887
           53219         5.92856
           53220         5.88968
           53221         5.93418
           53222         5.91471
           53223         5.95343
           53224         5.91096
           53225         5.84615
           53226         5.81956
           53227         5.84926
           53228         5.90068
           53229         5.87801
           53230         5.92802
           53231         5.95116
           53232         5.95595
           53233         5.89687
           53234         6.00538
           53235         5.97936
           53236         5.95890
           53237         5.91284
           53238         5.93501
           53239         2.65431
           53240         2.64649
           53241         2.64871
           53242         2.64060
           53243         2.63394
           53244         2.63230
           53245         2.63034
           53246         2.64008
           53247         2.66743
           53248         2.66351
           53249         2.67420
           53250         2.66677
           53251         2.67039
           53252         2.66022
           53253         2.66432
           53254         2.66781
           53255         2.65985
           53256         2.66348
           53257         2.66765
           53258         2.65539
           53259         2.65414
           53260         2.66247
           53261         2.66053
           53262         2.65655
           53263         2.65265
           53264         2.65029
           53265         2.10643
           53266         2.27021
           53267         2.26993
           53268         2.26047
           53269         2.24420
           53270         2.27129
           53271         2.10707
           53272         2.24639
           53273         1.98711
           53274         1.98415
           53275         1.98552
           53276         1.98040
           53277     97.8943E-03
           53278     92.5526E-03
           53279     90.5396E-03
           53280     43.2083E-03
           53281     51.3697E-03
           53282     41.0059E-03
           53283     31.2902E-03
           53284     52.3630E-03
           53285     42.1716E-03
           53286     27.8337E-03
           53287     30.9488E-03
           53288     47.4496E-03
           53289     85.9821E-03
           53290     92.0035E-03
           53291     35.5266E-03
           53292     42.0793E-03
           53293     41.8710E-03
           53294     45.8319E-03
           53295         7.63565
           53296         7.66410
           53297         7.83376
           53298         8.13105
           53299         7.33010
           53300         7.18647
           53301         7.17672
           53302         7.17518
           53303         7.30565
           53304         7.19704
           53305         7.19845
           53306         7.20676
           53307         7.05768
           53308         7.18408
           53309         4.88476
           53310         4.86466
           53311         4.83659
           53312         4.86848
           53313         4.88853
           53314         4.91680
           53315         4.93040
           53316         4.91129
           53317         4.84900
           53318         4.86812
           53319         4.71844
           53320         4.76778
           53321         4.81592
           53322         4.92887
           53323         4.86153
           53324         4.84393
           53325         6.61340
           53326         6.74634
           53327         6.64514
           53328         6.51426
           53329         6.55996
           53330         6.75703
           53331         6.77818
           53332         6.61833
           53333         6.41213
           53334         6.46164
           53335         6.51299
           53336         6.59073
           53337         6.65392
           53338         6.51097
           53339         6.39955
           53340         6.58235
           53341         6.54824
           53342         6.00732
           53343         6.01295
           53344         6.06504
           53345         6.04864
           53346         6.04190
           53347         5.99106
           53348         5.66432
           53349         5.55722
           53350         5.60885
           53351         5.63347
           53352         5.74106
           53353         5.68828
           53354         5.63326
           53355         5.74128
           53356         5.76617
           53357     81.2557E-03
           53358     25.1336E-03
           53359     22.4717E-03
           53360     17.9542E-03
           53361         5.66749
           53362         5.60033
           53363         5.64875
           53364         5.69033
           53365         5.70849
           53366         5.56044
           53367         5.69158
           53368         5.76792
           53369         5.74968
           53370         5.75820
           53371         5.78487
           53372         5.78295
           53373         5.78544
           53374         5.78278
           53375         5.81447
           53376         5.81518
           53377         5.83174
           53378         5.76981
           53379         5.76034
           53380         5.75119
           53381         1.46908
           53382         1.39647
           53383         1.48087
           53384         1.26450
           53385         1.23917
           53386         1.31787
           53387         1.28128
           53388         1.30741
           53389         1.22713
           53390         1.32334
           53391         6.36077
           53392         6.18184
           53393         6.34786
           53394         6.26021
           53395         6.43994
           53396         6.27609
           53397         1.37107
           53398         1.35916
           53399         5.15631
           53400         5.13479
           53401         5.13949
           53402         5.10598
           53403         5.12688
           53404         5.17604
           53405         5.17062
           53406         5.10558
           53407         5.13892
           53408         5.16078
           53409         5.13023
           53410         3.55307
           53411         3.62528
           53412         3.58693
           53413         3.60782
           53414         3.53363
           53415         3.58582
           53416         3.73199
           53417         3.67017
           53418         3.54444
           53419         3.60536
           53420         3.68678
           53421         3.73257
           53422         3.65785
           53423         3.74186
           53424         3.63513
           53425         3.70584
           53426         3.79068
           53427         3.79724
           53428         3.71507
           53429         3.77079
           53430         3.82961
           53431         3.76226
           53432         3.81752
           53433         3.80075
           53434         5.34990
           53435         5.41050
           53436         5.37183
           53437         5.48625
           53438         5.54164
           53439         5.50800
           53440         5.51816
           53441         5.46752
           53442         5.49932
           53443         5.51981
           53444         5.49954
           53445         5.55026
           53446         5.51298
           53447         7.74155
           53448         8.13952
           53449         8.06112
           53450         7.98760
           53451     712.318E-03
           53452     850.050E-03
           53453     648.676E-03
           53454     494.469E-03
           53455     576.823E-03
           53456     733.675E-03
           53457     633.121E-03
           53458     855.169E-03
           53459     611.937E-03
           53460         1.30500
           53461     946.727E-03
           53462     922.952E-03
           53463     951.681E-03
           53464     972.936E-03
           53465     749.118E-03
           53466     723.491E-03
           53467     698.204E-03
           53468         5.16070
           53469         5.17542
           53470         5.09487
           53471         5.24326
           53472         5.14735
           53473         5.13420
           53474         5.12936
           53475         4.72865
           53476         4.76904
           53477         4.79355
           53478         5.15072
           53479         5.28845
           53480         4.87764
           53481         4.78664
           53482         4.95026
           53483         4.82182
           53484         11.8133
           53485         11.3684
           53486         10.9490
           53487         10.1218
           53488         9.74030
           53489         11.2448
           53490         7.72492
           53491         8.22160
           53492         8.65626
           53493         8.10650
           53494         9.13255
           53495         8.49149
           53496         9.06282
           53497         9.34508
           53498         9.43660
           53499         4.50098
           53500         4.50152
           53501         4.47439
           53502         4.50800
           53503         4.64138
           53504         4.55871
           53505         9.27972
           53506         8.65812
           53507         9.17001
           53508         8.97534
           53509         9.60486
           53510         9.09356
           53511         4.27254
           53512         4.37030
           53513         4.32623
           53514         4.38459
           53515         4.28710
           53516         4.21890
           53517         4.11201
           53518         4.26212
           53519         4.36900
           53520         4.21424
           53521         4.49799
           53522         4.45846
           53523         4.40457
           53524         4.24990
           53525         4.28001
           53526         8.70196
           53527         8.65510
           53528         8.70168
           53529         8.91425
           53530         8.95644
           53531         8.91236
           53532         8.78272
           53533         8.91152
           53534         8.47784
           53535         8.77815
           53536         8.75726
           53537         8.75610
           53538         8.97516
           53539         8.72655
           53540         8.72440
           53541         8.51495
           53542         8.13241
           53543         8.08544
           53544         7.73809
           53545         7.86266
           53546         7.60045
           53547         7.76204
           53548         9.09118
           53549         8.91094
           53550         9.13462
           53551         9.13906
           53552         7.60400
           53553         7.53501
           53554         7.40672
           53555         7.62705
           53556         7.69799
           53557         7.82417
           53558         8.00097
           53559         7.90461
           53560         8.20891
           53561         8.31075
           53562         8.22150
           53563         8.35801
           53564         7.85772
           53565         8.31603
           53566         8.17801
           53567         8.70208
           53568         7.70971
           53569         7.40471
           53570         7.42492
           53571         7.70962
           53572         7.68761
           53573         7.96387
           53574         7.98231
           53575         7.96693
           53576         3.30838
           53577         3.27215
           53578         3.40974
           53579         3.03608
           53580         3.12591
           53581         3.26569
           53582         3.24118
           53583         3.24344
           53584         3.31145
           53585         3.44295
           53586         3.17168
           53587         4.39806
           53588         4.37531
           53589         4.47043
           53590         4.43749
           53591         4.34268
           53592         4.26634
           53593         4.35850
           53594         4.32073
           53595         4.36033
           53596         4.30271
           53597         4.39633
           53598         4.42554
           53599         4.36888
           53600         4.29331
           53601         4.70030
           53602         4.74907
           53603         4.61114
           53604         4.66610
           53605         4.61655
           53606         4.75676
           53607         4.58036
           53608         4.63419
           53609         4.54427
           53610         4.48879
           53611         4.52465
           53612     780.619E-03
           53613     806.958E-03
           53614     738.036E-03
           53615     716.440E-03
           53616     689.893E-03
           53617     758.101E-03
           53618     770.772E-03
           53619     838.667E-03
           53620     808.575E-03
           53621     739.722E-03
           53622     797.627E-03
           53623     841.125E-03
           53624     798.415E-03
           53625     688.743E-03
           53626     749.020E-03
           53627     699.602E-03
           53628     434.801E-03
           53629     329.652E-03
           53630     360.994E-03
           53631     322.646E-03
           53632     392.503E-03
           53633     362.366E-03
           53634     370.039E-03
           53635     482.975E-03
           53636     400.539E-03
           53637     254.958E-03
           53638     323.597E-03
           53639         3.11743
           53640         3.15925
           53641         3.23144
           53642         3.41847
           53643         3.30443
           53644         3.29209
           53645         3.12234
           53646         3.18008
           53647         2.93190
           53648         2.84490
           53649         2.90000
           53650         2.85429
           53651         2.88238
           53652         3.07108
           53653         3.01517
           53654         2.97872
           53655         3.05491
           53656         5.52951
           53657         5.50985
           53658         5.52529
           53659         5.55119
           53660         5.54564
           53661         5.46508
           53662         5.48743
           53663         5.47658
           53664         5.52246
           53665         5.49914
           53666         5.50138
           53667         5.46776
           53668         5.51250
           53669         5.59456
           53670         5.68660
           53671         5.45498
           53672         5.46296
           53673         5.50954
           53674         5.47542
           53675         2.45507
           53676         2.43973
           53677         2.46008
           53678         5.72767
           53679         5.63176
           53680         5.72635
           53681         2.41783
           53682         2.40836
           53683         2.42751
           53684         2.42379
           53685         2.45740
           53686         2.43605
           53687         2.45092
           53688         2.44886
           53689         2.45362
           53690         2.44791
           53691         2.43669
           53692         2.43199
           53693         4.07105
           53694         3.71202
           53695         3.39797
           53696         3.16990
           53697         3.49450
           53698         3.81785
           53699         3.85099
           53700         4.52580
           53701         5.29874
           53702         5.24710
           53703         5.45970
           53704         5.31127
           53705         5.36529
           53706         5.16071
           53707         5.29663
           53708         5.08400
           53709         5.10093
           53710         5.03055
           53711         4.86439
           53712         5.02905
           53713         5.17780
           53714         5.33594
           53715         5.43100
           53716         5.67009
           53717         6.16380
           53718         5.44082
           53719         5.35626
           53720         5.39334
           53721         5.61816
           53722         5.37810
           53723         5.46578
           53724         5.85588
           53725         5.88274
           53726         5.74006
           53727         5.79247
           53728         5.76336
           53729         5.90718
           53730         5.81917
           53731         5.98727
           53732         5.86136
           53733         5.88277
           53734         5.71424
           53735         5.83970
           53736         5.62884
           53737         5.45014
           53738         5.53021
           53739         5.52943
           53740         5.63115
           53741         5.99509
           53742         5.82662
           53743         5.84707
           53744         6.00794
           53745         5.97519
           53746         4.53099
           53747         4.55442
           53748         4.64439
           53749         4.54722
           53750         4.52558
           53751         4.56577
           53752         4.69804
           53753         4.59304
           53754         4.58948
           53755         4.45249
           53756         4.56282
           53757         5.03831
           53758         6.81499
           53759         6.64791
           53760         6.69512
           53761         7.02214
           53762         7.14368
           53763     186.526E-03
           53764     188.494E-03
           53765     246.428E-03
           53766     179.762E-03
           53767     244.536E-03
           53768     523.019E-03
           53769     515.356E-03
           53770     406.175E-03
           53771     227.082E-03
           53772     229.316E-03
           53773         5.84928
           53774         5.82085
           53775         5.84841
           53776     397.309E-03
           53777         3.81542
           53778         3.84364
           53779         3.84157
           53780         3.69012
           53781         3.77533
           53782         3.76953
           53783         3.80989
           53784         3.99786
           53785         3.87825
           53786         3.96737
           53787         3.99342
           53788         3.90380
           53789         4.02600
           53790         4.12152
           53791         5.34974
           53792         5.30748
           53793         5.33142
           53794         5.40356
           53795         5.42910
           53796         5.37994
           53797         5.45258
           53798         5.42844
           53799         5.47516
           53800         5.56317
           53801         5.50867
           53802         5.57233
           53803         5.96065
           53804         5.99221
           53805         6.11125
           53806         6.12963
           53807         6.09327
           53808         5.35634
           53809         5.33020
           53810         5.34907
           53811         5.37584
           53812         5.40037
           53813         5.37781
           53814         5.33088
           53815         5.35558
           53816         5.37043
           53817         5.36429
           53818         5.33688
           53819         5.32396
           53820         5.07997
           53821         5.10645
           53822         5.09594
           53823         5.10353
           53824         5.07209
           53825         5.06288
           53826         5.10786
           53827         5.03996
           53828         5.10842
           53829         5.12746
           53830         5.16158
           53831         5.06301
           53832         1.01014
           53833         1.13437
           53834         1.10767
           53835     818.740E-03
           53836     811.700E-03
           53837     897.476E-03
           53838     908.422E-03
           53839     791.220E-03
           53840     727.361E-03
           53841     756.745E-03
           53842     996.228E-03
           53843     940.410E-03
           53844     957.198E-03
           53845     922.409E-03
           53846     877.156E-03
           53847     993.386E-03
           53848     921.810E-03
           53849     907.270E-03
           53850         2.85497
           53851         2.68498
           53852         5.87849
           53853         5.81981
           53854         5.82646
           53855         2.84338
           53856         2.76232
           53857         2.90854
           53858         2.99496
           53859         3.08223
           53860         3.16549
           53861         3.08515
           53862         2.99395
           53863         3.24906
           53864         5.51927
           53865         5.44883
           53866         3.09810
           53867         3.37809
           53868         2.59696
           53869         2.59494
           53870         2.58958
           53871         2.59353
           53872         2.59528
           53873         2.58076
           53874         2.58356
           53875         2.58385
           53876         2.59040
           53877         2.58086
           53878         2.57742
           53879         2.57127
           53880         2.57988
           53881         2.58925
           53882         2.58940
           53883         2.59335
           53884         2.59445
           53885         2.59617
           53886         2.59289
           53887         2.59162
           53888         2.59868
           53889         2.59852
           53890         2.59559
           53891         2.60029
           53892         2.58294
           53893         2.58016
           53894         2.58793
           53895         2.59059
           53896         2.58260
           53897         2.60289
           53898         2.60011
           53899         2.58289
           53900         2.57620
           53901         2.58257
           53902         2.59447
           53903         2.59505
           53904     276.239E-03
           53905     232.562E-03
           53906     227.932E-03
           53907     231.768E-03
           53908     276.315E-03
           53909     280.459E-03
           53910     355.647E-03
           53911     333.456E-03
           53912     343.616E-03
           53913     406.752E-03
           53914     366.438E-03
           53915     317.135E-03
           53916     374.686E-03
           53917     337.865E-03
           53918     312.586E-03
           53919     218.044E-03
           53920     276.804E-03
           53921     241.256E-03
           53922     298.427E-03
           53923     370.538E-03
           53924     319.934E-03
           53925     267.781E-03
           53926         3.56614
           53927         3.52934
           53928         3.57364
           53929         3.61055
           53930         3.57011
           53931         3.47648
           53932         3.51577
           53933         3.37597
           53934         3.37978
           53935         3.45633
           53936         3.40237
           53937         3.36281
           53938         3.38607
           53939         3.32982
           53940         3.47273
           53941         3.50796
           53942         6.76100
           53943         6.44168
           53944         6.34462
           53945         6.54327
           53946         6.55007
           53947         6.44950
           53948         6.87583
           53949         6.65685
           53950         6.55152
           53951         6.67334
           53952         6.62508
           53953         6.84786
           53954         6.35442
           53955         6.56066
           53956         6.66397
           53957         6.48055
           53958         6.55468
           53959         6.73505
           53960         6.43986
           53961         5.43697
           53962         5.43776
           53963         5.42112
           53964         5.42042
           53965         5.41103
           53966         5.29551
           53967         5.21404
           53968         5.41649
           53969         5.35307
           53970         5.38899
           53971         5.50326
           53972         5.47802
           53973         5.38904
           53974         5.35182
           53975         1.87249
           53976         1.87344
           53977         1.89873
           53978         1.87858
           53979         2.00001
           53980         2.03715
           53981         1.99792
           53982         2.02794
           53983         5.15341
           53984         5.10295
           53985         5.13964
           53986         5.04312
           53987         5.08804
           53988         5.04946
           53989         5.12679
           53990         5.04227
           53991         5.14762
           53992         5.08197
           53993         5.21083
           53994         5.14631
           53995         5.16629
           53996         5.29290
           53997         5.18687
           53998         5.15941
           53999         5.52628
           54000         5.49987
           54001         5.48562
           54002         5.44360
           54003         5.48220
           54004         5.18343
           54005         5.25199
           54006         4.40863
           54007         4.42104
           54008         4.45656
           54009         4.41574
           54010         4.38015
           54011         4.50037
           54012         4.48691
           54013         4.45914
           54014         4.52052
           54015         4.42624
           54016         5.77549
           54017         5.84204
           54018         5.92279
           54019         5.82309
           54020         5.68177
           54021         6.12657
           54022         6.14990
           54023         6.06100
           54024         5.97795
           54025         6.22033
           54026         6.06332
           54027         5.70064
           54028         5.65220
           54029         5.78949
           54030         5.77191
           54031         5.71233
           54032         5.77557
           54033         5.70105
           54034         5.70579
           54035         5.77977
           54036         5.83011
           54037         5.82704
           54038         5.92904
           54039         6.00286
           54040         5.84123
           54041         4.02120
           54042         4.10260
           54043         4.08832
           54044         4.14554
           54045         4.06511
           54046         4.07539
           54047         4.00486
           54048         3.91317
           54049         4.00205
           54050         4.09923
           54051         4.18239
           54052         4.10837
           54053         4.02620
           54054         4.11641
           54055         3.90934
           54056         3.89282
           54057         3.88572
           54058         4.01771
           54059         5.12593
           54060         5.09562
           54061         5.04666
           54062         5.06965
           54063         5.10281
           54064         5.15381
           54065         5.14165
           54066         5.12823
           54067         5.11636
           54068         5.18502
           54069         5.19880
           54070         5.21073
           54071         5.20349
           54072         5.18201
           54073         5.15867
           54074         4.99732
           54075         5.06662
           54076         5.04071
           54077         5.10501
           54078         5.03546
           54079         5.08044
           54080         5.11739
           54081         5.20804
           54082         5.19719
           54083         5.17180
           54084         5.49238
           54085         5.61755
           54086         5.66524
           54087         5.77283
           54088         2.65320
           54089         2.65669
           54090         2.65334
           54091         5.75106
           54092         5.66066
           54093         5.79304
           54094         5.75576
           54095         5.85058
           54096         5.71735
           54097         2.65096
           54098         2.65062
           54099         2.65355
           54100         2.65693
           54101         2.65659
           54102         2.65958
           54103         2.66136
           54104         2.66154
           54105         2.65885
           54106         2.65119
           54107         2.65357
           54108         2.66437
           54109         2.66434
           54110         2.66664
           54111         2.66110
           54112         2.65585
           54113     616.200E-03
           54114     617.510E-03
           54115     784.025E-03
           54116     709.017E-03
           54117     888.171E-03
           54118     926.228E-03
           54119     982.743E-03
           54120         1.09054
           54121         1.04206
           54122     820.326E-03
           54123     762.552E-03
           54124     856.125E-03
           54125     841.202E-03
           54126     856.476E-03
           54127     870.224E-03
           54128     981.400E-03
           54129     951.674E-03
           54130     746.909E-03
           54131     839.928E-03
           54132     823.151E-03
           54133     950.785E-03
           54134     981.435E-03
           54135     998.163E-03
           54136     816.985E-03
           54137     719.252E-03
           54138     761.282E-03
           54139         2.52370
           54140         2.53577
           54141         2.53022
           54142         2.54435
           54143         2.53188
           54144         2.53755
           54145         2.52904
           54146         2.52619
           54147         2.52201
           54148         2.52903
           54149         2.52722
           54150         2.50962
           54151         2.50502
           54152         2.49697
           54153         2.49015
           54154         2.49252
           54155         2.50873
           54156         2.51849
           54157         2.35357
           54158         2.38459
           54159         2.33975
           54160         2.34714
           54161         2.31721
           54162         2.36021
           54163         2.28274
           54164         2.28984
           54165         5.97799
           54166         2.33838
           54167         2.31696
           54168         2.31105
           54169         6.08944
           54170         5.97828
           54171         5.90718
           54172         5.92811
           54173         6.11143
           54174         5.80224
           54175         5.50440
           54176         5.46448
           54177         5.46902
           54178         5.51372
           54179         5.54805
           54180         5.55564
           54181         5.55825
           54182         5.53139
           54183         5.37098
           54184         5.31163
           54185         5.38907
           54186         5.41852
           54187         5.38476
           54188         4.47521
           54189         4.41892
           54190         4.53322
           54191         4.59126
           54192         4.50565
           54193         4.72996
           54194         4.61731
           54195         4.77305
           54196         4.74471
           54197         4.70218
           54198         4.40360
           54199         4.52348
           54200         6.45447
           54201         6.27923
           54202         6.12083
           54203         6.22832
           54204         6.55146
           54205         6.60115
           54206         6.96093
           54207         6.87181
           54208         6.82399
           54209         6.61016
           54210         7.00843
           54211         6.90400
           54212         6.72402
           54213         7.14791
           54214         6.81899
           54215         6.53132
           54216         6.83476
           54217         6.63313
           54218         2.15323
           54219         2.17276
           54220         2.20147
           54221         2.21447
           54222         2.25269
           54223         2.26098
           54224         2.24939
           54225         2.20961
           54226         2.20702
           54227         2.24204
           54228         2.20256
           54229         2.28440
           54230         2.31166
           54231         2.27046
           54232         2.27699
           54233         2.29104
           54234         2.26824
           54235         2.29083
           54236         2.26912
           54237         2.27190
           54238         2.29364
           54239         2.27189
           54240         4.86590
           54241         4.85044
           54242         4.89925
           54243         4.76527
           54244         4.64059
           54245         4.68216
           54246         4.75522
           54247         4.80713
           54248         4.76673
           54249         4.69315
           54250         4.62197
           54251         4.50082
           54252         4.59759
           54253         4.54378
           54254         4.66037
           54255         4.56288
           54256         4.84382
           54257         4.79612
           54258         4.75675
           54259         4.67371
           54260         4.72382
           54261         4.78712
           54262         4.89137
           54263         4.88048
           54264         4.74517
           54265         4.65043
           54266         4.73432
           54267         4.71126
           54268         4.55518
           54269         4.63826
           54270         4.64904
           54271         4.60704
           54272         4.36743
           54273         4.41568
           54274         4.49195
           54275         4.45499
           54276         4.51731
           54277         4.46133
           54278         4.58203
           54279         1.77786
           54280         1.62395
           54281         1.63086
           54282         1.65358
           54283         1.60644
           54284         1.61301
           54285         1.46957
           54286         1.56983
           54287         1.22307
           54288         1.21105
           54289         1.27731
           54290         1.14601
           54291         1.09857
           54292         1.08690
           54293         1.11140
           54294         1.58672
           54295         1.28431
           54296         1.39454
           54297     306.369E-03
           54298     317.523E-03
           54299     355.059E-03
           54300     378.649E-03
           54301     334.019E-03
           54302     401.077E-03
           54303     517.938E-03
           54304     336.335E-03
           54305     363.127E-03
           54306     312.522E-03
           54307         7.25031
           54308         7.18364
           54309         7.36100
           54310         7.20813
           54311         7.29810
           54312         7.41705
           54313         7.24930
           54314         7.29804
           54315         7.06738
           54316         7.22094
           54317         7.34817
           54318         6.62817
           54319         6.86627
           54320         6.80387
           54321         6.72105
           54322         11.1175
           54323         10.7748
           54324         10.8408
           54325         9.42034
           54326         8.59480
           54327         7.74264
           54328         10.6605
           54329         11.0740
           54330         9.90530
           54331         9.15192
           54332         8.20725
           54333         6.61611
           54334         6.58863
           54335         6.77471
           54336         6.58858
           54337         6.61649
           54338         6.40314
           54339         6.48170
           54340         6.36581
           54341         6.57126
           54342     958.035E-03
           54343     989.715E-03
           54344     969.352E-03
           54345     816.284E-03
           54346     898.407E-03
           54347     918.097E-03
           54348         1.07452
           54349     870.429E-03
           54350     891.881E-03
           54351     814.803E-03
           54352     739.242E-03
           54353     620.756E-03
           54354     544.404E-03
           54355     585.617E-03
           54356     580.851E-03
           54357     535.019E-03
           54358     479.057E-03
           54359     540.167E-03
           54360     584.496E-03
           54361     451.861E-03
           54362     17.8880E-03
           54363     16.8830E-03
           54364     10.8671E-03
           54365     13.9556E-03
           54366     14.3787E-03
           54367     19.0402E-03
           54368     8.06957E-03
           54369     7.11788E-03
           54370     16.1435E-03
           54371     32.8391E-03
           54372     29.6745E-03
           54373     30.1524E-03
           54374     14.8151E-03
           54375     19.2855E-03
           54376     14.2713E-03
           54377     7.26251E-03
           54378     8.72317E-03
           54379         2.42767
           54380         2.41703
           54381         2.41229
           54382         2.40894
           54383         2.42048
           54384         2.42617
           54385         2.38950
           54386         2.39770
           54387         2.41413
           54388         2.39580
           54389         2.40590
           54390         2.39160
           54391         2.38393
           54392         2.37278
           54393         2.38900
           54394         2.39541
           54395         2.38435
           54396         2.37229
           54397         2.36478
           54398         2.67079
           54399         2.67590
           54400         2.42497
           54401         2.41534
           54402         4.47155
           54403         4.41452
           54404         4.54045
           54405         2.37139
           54406         2.38128
           54407         2.39582
           54408         2.38363
           54409         2.66532
           54410         2.66645
           54411         2.66568
           54412         2.66519
           54413         2.66629
           54414         2.66420
           54415         2.66527
           54416         2.67220
           54417         2.67014
           54418         2.67103
           54419         2.67443
           54420         2.67223
           54421         2.67153
           54422         2.66855
           54423         2.67049
           54424         5.88534
           54425         5.85476
           54426         5.77952
           54427         5.80719
           54428         5.88288
           54429         2.67021
           54430         2.66778
           54431         2.66843
           54432         2.66822
           54433         2.66774
           54434         5.24958
           54435         5.31432
           54436         5.30479
           54437         5.27610
           54438         5.26461
           54439         5.23712
           54440         5.35340
           54441         5.38231
           54442         5.42129
           54443         5.39610
           54444         5.35875
           54445         5.41722
           54446         5.40587
           54447         5.43487
           54448         5.34077
           54449         2.53913
           54450         2.62662
           54451         2.72384
           54452         2.59887
           54453         6.23164
           54454         6.22313
           54455         6.15265
           54456         6.35692
           54457         6.36535
           54458         6.43530
           54459         6.05991
           54460         5.98328
           54461         5.97814
           54462         7.11237
           54463         7.00484
           54464         6.78202
           54465         6.88829
           54466         7.00403
           54467         6.73720
           54468         6.73865
           54469         6.63693
           54470         6.59316
           54471         6.63525
           54472         6.72800
           54473         6.52309
           54474         6.37630
           54475         6.57562
           54476         6.60675
           54477         6.09055
           54478         6.08836
           54479         6.16251
           54480         6.16842
           54481         6.17586
           54482         6.27483
           54483         6.38191
           54484         6.45303
           54485         6.25875
           54486         6.29535
           54487         5.50270
           54488         5.52344
           54489         5.50102
           54490         5.36554
           54491         5.38353
           54492         5.44719
           54493         5.50160
           54494         5.45731
           54495         5.45051
           54496         5.49419
           54497         5.46799
           54498         5.47220
           54499         5.41605
           54500         5.44147
           54501         5.43672
           54502         5.44931
           54503         5.41208
           54504         5.45026
           54505         5.41793
           54506         5.48158
           54507         5.77119
           54508         5.78681
           54509         5.93151
           54510         5.97704
           54511         5.95271
           54512         5.80664
           54513         2.64445
           54514         2.62946
           54515         2.61169
           54516         2.63135
           54517         2.64565
           54518         2.66516
           54519         6.17120
           54520         6.13540
           54521         6.18381
           54522         5.87661
           54523         5.77419
           54524         5.80467
           54525         5.97241
           54526         5.93574
           54527         5.73497
           54528         5.58911
           54529         5.57384
           54530         5.65546
           54531         5.83245
           54532         2.44027
           54533         2.47742
           54534         2.47628
           54535         2.44795
           54536         2.43834
           54537         2.43387
           54538         2.44061
           54539         2.40203
           54540         2.40276
           54541         2.38804
           54542         2.41349
           54543         2.42340
           54544         2.42141
           54545     947.058E-03
           54546         1.19026
           54547         1.00628
           54548     773.695E-03
           54549     971.328E-03
           54550     521.531E-03
           54551     360.387E-03
           54552     561.284E-03
           54553     525.340E-03
           54554     669.256E-03
           54555     693.427E-03
           54556     651.187E-03
           54557     567.950E-03
           54558     450.211E-03
           54559     564.509E-03
           54560     607.696E-03
           54561     552.232E-03
           54562     350.961E-03
           54563     514.789E-03
           54564     430.491E-03
           54565         3.70747
           54566         3.70083
           54567         3.59879
           54568         3.64700
           54569         3.87004
           54570         4.01687
           54571         4.07613
           54572         4.12940
           54573         3.70205
           54574         6.32486
           54575         6.20837
           54576         6.00237
           54577         5.94847
           54578         6.06560
           54579         5.20402
           54580         5.28195
           54581         5.28749
           54582         5.34951
           54583         5.34944
           54584         5.39456
           54585         5.30495
           54586         5.26707
           54587         5.31197
           54588         5.26707
           54589         5.22792
           54590         5.51921
           54591         5.41780
           54592         5.44488
           54593         5.41546
           54594         5.58093
           54595         5.50499
           54596         5.35075
           54597         2.66479
           54598         2.43398
           54599         2.16448
           54600         1.86439
           54601         2.11364
           54602         2.36668
           54603         2.07826
           54604         1.83699
           54605         2.37216
           54606         2.66743
           54607         2.32036
           54608         2.47857
           54609         2.78536
           54610         2.65717
           54611         2.96498
           54612         2.74903
           54613         2.65628
           54614         2.65445
           54615         2.65360
           54616         2.65660
           54617         2.64998
           54618         2.64954
           54619         2.65123
           54620         2.65511
           54621         2.64131
           54622         2.64126
           54623         2.63875
           54624         2.63317
           54625         2.64603
           54626         2.64743
           54627         2.65214
           54628         2.65193
           54629         5.45362
           54630         5.39506
           54631         5.45792
           54632         5.38674
           54633         5.44922
           54634         5.38827
           54635         5.50663
           54636         5.44591
           54637         5.43866
           54638         5.46035
           54639         5.52320
           54640         5.46173
           54641         2.19763
           54642         2.23176
           54643         2.19964
           54644         2.22427
           54645         2.16431
           54646         2.28523
           54647         2.29409
           54648         2.26626
           54649         2.31768
           54650         2.30848
           54651         2.33676
           54652         2.25635
           54653         2.24439
           54654         2.27264
           54655         2.28491
           54656         2.29455
           54657         2.28451
           54658         2.26394
           54659         2.24763
           54660         2.25982
           54661         2.27564
           54662         2.66829
           54663         2.66706
           54664         2.73107
           54665         2.73317
           54666         2.71590
           54667         2.74700
           54668         2.74447
           54669         2.83421
           54670         2.71080
           54671         2.77493
           54672         2.80971
           54673         2.70534
           54674         2.72842
           54675         2.72037
           54676         7.60132
           54677         7.00100
           54678         6.82822
           54679         6.99586
           54680         7.31478
           54681         7.15262
           54682         7.38393
           54683         7.54019
           54684         7.35539
           54685         7.19050
           54686         7.02420
           54687         6.93781
           54688         6.91974
           54689         6.69965
           54690         6.91034
           54691         6.80914
           54692         6.97365
           54693         6.84703
           54694         2.17755
           54695         2.22341
           54696         1.95448
           54697         2.21318
           54698         2.10253
           54699         3.02216
           54700         3.06480
           54701         3.01819
           54702         3.03756
           54703         2.99311
           54704         2.82581
           54705         2.79826
           54706         2.86224
           54707         2.80131
           54708         2.85120
           54709         2.81491
           54710         2.89215
           54711         2.85962
           54712         2.92305
           54713     412.526E-03
           54714     369.421E-03
           54715     405.646E-03
           54716     416.875E-03
           54717     434.179E-03
           54718     383.520E-03
           54719     438.215E-03
           54720     419.266E-03
           54721     497.734E-03
           54722     460.435E-03
           54723     371.078E-03
           54724     433.148E-03
           54725     493.607E-03
           54726     377.679E-03
           54727     362.861E-03
           54728     397.646E-03
           54729         3.74126
           54730         3.94056
           54731         3.91038
           54732         3.90564
           54733         3.93433
           54734         3.45084
           54735         3.38593
           54736         3.57581
           54737         3.38007
           54738         3.49784
           54739         3.64333
           54740         3.45453
           54741         3.50368
           54742         5.38672
           54743         5.30707
           54744         5.38878
           54745         5.31287
           54746         5.39435
           54747         5.31148
           54748         5.45507
           54749         5.37708
           54750         5.46874
           54751         5.50271
           54752         5.49685
           54753         5.55390
           54754         5.52288
           54755         5.52605
           54756         5.51512
           54757         5.54684
           54758         5.47925
           54759         5.44504
           54760         5.49515
           54761         2.54703
           54762         2.71877
           54763         2.79315
           54764         2.77854
           54765         6.25905
           54766         6.37058
           54767         6.22067
           54768         6.16091
           54769         6.05591
           54770         5.98712
           54771         6.09394
           54772         5.83626
           54773         5.72779
           54774         5.97051
           54775         2.49351
           54776         1.71576
           54777         1.71675
           54778         2.34143
           54779         2.43570
           54780         2.63279
           54781         2.63819
           54782         2.75564
           54783         2.75244
           54784         2.81991
           54785         5.26787
           54786         5.26826
           54787         5.25634
           54788         5.29171
           54789         5.29044
           54790         5.23653
           54791         5.23511
           54792         5.26985
           54793         5.30408
           54794         5.28102
           54795         5.30544
           54796         5.23112
           54797         5.23073
           54798         5.24076
           54799         5.18806
           54800         5.20947
           54801         5.18441
           54802         3.00020
           54803         2.92968
           54804         2.90540
           54805         2.91397
           54806         2.92448
           54807         2.97244
           54808         2.94937
           54809         2.93291
           54810         2.85292
           54811         2.83281
           54812         2.83353
           54813         2.98186
           54814         4.25864
           54815         4.38229
           54816         4.41080
           54817         4.39401
           54818         4.30693
           54819         4.53384
           54820         4.04792
           54821         4.04178
           54822         4.16550
           54823         4.06375
           54824         4.00516
           54825         3.99162
           54826         4.23305
           54827         4.18933
           54828         4.20671
           54829         5.63363
           54830         5.62280
           54831         5.63452
           54832         5.64949
           54833         5.66936
           54834         5.65412
           54835         5.66231
           54836         5.65976
           54837         5.63555
           54838         5.64736
           54839         5.62872
           54840         5.61338
           54841         5.63524
           54842         5.64304
           54843         5.62804
           54844         5.26436
           54845         5.19763
           54846         5.41695
           54847         5.38435
           54848         5.45182
           54849         5.05631
           54850         4.79017
           54851         5.09612
           54852         5.06143
           54853         2.82576
           54854         2.90876
           54855         2.90312
           54856         2.93594
           54857         2.85469
           54858         2.85849
           54859         2.98522
           54860         2.98079
           54861         3.01141
           54862         2.82254
           54863         2.80343
           54864         2.80018
           54865         2.83185
           54866         2.85385
           54867         2.84434
           54868         2.85477
           54869         2.83008
           54870         2.78565
           54871         2.80784
           54872         2.75150
           54873         2.69836
           54874         2.76741
           54875         2.73046
           54876         2.78504
           54877         2.71399
           54878         2.75613
           54879         2.77103
           54880     892.954E-03
           54881     652.303E-03
           54882         1.05989
           54883         1.22709
           54884         1.48986
           54885         1.04768
           54886         1.24137
           54887     754.751E-03
           54888     815.754E-03
           54889     650.378E-03
           54890         1.13834
           54891         1.06916
           54892         1.94236
           54893         2.15524
           54894         2.84629
           54895         2.61746
           54896         2.17177
           54897         1.82959
           54898         1.44017
           54899         1.61967
           54900         2.01372
           54901         1.69027
           54902         1.61719
           54903         2.00154
           54904         5.43454
           54905         5.43160
           54906         5.47719
           54907     987.970E-03
           54908         1.18292
           54909         1.35374
           54910         1.90718
           54911         1.79209
           54912         1.42126
           54913         1.30580
           54914         1.50944
           54915         1.79591
           54916         1.60016
           54917         4.90464
           54918         4.85470
           54919         4.80872
           54920         4.75983
           54921         6.65462
           54922         6.74807
           54923         6.84516
           54924         5.13959
           54925         5.11265
           54926         5.12498
           54927         5.04140
           54928         5.05636
           54929         5.14975
           54930         5.17110
           54931         5.07247
           54932         5.06673
           54933         5.15090
           54934         5.01181
           54935         4.95732
           54936         5.01012
           54937         4.91692
           54938         8.28820
           54939         8.44896
           54940         8.48979
           54941         8.29247
           54942         8.35699
           54943         8.53406
           54944         8.39120
           54945         7.72440
           54946         8.29497
           54947         8.48961
           54948         8.44914
           54949         6.70076
           54950         6.48047
           54951         6.57631
           54952         6.46962
           54953         6.67680
           54954         6.58212
           54955         7.06178
           54956         7.02138
           54957         7.11119
           54958         6.90173
           54959         7.16621
           54960         6.67537
           54961         6.45678
           54962         6.38982
           54963         6.61245
           54964         6.48079
           54965         6.87608
           54966         6.85015
           54967         6.78354
           54968         6.57698
           54969         6.67246
           54970         6.55071
           54971         6.75094
           54972         6.62236
           54973         2.27632
           54974         2.27145
           54975         2.33426
           54976         2.34238
           54977         2.35336
           54978         2.29474
           54979         2.28153
           54980         2.30755
           54981         2.22866
           54982         2.19326
           54983         2.20175
           54984         1.60460
           54985         1.98679
           54986         1.87166
           54987         1.69024
           54988         1.86072
           54989         2.20542
           54990         2.14438
           54991         2.08498
           54992         2.06347
           54993         1.99069
           54994         2.11040
           54995         1.78862
           54996         1.82591
           54997         1.80881
           54998         1.72203
           54999         1.74532
           55000         1.76704
           55001         1.78739
           55002         1.74238
           55003         1.73833
           55004         1.81773
           55005         1.84608
           55006         1.95626
           55007         1.97286
           55008         1.95909
           55009         1.89816
           55010         3.56456
           55011         3.61031
           55012         3.49075
           55013         3.49949
           55014         3.44877
           55015         3.53448
           55016         3.64044
           55017         3.48928
           55018         3.43229
           55019         3.45368
           55020         3.95003
           55021         3.89953
           55022         3.98216
           55023         3.47669
           55024         3.52788
           55025         3.53099
           55026         3.62296
           55027         5.92113
           55028         7.28253
           55029         6.89194
           55030         6.34954
           55031         6.40913
           55032         6.56508
           55033         6.22689
           55034         6.14226
           55035         6.02068
           55036         6.75864
           55037         6.93689
           55038         6.82456
           55039         6.47597
           55040         6.53933
           55041         6.65137
           55042         6.33478
           55043         5.28986
           55044         5.29940
           55045         5.48209
           55046         5.60986
           55047         5.65224
           55048         5.53598
           55049         5.25653
           55050         5.24931
           55051         5.32219
           55052         5.19379
           55053         4.99392
           55054         4.99695
           55055         5.12229
           55056         5.12137
           55057         5.21195
           55058         5.17117
           55059         5.17192
           55060         5.62024
           55061         5.59481
           55062         4.99832
           55063         5.04590
           55064         5.07881
           55065         5.19410
           55066         5.15366
           55067         5.12363
           55068         5.19541
           55069         5.11876
           55070         5.18232
           55071         5.18160
           55072         5.22603
           55073         4.90596
           55074         4.87061
           55075         4.80984
           55076         4.93305
           55077         5.04081
           55078         5.14718
           55079         5.12044
           55080         4.92947
           55081         5.03508
           55082         5.03769
           55083         5.41521
           55084     91.8607E-03
           55085     64.2490E-03
           55086     32.9435E-03
           55087     99.5788E-03
           55088     72.5007E-03
           55089     88.4162E-03
           55090     60.8759E-03
           55091     14.6240E-03
           55092         2.43762
           55093         3.11208
           55094         3.07226
           55095         3.08562
           55096         2.82284
           55097         2.66588
           55098         2.54135
           55099         3.00516
           55100         2.96298
           55101         3.75992
           55102         3.50690
           55103         3.49393
           55104         1.24699
           55105         1.19079
           55106         2.90289
           55107         2.53661
           55108         2.66562
           55109         3.02252
           55110         3.11103
           55111         2.31836
           55112         1.33778
           55113         1.37607
           55114         1.24064
           55115         1.26775
           55116         1.43301
           55117         1.44784
           55118         1.40492
           55119         1.46421
           55120         1.38766
           55121         1.34501
           55122         1.34303
           55123         1.37309
           55124         1.42188
           55125         1.40306
           55126         1.41542
           55127         2.89990
           55128         2.81246
           55129         2.84809
           55130         2.81372
           55131         2.88258
           55132         2.93350
           55133         2.89545
           55134         2.89068
           55135         2.80940
           55136         2.84546
           55137         2.81699
           55138         2.88784
           55139         2.88243
           55140         2.92251
           55141         2.87518
           55142         2.85288
           55143         2.87792
           55144         2.91490
           55145         5.89459
           55146         6.00874
           55147         5.92875
           55148         6.04657
           55149         5.92501
           55150         5.10805
           55151         5.07165
           55152         5.24428
           55153         5.29285
           55154         5.24462
           55155         5.45982
           55156         5.41256
           55157         5.45960
           55158         5.33558
           55159         5.35896
           55160         5.52488
           55161         5.30708
           55162         5.47167
           55163         5.36124
           55164         5.26200
           55165         5.23256
           55166         5.34243
           55167         11.8499
           55168         10.8156
           55169         13.6798
           55170         11.8611
           55171         10.6013
           55172         10.3989
           55173         12.1919
           55174         11.4531
           55175         9.54600
           55176         8.35335
           55177         8.39796
           55178         9.05327
           55179         9.02850
           55180         10.1038
           55181         9.59559
           55182         9.28033
           55183         9.79846
           55184         10.3820
           55185         2.69562
           55186         2.65664
           55187         2.68438
           55188         2.68784
           55189         2.72988
           55190         2.69908
           55191         2.62689
           55192         2.61349
           55193         2.63491
           55194         2.64275
           55195         2.63654
           55196         2.63902
           55197         2.61086
           55198         2.65968
           55199         2.65015
           55200         2.68865
           55201         2.64109
           55202         2.66300
           55203         2.67079
           55204         2.65704
           55205         2.66988
           55206         2.69326
           55207         2.66200
           55208         2.61359
           55209         2.61056
           55210         2.61350
           55211         2.61315
           55212         2.61036
           55213         2.60972
           55214         2.61298
           55215         2.60628
           55216         2.60583
           55217         2.60472
           55218         2.60963
           55219         5.63855
           55220         5.59566
           55221         5.58041
           55222         5.61683
           55223         5.67633
           55224         2.60517
           55225         2.60653
           55226         2.60732
           55227         5.68409
           55228         5.70228
           55229         5.67586
           55230         5.65371
           55231         5.69215
           55232         5.67502
           55233         5.66979
           55234         5.64813
           55235         5.67394
           55236         5.69051
           55237         5.64159
           55238         5.59789
           55239         5.60720
           55240         5.61786
           55241         5.60421
           55242         5.61371
           55243         5.56993
           55244         5.62367
           55245         5.63883
           55246         5.70241
           55247         5.68077
           55248         5.73261
           55249         5.70990
           55250         5.73967
           55251         5.75911
           55252         5.75330
           55253         5.74603
           55254         5.74150
           55255         6.41757
           55256         6.17345
           55257         6.20583
           55258         6.18866
           55259         6.43366
           55260         5.95864
           55261         5.98022
           55262         5.90285
           55263         6.03920
           55264         5.86618
           55265         6.03333
           55266         5.95061
           55267         5.89908
           55268         6.06645
           55269         5.94740
           55270         2.80542
           55271         2.73833
           55272         2.85929
           55273         2.90087
           55274         5.57431
           55275         2.77243
           55276         2.71569
           55277         2.87344
           55278         2.84169
           55279         2.80561
           55280         2.87442
           55281         2.84535
           55282     309.341E-03
           55283         2.22615
           55284         2.19898
           55285         2.14253
           55286         2.17116
           55287         2.16801
           55288         2.19612
           55289         2.18936
           55290         2.19259
           55291         2.22145
           55292         2.26147
           55293         2.23090
           55294         4.49972
           55295         4.63865
           55296         4.53560
           55297         4.64898
           55298         4.51076
           55299         4.53370
           55300         4.15834
           55301         4.21871
           55302         4.15516
           55303         4.20172
           55304         4.39630
           55305         4.33487
           55306         4.15197
           55307         4.01477
           55308         4.17490
           55309         4.13865
           55310         4.11637
           55311     321.585E-03
           55312     274.625E-03
           55313     294.354E-03
           55314     362.722E-03
           55315     420.377E-03
           55316     431.447E-03
           55317     389.543E-03
           55318     410.891E-03
           55319         5.92614
           55320         5.98467
           55321         5.91484
           55322         5.90055
           55323         5.84730
           55324         5.80981
           55325         5.81306
           55326         5.76912
           55327         5.80448
           55328         5.84843
           55329         5.77048
           55330         5.93247
           55331         5.86863
           55332         5.83384
           55333         6.01537
           55334         5.79228
           55335         5.79042
           55336         6.06673
           55337         5.71524
           55338         5.84497
           55339         5.83209
           55340         5.92713
           55341         6.03746
           55342         5.85379
           55343         5.94302
           55344         6.07728
           55345         5.95236
           55346         6.05645
           55347         6.12236
           55348         6.10204
           55349         8.37059
           55350         8.35108
           55351         8.28651
           55352         8.02091
           55353         2.71438
           55354         2.71434
           55355         2.73583
           55356         2.75300
           55357         2.75608
           55358         2.75647
           55359         6.02441
           55360         5.98609
           55361         6.00171
           55362         5.95190
           55363         5.98744
           55364         5.95110
           55365         5.94307
           55366         5.91828
           55367         5.89279
           55368         5.90796
           55369         5.86889
           55370         5.92810
           55371         5.88050
           55372         5.87667
           55373         4.40555
           55374         4.54997
           55375         4.37737
           55376         4.42712
           55377         4.28731
           55378         4.45547
           55379         4.40572
           55380         4.26743
           55381         4.31591
           55382     377.710E-03
           55383     333.164E-03
           55384     370.228E-03
           55385     298.859E-03
           55386     266.756E-03
           55387     310.937E-03
           55388     267.195E-03
           55389     239.703E-03
           55390     325.353E-03
           55391     313.257E-03
           55392     314.210E-03
           55393     356.130E-03
           55394     67.3496E-03
           55395     72.2700E-03
           55396     168.064E-03
           55397     297.069E-03
           55398     329.391E-03
           55399     321.557E-03
           55400     299.340E-03
           55401     333.155E-03
           55402     343.125E-03
           55403     364.311E-03
           55404     410.396E-03
           55405     374.507E-03
           55406     395.935E-03
           55407     411.251E-03
           55408     344.121E-03
           55409     365.150E-03
           55410     299.818E-03
           55411     322.073E-03
           55412     334.451E-03
           55413     276.532E-03
           55414     248.929E-03
           55415     270.724E-03
           55416     302.209E-03
           55417         6.47808
           55418         6.65309
           55419         6.57559
           55420         6.48638
           55421         5.21726
           55422         4.54553
           55423         5.99891
           55424         6.00875
           55425         5.14758
           55426         5.63200
           55427         5.63563
           55428         5.61414
           55429         5.81139
           55430         5.81898
           55431         5.78644
           55432         5.82264
           55433         5.81500
           55434         5.85228
           55435         5.73803
           55436         5.75837
           55437         5.76715
           55438         5.74323
           55439         5.64520
           55440         5.68869
           55441         5.77288
           55442         6.69617
           55443         6.70574
           55444         6.63795
           55445         6.45495
           55446         6.44482
           55447         6.50990
           55448         5.69189
           55449     15.7567E-03
           55450     23.9746E-03
           55451     14.3274E-03
           55452     15.6949E-03
           55453     11.0931E-03
           55454     28.1414E-03
           55455     39.9908E-03
           55456     24.9847E-03
           55457     15.0894E-03
           55458     15.7508E-03
           55459     9.75761E-03
           55460     11.6482E-03
           55461         1.07512
           55462         1.11787
           55463         1.26704
           55464         1.17004
           55465         1.12961
           55466     989.659E-03
           55467         1.04505
           55468         1.06591
           55469         1.09380
           55470     960.162E-03
           55471     934.092E-03
           55472     877.508E-03
           55473     929.607E-03
           55474     992.605E-03
           55475     876.809E-03
           55476     775.615E-03
           55477     732.296E-03
           55478     830.388E-03
           55479         6.57458
           55480         6.32634
           55481     743.550E-03
           55482     668.978E-03
           55483         7.00801
           55484         6.81851
           55485         6.90551
           55486         6.98372
           55487         6.25737
           55488         6.40906
           55489         6.27807
           55490     387.227E-03
           55491     329.782E-03
           55492         6.43318
           55493         5.54221
           55494         5.56580
           55495         5.61279
           55496         5.61094
           55497         6.82554
           55498         6.84579
           55499         2.23203
           55500         2.26156
           55501         2.26037
           55502         2.31297
           55503         2.30768
           55504         2.34058
           55505         2.30919
           55506         2.31194
           55507         2.14243
           55508         2.14804
           55509         2.22008
           55510         2.21057
           55511         2.23582
           55512         2.28058
           55513         3.01662
           55514         3.05702
           55515         3.07710
           55516         3.03401
           55517         2.99430
           55518     119.285E-03
           55519     171.114E-03
           55520     150.120E-03
           55521     131.741E-03
           55522         3.04334
           55523         2.97183
           55524         3.05432
           55525         2.98160
           55526         2.96034
           55527         3.04271
           55528         2.98058
           55529         3.07109
           55530         3.14852
           55531         3.08236
           55532         3.04048
           55533         3.10218
           55534         3.01743
           55535         3.26516
           55536         3.16569
           55537         3.21677
           55538         3.24829
           55539         3.13191
           55540         3.20009
           55541         5.62542
           55542         5.64390
           55543         5.61085
           55544         5.62879
           55545         5.60897
           55546         5.65281
           55547         5.58181
           55548         5.56267
           55549         5.56033
           55550         5.54027
           55551         5.54170
           55552         5.64129
           55553         5.60819
           55554         5.64815
           55555         5.60478
           55556         5.62187
           55557         5.61286
           55558         5.63257
           55559         5.66575
           55560         5.68459
           55561         5.63090
           55562         5.59644
           55563         5.58113
           55564         5.59626
           55565         5.58344
           55566         5.57122
           55567         5.27754
           55568         5.26485
           55569         5.24685
           55570         5.37293
           55571         5.38259
           55572         5.06397
           55573         6.73904
           55574         6.76638
           55575         6.74348
           55576         5.04222
           55577         5.03529
           55578         5.14845
           55579         5.11295
           55580         5.18137
           55581         5.08163
           55582         1.58055
           55583         1.52715
           55584         1.59689
           55585         1.51383
           55586         1.56635
           55587         1.34264
           55588         1.33724
           55589         1.40826
           55590         1.37883
           55591         1.39240
           55592         1.40757
           55593         1.42663
           55594         1.45481
           55595         1.42094
           55596         5.72871
           55597         5.74835
           55598         5.80362
           55599         5.81840
           55600         5.78253
           55601         7.07383
           55602         6.67112
           55603         6.90990
           55604         6.90349
           55605         7.31610
           55606         7.06377
           55607         6.77192
           55608         6.40919
           55609         6.94793
           55610         6.75586
           55611         7.11812
           55612         6.56121
           55613         5.99658
           55614         5.80612
           55615         6.03672
           55616         5.97811
           55617         6.16533
           55618         6.09977
           55619         5.71220
           55620         5.83488
           55621         5.61275
           55622         5.88168
           55623         5.63349
           55624         5.60478
           55625         5.99738
           55626         5.80458
           55627     937.433E-03
           55628         1.01116
           55629         1.07711
           55630         1.13392
           55631         1.05631
           55632     991.769E-03
           55633     742.116E-03
           55634     819.917E-03
           55635         1.31148
           55636         1.52023
           55637         1.58884
           55638         1.37823
           55639         1.45590
           55640         1.36947
           55641         1.23249
           55642         1.17606
           55643         1.24696
           55644         1.08519
           55645     947.670E-03
           55646         3.12087
           55647         3.08128
           55648         3.05723
           55649         3.14746
           55650         3.11417
           55651         3.16570
           55652         3.20914
           55653         3.18636
           55654         3.13784
           55655         3.32387
           55656         3.35090
           55657         3.37295
           55658         3.27827
           55659         3.25527
           55660         3.27834
           55661         3.21894
           55662         3.29819
           55663         2.72968
           55664         2.78382
           55665         2.78359
           55666         2.75461
           55667         2.81555
           55668         2.80450
           55669         2.77446
           55670         2.23159
           55671         2.19810
           55672         2.20579
           55673         2.29337
           55674         2.23594
           55675         2.23563
           55676         2.26364
           55677         2.31641
           55678         2.28929
           55679         2.29364
           55680         2.23652
           55681         2.23725
           55682         2.01500
           55683         2.09053
           55684         2.01887
           55685         2.06516
           55686         1.99603
           55687         2.05725
           55688         2.03125
           55689         1.96579
           55690         2.00665
           55691         2.01182
           55692         2.08501
           55693         2.08873
           55694         2.01204
           55695         2.07750
           55696         1.93002
           55697         1.91271
           55698         1.90644
           55699         1.94694
           55700         1.94238
           55701         1.90233
           55702         2.02485
           55703         1.96578
           55704         2.03395
           55705         7.58783
           55706         7.40285
           55707         7.40359
           55708         7.70668
           55709         7.58812
           55710         6.52968
           55711         6.73462
           55712         6.63115
           55713         7.00978
           55714         7.09866
           55715         6.98476
           55716         7.34899
           55717         7.29907
           55718         7.55551
           55719         7.60681
           55720         7.44704
           55721         6.76550
           55722         6.93984
           55723         6.93306
           55724         6.65272
           55725         6.89714
           55726         7.22833
           55727         7.28674
           55728         7.46670
           55729         7.44521
           55730         7.14996
           55731         6.73665
           55732         6.87711
           55733         5.37150
           55734         5.37632
           55735         2.27399
           55736         2.25883
           55737         2.24469
           55738         2.27051
           55739         2.28621
           55740         2.30009
           55741         2.28968
           55742         2.31150
           55743         2.28695
           55744         2.27744
           55745         2.30159
           55746         2.23947
           55747         2.25410
           55748         2.22742
           55749         2.24574
           55750         2.25208
           55751         2.31179
           55752         2.32353
           55753         2.30346
           55754         2.23245
           55755         2.25176
           55756         2.23590
           55757         2.25682
           55758         2.27582
           55759         2.25769
           55760         2.26492
           55761         2.25815
           55762         2.28730
           55763         2.26461
           55764         2.21724
           55765         2.23562
           55766         2.47233
           55767         2.45492
           55768         2.45718
           55769         2.42130
           55770         2.41614
           55771         2.42212
           55772         2.40571
           55773         2.41190
           55774         2.40620
           55775         2.43607
           55776         2.43738
           55777         2.43016
           55778         2.42635
           55779         2.42863
           55780         2.39512
           55781         2.40777
           55782         2.41940
           55783         2.39855
           55784         2.39751
           55785         2.41151
           55786         2.44795
           55787         2.44383
           55788         2.44106
           55789         2.43507
           55790         2.45327
           55791         2.44667
           55792         2.45751
           55793         5.18574
           55794         5.06911
           55795         5.18877
           55796         5.39916
           55797         5.23998
           55798         5.19966
           55799         5.15906
           55800         5.31805
           55801         5.35318
           55802         5.09251
           55803         5.04568
           55804         5.66849
           55805         5.18403
           55806         5.34337
           55807         5.07893
           55808         5.10025
           55809         2.18561
           55810         2.25746
           55811         2.29765
           55812         2.25257
           55813         2.26372
           55814         2.24176
           55815     148.529E-03
           55816     151.113E-03
           55817     97.6089E-03
           55818     155.559E-03
           55819     141.823E-03
           55820         2.61806
           55821         2.60742
           55822         2.62289
           55823         2.57098
           55824         2.52753
           55825         2.52290
           55826         2.62874
           55827         2.61250
           55828         2.58164
           55829         2.54633
           55830         2.59327
           55831         2.57942
           55832         6.03495
           55833         6.10676
           55834         6.07705
           55835         6.18240
           55836         6.10897
           55837         6.13624
           55838         6.18209
           55839         6.11222
           55840         6.21607
           55841         5.99059
           55842         6.01215
           55843         5.98364
           55844         5.96018
           55845         6.00161
           55846         6.01134
           55847         6.02204
           55848         6.11871
           55849         6.09795
           55850         5.89610
           55851         5.92301
           55852         5.85663
           55853         5.94175
           55854         5.89627
           55855         5.98367
           55856         5.91546
           55857         2.84424
           55858         2.72138
           55859         2.97744
           55860         2.81677
           55861         2.93954
           55862         2.77669
           55863         7.02560
           55864         2.77016
           55865         2.85430
           55866         2.75680
           55867         3.09935
           55868         3.28808
           55869         3.23313
           55870         3.03537
           55871         3.02801
           55872         2.16308
           55873         2.13649
           55874         2.19105
           55875         2.08890
           55876         2.05172
           55877         2.07824
           55878         2.09929
           55879         2.13896
           55880         2.11354
           55881         2.04152
           55882         2.06768
           55883         2.03491
           55884         2.19431
           55885         2.15948
           55886         2.13603
           55887         2.11111
           55888         2.14176
           55889         5.78448
           55890         5.69455
           55891         5.85427
           55892         5.91182
           55893         5.95316
           55894         6.25939
           55895         5.87819
           55896         5.82785
           55897         5.83261
           55898         5.86409
           55899         6.09369
           55900         6.07220
           55901         5.99570
           55902         2.41703
           55903         2.38720
           55904         2.39351
           55905         2.43206
           55906         2.44110
           55907         2.43798
           55908         2.45280
           55909         2.43089
           55910         2.42375
           55911         2.40764
           55912         2.41840
           55913         2.44486
           55914         2.43553
           55915         7.27617
           55916         7.34877
           55917         7.26844
           55918         7.47731
           55919         6.86781
           55920         6.70473
           55921         6.48380
           55922         6.34614
           55923         6.29519
           55924         6.43750
           55925         6.62824
           55926         2.09458
           55927         2.04375
           55928         2.09681
           55929         2.03435
           55930         2.08466
           55931         2.03109
           55932         2.07623
           55933         2.02325
           55934         2.01341
           55935         2.20712
           55936         2.26860
           55937         2.20856
           55938         2.21824
           55939         2.15630
           55940         2.21686
           55941         2.20645
           55942         2.14353
           55943         2.15478
           55944         2.08353
           55945         2.09565
           55946         2.10777
           55947         5.66856
           55948         6.72161
           55949         6.34319
           55950         6.40513
           55951         5.36057
           55952         5.76855
           55953         4.71108
           55954         4.43620
           55955         4.93057
           55956         4.99800
           55957         4.79003
           55958         5.80810
           55959         5.73138
           55960         5.41419
           55961         5.00692
           55962         5.09816
           55963         5.44357
           55964         5.38206
           55965         5.28752
           55966         3.63473
           55967         4.51438
           55968         4.73957
           55969         5.06554
           55970         3.36915
           55971         3.41683
           55972         3.52130
           55973         3.45662
           55974         3.40513
           55975         4.97634
           55976         5.21241
           55977         5.10418
           55978         5.01049
           55979         3.73431
           55980         3.85022
           55981         3.92324
           55982         3.98939
           55983         3.78581
           55984         3.92365
           55985         3.99530
           55986         3.67602
           55987         3.88205
           55988         3.63971
           55989         3.72042
           55990         4.27822
           55991         4.37658
           55992         8.37909
           55993         7.88646
           55994         8.14911
           55995         8.48153
           55996         8.73666
           55997         8.68637
           55998         9.08935
           55999         9.24288
           56000         8.90150
           56001         9.05578
           56002         8.67615
           56003         8.33161
           56004         5.95276
           56005         6.02438
           56006         5.93040
           56007         2.70373
           56008         2.64020
           56009         2.62138
           56010         2.68712
           56011         2.65432
           56012         2.71829
           56013         2.80621
           56014         2.74365
           56015         2.78560
           56016         2.77771
           56017         2.69872
           56018         2.63190
           56019         2.66077
           56020         2.72404
           56021         2.67971
           56022         2.69160
           56023         2.69985
           56024         2.74641
           56025         2.61598
           56026         2.60574
           56027         2.63622
           56028         2.65647
           56029         2.62423
           56030         2.70815
           56031         2.67150
           56032         2.69931
           56033         2.67096
           56034         2.65134
           56035         2.66302
           56036         2.60312
           56037         2.70247
           56038         2.70189
           56039         2.75558
           56040         2.68172
           56041         2.60386
           56042         2.34038
           56043         2.30541
           56044         2.33196
           56045         2.32018
           56046         2.29368
           56047         2.27755
           56048         2.30382
           56049         2.18599
           56050         2.21541
           56051         2.20401
           56052         2.26233
           56053         2.29354
           56054         2.29242
           56055         2.26374
           56056         2.29230
           56057         2.23082
           56058         2.28546
           56059         2.31048
           56060         2.28210
           56061         2.32094
           56062         2.33803
           56063         2.32521
           56064         2.35435
           56065         2.34967
           56066         2.31089
           56067         2.28346
           56068         2.29508
           56069         2.28492
           56070         2.26745
           56071         2.29644
           56072         4.58254
           56073         4.44726
           56074         4.58209
           56075         4.71251
           56076         4.57651
           56077         4.81182
           56078         4.93489
           56079         4.90783
           56080         4.78425
           56081         4.87006
           56082         4.79047
           56083         4.73014
           56084         4.81793
           56085         4.69763
           56086         4.56250
           56087         4.59766
           56088         4.71247
           56089         4.57871
           56090         4.55707
           56091         4.75557
           56092         4.68748
           56093         4.74919
           56094         4.84907
           56095         4.88815
           56096         4.81191
           56097         4.69056
           56098         3.95812
           56099         3.93067
           56100         4.04031
           56101         3.73171
           56102         3.61999
           56103         3.95753
           56104         4.25322
           56105         4.22548
           56106         4.30430
           56107         4.28467
           56108         4.55362
           56109         4.57109
           56110         4.20094
           56111         4.09127
           56112         3.73421
           56113         3.72322
           56114         5.68835
           56115         5.69390
           56116         3.14066
           56117         3.10920
           56118         2.18142
           56119         2.98083
           56120         2.98412
           56121         1.49246
           56122         1.22350
           56123         1.70753
           56124         1.04690
           56125         1.33290
           56126     915.995E-03
           56127         1.72753
           56128         1.23007
           56129     999.229E-03
           56130         1.44243
           56131         1.15137
           56132         2.04094
           56133         2.15325
           56134         2.22521
           56135         3.04574
           56136         1.26034
           56137         1.72296
           56138         1.50349
           56139         1.48492
           56140         2.04519
           56141         2.27219
           56142         2.10398
           56143         2.08973
           56144         2.02793
           56145         1.68161
           56146         1.90367
           56147         2.46446
           56148         2.30814
           56149         2.20708
           56150         2.57182
           56151         2.39986
           56152         2.56450
           56153         4.84130
           56154         4.67935
           56155         4.89150
           56156         4.61408
           56157         4.63636
           56158         4.64637
           56159         4.51284
           56160         1.80671
           56161         1.60982
           56162         1.60630
           56163         1.61800
           56164         1.71138
           56165         1.67344
           56166         1.68684
           56167         1.76686
           56168         1.81254
           56169         1.79031
           56170         1.67227
           56171         1.68692
           56172         1.68279
           56173         1.62968
           56174         1.61294
           56175         4.52885
           56176         4.44555
           56177         4.51890
           56178         4.33565
           56179         4.41562
           56180         4.34424
           56181         4.27105
           56182         4.34796
           56183         5.90309
           56184         5.95581
           56185         5.95084
           56186         4.70752
           56187         4.89180
           56188         4.83395
           56189         4.76379
           56190         4.60587
           56191         4.78846
           56192         4.63455
           56193         2.44141
           56194         2.45520
           56195         2.44923
           56196         2.44946
           56197         2.47830
           56198         2.48493
           56199         2.48602
           56200         2.49950
           56201         2.49152
           56202         2.46489
           56203         2.46054
           56204         2.47473
           56205         2.47182
           56206         2.50264
           56207         2.50175
           56208         2.50722
           56209         2.51334
           56210         2.48057
           56211         2.47641
           56212         2.45958
           56213         2.46526
           56214         1.09782
           56215         1.26386
           56216         1.18283
           56217         1.25066
           56218         1.08823
           56219         1.16655
           56220         6.43405
           56221         1.10085
           56222         1.08963
           56223         1.15200
           56224         1.24296
           56225     463.008E-03
           56226     392.517E-03
           56227     895.220E-03
           56228     989.710E-03
           56229     753.987E-03
           56230     928.474E-03
           56231         1.18622
           56232         1.10460
           56233         1.02308
           56234         1.11315
           56235         4.23288
           56236         4.35637
           56237         4.42762
           56238         4.36928
           56239         4.29862
           56240         4.42547
           56241         4.27672
           56242         4.31326
           56243         4.21441
           56244         4.40282
           56245         4.34449
           56246         4.06370
           56247         4.01643
           56248         4.02525
           56249         4.19344
           56250         4.14502
           56251         4.15901
           56252         4.05893
           56253     189.196E-03
           56254     106.346E-03
           56255     42.4620E-03
           56256     102.420E-03
           56257     346.394E-03
           56258     431.524E-03
           56259         6.03339
           56260         6.11337
           56261         5.96745
           56262     331.036E-03
           56263     411.312E-03
           56264     337.638E-03
           56265     259.109E-03
           56266         1.62248
           56267         1.60024
           56268         1.56389
           56269         1.62243
           56270         1.63816
           56271         1.56557
           56272         1.52324
           56273         1.51815
           56274         1.50008
           56275         1.52035
           56276         1.56069
           56277         1.58468
           56278         1.46496
           56279         1.48193
           56280         1.51248
           56281         1.56271
           56282         1.42670
           56283         1.49042
           56284         1.47149
           56285         5.77268
           56286         5.77731
           56287         5.75144
           56288         5.73079
           56289         5.71978
           56290         5.70199
           56291         5.70583
           56292         1.32839
           56293         1.32923
           56294         1.14903
           56295         1.19903
           56296         1.19724
           56297         1.37851
           56298         5.75099
           56299         5.73123
           56300         5.74805
           56301         5.75096
           56302         5.35097
           56303         5.20568
           56304         5.21927
           56305         5.37973
           56306         5.28451
           56307         5.29487
           56308         5.29939
           56309         5.70571
           56310         3.56988
           56311         3.26929
           56312         3.72022
           56313         5.40399
           56314         5.45438
           56315         5.56266
           56316         5.49096
           56317         5.33367
           56318         5.18383
           56319         5.19678
           56320         5.29051
           56321         5.30415
           56322         5.29033
           56323         5.19683
           56324         5.23625
           56325         5.13112
           56326         5.13219
           56327         5.22457
           56328         5.23740
           56329         6.33094
           56330         6.46558
           56331         6.81379
           56332         6.74517
           56333         7.02744
           56334         7.09483
           56335         6.88521
           56336         6.77120
           56337         6.36647
           56338         6.32820
           56339         6.29150
           56340         6.33081
           56341         6.22784
           56342         6.38820
           56343         6.18589
           56344         6.47052
           56345         6.42610
           56346         6.58249
           56347         6.66389
           56348         10.1094
           56349         9.58938
           56350         9.37276
           56351         9.06060
           56352         9.56840
           56353         10.2708
           56354         10.4938
           56355         9.11759
           56356         8.86272
           56357         9.30802
           56358         8.48105
           56359         8.77039
           56360         8.35037
           56361         8.52383
           56362         8.26466
           56363         8.67128
           56364         5.58866
           56365         5.59692
           56366         5.64335
           56367         8.95880
           56368         8.83870
           56369         8.54402
           56370         8.92059
           56371         8.59898
           56372         9.93359
           56373         10.1463
           56374         8.71132
           56375         1.33338
           56376         1.23237
           56377         1.77681
           56378         1.46277
           56379         1.62818
           56380         1.69431
           56381         1.48145
           56382         1.40171
           56383         1.63089
           56384     897.398E-03
           56385         1.10139
           56386         1.02386
           56387         1.29961
           56388         1.24439
           56389         7.00429
           56390         7.56437
           56391         7.54514
           56392         6.49100
           56393         6.62035
           56394         6.63506
           56395         6.54818
           56396         6.43818
           56397         6.52467
           56398         6.57987
           56399         6.62565
           56400         6.56567
           56401         6.48080
           56402         6.66932
           56403         6.53161
           56404         6.39020
           56405         6.50272
           56406         6.38548
           56407         6.42048
           56408         6.53805
           56409         6.64489
           56410         6.43147
           56411         6.32770
           56412         6.66087
           56413         6.70591
           56414         6.63333
           56415         6.83660
           56416         6.77346
           56417         6.77682
           56418         7.30080
           56419         7.15861
           56420         7.24413
           56421         7.76407
           56422         7.80289
           56423         7.97062
           56424         7.69931
           56425         7.41032
           56426         6.80104
           56427         7.80422
           56428         7.95125
           56429         7.89851
           56430         7.41595
           56431         7.39648
           56432         4.99247
           56433         5.05791
           56434         5.01066
           56435         5.15870
           56436         5.09224
           56437         5.13955
           56438         5.01505
           56439         4.95020
           56440         4.85202
           56441         4.87802
           56442         4.86745
           56443         4.71359
           56444         4.77566
           56445         4.98934
           56446         4.93836
           56447         4.85825
           56448         4.90901
           56449         4.99599
           56450         4.72541
           56451         4.67548
           56452         4.78171
           56453         4.80792
           56454         5.45662
           56455         5.46627
           56456         5.46227
           56457         5.48534
           56458         5.47894
           56459         3.31946
           56460         2.88568
           56461         2.93604
           56462         3.05532
           56463         5.64517
           56464         5.70514
           56465         5.60287
           56466         5.64296
           56467         5.58819
           56468         5.68518
           56469         5.44639
           56470         5.52671
           56471         5.51514
           56472         5.54115
           56473         5.39643
           56474         5.50248
           56475         5.45582
           56476         5.44160
           56477         6.01257
           56478         5.97013
           56479         5.89732
           56480         5.86415
           56481         5.91184
           56482         5.86412
           56483         5.80547
           56484         5.79064
           56485         5.83842
           56486         5.83088
           56487         5.96356
           56488         5.96248
           56489         7.03805
           56490         7.20618
           56491         6.85189
           56492         7.51319
           56493         7.31113
           56494         7.18936
           56495         7.25732
           56496         7.22538
           56497         7.03443
           56498         7.45482
           56499         7.64587
           56500         7.26530
           56501         6.21435
           56502         6.13789
           56503         6.04823
           56504         7.74129
           56505         7.80822
           56506         7.97865
           56507         7.74758
           56508         7.80608
           56509         7.74825
           56510         7.94352
           56511         7.70219
           56512         6.99523
           56513         6.88333
           56514         7.81244
           56515         8.48916
           56516         8.42887
           56517         5.83415
           56518         6.81282
           56519         6.15489
           56520         6.89820
           56521         5.70149
           56522         6.74093
           56523         6.01664
           56524         7.15881
           56525         7.73401
           56526         9.26426
           56527         5.88567
           56528         6.18519
           56529     48.5754E-03
           56530     85.3985E-03
           56531     46.2325E-03
           56532     85.7077E-03
           56533     127.716E-03
           56534     138.964E-03
           56535     183.232E-03
           56536     141.621E-03
           56537     158.530E-03
           56538     114.477E-03
           56539     138.404E-03
           56540     182.837E-03
           56541     172.004E-03
           56542     172.519E-03
           56543     181.446E-03
           56544     146.510E-03
           56545     154.580E-03
           56546     146.759E-03
           56547         4.14422
           56548     936.996E-03
           56549     700.948E-03
           56550     642.241E-03
           56551         4.34783
           56552         4.26163
           56553         4.29784
           56554         4.47059
           56555         4.38320
           56556         4.25635
           56557         4.05225
           56558         4.13325
           56559         4.07232
           56560         4.06511
           56561         4.36721
           56562         4.28196
           56563         4.53484
           56564         4.46643
           56565         4.78871
           56566         4.62293
           56567         5.56058
           56568         5.53398
           56569         5.52771
           56570         5.50271
           56571         5.52614
           56572         5.53393
           56573         5.55203
           56574         5.74099
           56575         5.63202
           56576         6.32635
           56577         6.20622
           56578         6.21386
           56579     226.022E-03
           56580     230.420E-03
           56581         6.15482
           56582         6.18164
           56583         6.13055
           56584         6.06583
           56585         6.10352
           56586         6.07810
           56587         6.14360
           56588         6.10073
           56589         6.11559
           56590         6.07207
           56591         6.10986
           56592         6.12238
           56593         6.31565
           56594         6.35481
           56595         6.27181
           56596         4.04308
           56597         3.97575
           56598         3.59483
           56599         3.63187
           56600         3.72158
           56601         3.80589
           56602         3.98178
           56603         5.45520
           56604         3.02664
           56605         3.04829
           56606         3.00403
           56607         3.06680
           56608         3.10171
           56609         3.14834
           56610         3.09719
           56611         3.04856
           56612         3.00466
           56613         3.02065
           56614         3.07960
           56615         3.04569
           56616         3.04566
           56617         4.93361
           56618         4.80260
           56619         4.31844
           56620         4.30925
           56621         4.66024
           56622         4.54084
           56623         4.72627
           56624         4.47579
           56625         4.62894
           56626         4.59517
           56627         4.44023
           56628         4.47428
           56629         4.44558
           56630         4.37456
           56631         2.53588
           56632         2.52776
           56633         2.53022
           56634         2.52551
           56635         2.52280
           56636         2.52266
           56637         2.53567
           56638         2.52951
           56639         2.53231
           56640         2.54757
           56641         2.55222
           56642         2.54364
           56643         2.54065
           56644         2.54448
           56645         2.51773
           56646         2.53116
           56647         2.52827
           56648     544.899E-03
           56649     581.425E-03
           56650     598.425E-03
           56651     771.228E-03
           56652     857.833E-03
           56653     797.714E-03
           56654     772.812E-03
           56655     847.403E-03
           56656     807.195E-03
           56657     886.075E-03
           56658     604.937E-03
           56659     761.614E-03
           56660     742.614E-03
           56661     659.988E-03
           56662     729.411E-03
           56663         5.50768
           56664         5.52661
           56665         5.50456
           56666         5.50888
           56667         5.53353
           56668         5.51179
           56669         5.52187
           56670         5.52970
           56671         4.85796
           56672         4.95693
           56673         4.89290
           56674         4.93732
           56675         4.99333
           56676         4.85089
           56677         4.92952
           56678         4.74096
           56679         4.70752
           56680         4.68237
           56681         4.78739
           56682         4.71496
           56683         5.95353
           56684         5.99678
           56685         5.84179
           56686         5.85935
           56687         6.00899
           56688         5.96209
           56689         5.99175
           56690         5.93801
           56691         5.91587
           56692         5.89153
           56693         4.72666
           56694         4.82376
           56695         4.79413
           56696         4.62624
           56697         4.75511
           56698         4.68952
           56699         4.62116
           56700         4.57121
           56701         4.63403
           56702         4.69847
           56703         4.66497
           56704         4.63102
           56705         4.58682
           56706         4.47394
           56707         4.35140
           56708         4.51285
           56709         4.42891
           56710         4.67773
           56711         4.62106
           56712         5.47491
           56713         5.49534
           56714         5.48048
           56715         5.49365
           56716         4.52897
           56717         2.61525
           56718         2.60919
           56719         2.66333
           56720         2.63113
           56721         2.67230
           56722         2.69336
           56723         2.64757
           56724         2.55032
           56725         2.58622
           56726         2.56615
           56727         2.59266
           56728         2.66313
           56729         2.67887
           56730         1.09629
           56731         1.03040
           56732         1.37519
           56733         1.35539
           56734         1.36428
           56735     994.318E-03
           56736         1.16264
           56737         1.34976
           56738         2.57253
           56739         2.58036
           56740         2.56823
           56741         2.56014
           56742         2.56420
           56743         2.53718
           56744         2.54426
           56745         2.54538
           56746         2.33818
           56747         2.35732
           56748         2.36302
           56749         2.34312
           56750         2.38420
           56751         2.39334
           56752         2.38450
           56753         2.41742
           56754         2.40612
           56755         2.45176
           56756         2.45130
           56757         2.42730
           56758         2.48378
           56759         2.47418
           56760         2.48173
           56761         2.50158
           56762         2.49081
           56763         2.50414
           56764         2.47019
           56765         5.61306
           56766         5.63629
           56767         5.61662
           56768         5.61076
           56769         5.58982
           56770         5.63831
           56771         5.63128
           56772         5.65061
           56773         5.65853
           56774         5.67911
           56775         5.64937
           56776         5.60916
           56777         6.47854
           56778         6.24905
           56779         6.29863
           56780         5.65084
           56781         5.69101
           56782         2.62329
           56783         2.62292
           56784         2.60889
           56785         2.60270
           56786         2.60772
           56787         2.60475
           56788         2.61102
           56789         2.60558
           56790         2.60889
           56791         6.67357
           56792         6.52676
           56793         6.47490
           56794         6.62067
           56795         6.51167
           56796         6.67957
           56797         6.53295
           56798         6.67816
           56799         6.62725
           56800         6.66421
           56801         6.88311
           56802         6.89101
           56803         6.89022
           56804         7.11528
           56805         7.10752
           56806         1.87254
           56807         1.76772
           56808         1.73739
           56809         1.86038
           56810         1.76697
           56811         1.70989
           56812         1.66078
           56813         1.59791
           56814         6.85111
           56815         7.12189
           56816         1.68055
           56817         1.98400
           56818         1.95075
           56819         1.86401
           56820         1.90046
           56821         1.91562
           56822         1.43571
           56823         1.48957
           56824         1.49994
           56825         3.24243
           56826         3.27121
           56827         3.23585
           56828         3.24151
           56829         3.21357
           56830         5.76892
           56831         5.85554
           56832         5.85599
           56833         5.77251
           56834         5.80171
           56835         5.73345
           56836         5.75038
           56837         5.78900
           56838         5.81996
           56839         5.73634
           56840         5.73895
           56841         5.74121
           56842         5.71027
           56843         5.70529
           56844         1.97713
           56845         2.40626
           56846         5.54114
           56847         5.54212
           56848         5.54868
           56849         5.53354
           56850         5.57021
           56851         5.55702
           56852         5.54076
           56853         5.51571
           56854         5.64424
           56855         5.72192
           56856         5.56569
           56857         5.55101
           56858         5.59131
           56859         5.71400
           56860         5.73607
           56861         5.67802
           56862         5.65643
           56863         5.68505
           56864         5.57739
           56865         5.67850
           56866         5.69157
           56867         5.80900
           56868         5.78979
           56869         5.70620
           56870     143.161E-03
           56871     417.759E-03
           56872         5.74683
           56873         5.78863
           56874         5.85429
           56875         5.82345
           56876         5.78339
           56877         8.65749
           56878         8.90000
           56879         8.37813
           56880         8.48264
           56881         8.40639
           56882         8.91063
           56883         8.98299
           56884         9.22942
           56885         8.93206
           56886         8.70165
           56887         8.91314
           56888         8.96588
           56889         9.20387
           56890         8.03140
           56891         7.94497
           56892         8.35164
           56893         8.16554
           56894         8.25435
           56895         8.35957
           56896         8.12359
           56897         8.36309
           56898         4.00126
           56899         3.98533
           56900         6.39067
           56901         6.20094
           56902         4.19006
           56903         3.93501
           56904         3.91195
           56905     229.986E-03
           56906     173.634E-03
           56907     238.482E-03
           56908     219.811E-03
           56909     136.968E-03
           56910         3.52134
           56911         3.60301
           56912         3.59540
           56913         3.60317
           56914         3.52110
           56915         3.52883
           56916         3.62565
           56917         3.70014
           56918         3.61733
           56919         3.76527
           56920         3.66722
           56921         3.68950
           56922         3.80109
           56923         3.46388
           56924         3.53578
           56925         3.57294
           56926         3.50095
           56927         3.62532
           56928         3.70015
           56929         3.62572
           56930     226.281E-03
           56931     217.732E-03
           56932     243.849E-03
           56933     208.647E-03
           56934     216.985E-03
           56935     192.277E-03
           56936     246.840E-03
           56937         7.97154
           56938         7.87624
           56939         7.92707
           56940         8.14375
           56941         7.98150
           56942         8.35278
           56943         7.28098
           56944         7.38079
           56945         8.11169
           56946         8.64445
           56947         8.29489
           56948         8.04233
           56949         8.37740
           56950         7.84840
           56951         7.67544
           56952         4.66791
           56953         4.61378
           56954         4.75345
           56955         4.64092
           56956         4.69587
           56957         4.55674
           56958         4.71151
           56959         4.76679
           56960         4.75347
           56961         4.89110
           56962         4.83358
           56963         4.84717
           56964         4.62692
           56965         4.91326
           56966         4.54681
           56967         4.64284
           56968         2.13194
           56969         2.21146
           56970         2.09786
           56971         2.16864
           56972         2.13371
           56973         2.24321
           56974         2.13257
           56975         2.53807
           56976         2.39462
           56977         2.50074
           56978         2.60079
           56979         2.62807
           56980         2.63898
           56981         2.64101
           56982         2.62744
           56983         2.61447
           56984         10.0078
           56985         11.1267
           56986         10.3395
           56987         10.0737
           56988         12.1474
           56989         12.1218
           56990         12.7946
           56991         12.5164
           56992         11.6916
           56993         11.7434
           56994         13.1033
           56995         13.0687
           56996         14.7399
           56997         14.4379
           56998         5.53312
           56999         10.3211
           57000         5.91249
           57001         5.90104
           57002         5.82918
           57003         5.81382
           57004         5.82222
           57005         5.89295
           57006         5.45459
           57007         5.49457
           57008         5.29918
           57009         5.46978
           57010         5.83740
           57011         5.91353
           57012         5.81843
           57013         5.84259
           57014         5.91574
           57015         5.82300
           57016         5.79660
           57017         5.79761
           57018         5.78162
           57019         5.66777
           57020         5.67938
           57021         5.68721
           57022         5.67341
           57023         5.67166
           57024         5.76660
           57025         5.78375
           57026         5.75458
           57027         5.77287
           57028         5.75115
           57029     607.162E-03
           57030     579.774E-03
           57031     638.134E-03
           57032     677.783E-03
           57033     664.192E-03
           57034     493.138E-03
           57035     871.494E-03
           57036     829.037E-03
           57037         1.02659
           57038     891.795E-03
           57039         1.05639
           57040         1.17625
           57041         1.03124
           57042         1.13689
           57043     719.882E-03
           57044     861.077E-03
           57045         5.11744
           57046         5.14940
           57047         5.20774
           57048         5.23737
           57049         5.19301
           57050         5.16989
           57051         4.73494
           57052         4.91435
           57053         4.85602
           57054         4.82425
           57055         4.92237
           57056         4.97979
           57057         5.01392
           57058         5.13973
           57059         5.04975
           57060         5.01565
           57061         5.15325
           57062         5.14523
           57063         4.92170
           57064         4.94960
           57065         5.04938
           57066         4.76256
           57067         4.82995
           57068         4.85958
           57069         4.70304
           57070         5.03679
           57071         4.98644
           57072         5.04643
           57073         4.86012
           57074         4.88798
           57075         4.83420
           57076         3.65762
           57077         3.59605
           57078         3.42782
           57079         4.23214
           57080         3.93008
           57081         4.09312
           57082         3.90726
           57083         4.21564
           57084         4.03480
           57085         3.96199
           57086         4.08348
           57087         3.94389
           57088         4.10423
           57089         3.98058
           57090         4.20259
           57091         3.72670
           57092         3.70691
           57093         3.83068
           57094     910.623E-03
           57095     870.149E-03
           57096     905.103E-03
           57097     841.689E-03
           57098     905.757E-03
           57099     886.867E-03
           57100     769.965E-03
           57101         1.23623
           57102         1.32904
           57103         1.12620
           57104         2.66489
           57105         2.67119
           57106         2.66007
           57107         2.66698
           57108         2.67106
           57109         2.66552
           57110         2.68417
           57111         2.68227
           57112         2.68952
           57113         2.68113
           57114         2.68313
           57115         2.67414
           57116         2.68123
           57117         2.68248
           57118         2.68142
           57119         2.67396
           57120         2.67337
           57121         2.67429
           57122         2.66643
           57123         2.67210
           57124         2.67996
           57125         2.68548
           57126         2.67777
           57127         2.67773
           57128         2.67347
           57129         2.67990
           57130         2.66531
           57131         2.66315
           57132         2.66713
           57133         2.65776
           57134         2.65999
           57135         2.67868
           57136         2.68653
           57137         2.68215
           57138         3.80050
           57139         3.29928
           57140         3.42644
           57141         3.81482
           57142         8.61193
           57143         13.7856
           57144         13.7413
           57145         8.44225
           57146         6.50152
           57147         5.05200
           57148         6.06278
           57149         5.39992
           57150         6.95076
           57151         7.27378
           57152         6.35983
           57153         6.81955
           57154         7.57764
           57155         6.54149
           57156         7.09046
           57157         2.85851
           57158         2.89164
           57159         2.90259
           57160         2.74722
           57161         2.77796
           57162         2.82613
           57163         2.59274
           57164         2.63886
           57165         2.77681
           57166         2.85366
           57167         4.24464
           57168         4.43857
           57169         4.41455
           57170         4.39897
           57171         4.42300
           57172         4.22090
           57173         4.16307
           57174         4.53093
           57175         4.20778
           57176         4.33939
           57177         4.50759
           57178         4.50146
           57179         4.39670
           57180         4.40190
           57181         4.43139
           57182         4.36277
           57183     522.570E-03
           57184     584.814E-03
           57185     440.585E-03
           57186     470.299E-03
           57187     537.959E-03
           57188     486.861E-03
           57189     517.107E-03
           57190     453.099E-03
           57191         5.43942
           57192         5.60554
           57193         5.15553
           57194         5.01279
           57195         4.85975
           57196         5.30968
           57197         6.60081
           57198         6.92871
           57199         6.85848
           57200         6.89670
           57201         6.58821
           57202         5.26319
           57203         5.56283
           57204         5.16511
           57205         5.43514
           57206         4.89932
           57207         4.67280
           57208         4.76660
           57209         5.01582
           57210         5.80214
           57211         5.23008
           57212         7.09797
           57213         7.07894
           57214         7.25149
           57215         6.90524
           57216         4.86521
           57217         4.98354
           57218         7.07222
           57219         7.36223
           57220         7.48107
           57221         7.61816
           57222         7.31697
           57223         7.19660
           57224         6.66788
           57225         6.71820
           57226         6.83811
           57227         6.82288
           57228         6.52298
           57229         8.33925
           57230         8.01984
           57231         8.19086
           57232         8.16321
           57233         8.78555
           57234         8.73767
           57235         8.46955
           57236         8.35291
           57237         8.40593
           57238         8.67093
           57239         8.13873
           57240         8.18584
           57241         8.07540
           57242         8.19440
           57243         8.02336
           57244         8.49479
           57245         8.17083
           57246         2.05512
           57247         2.13318
           57248         2.09438
           57249         1.84386
           57250         2.01682
           57251         2.05177
           57252         2.05794
           57253         2.32031
           57254         2.26485
           57255         5.53716
           57256         5.53222
           57257         5.47519
           57258         5.50819
           57259         5.47229
           57260         5.49315
           57261         5.59996
           57262         13.9011
           57263         18.1110
           57264         14.2284
           57265         18.5919
           57266         17.9852
           57267         5.38948
           57268         5.49142
           57269         5.40299
           57270         5.34958
           57271         5.36653
           57272         5.60865
           57273         5.51327
           57274         5.54389
           57275         5.43569
           57276         5.53018
           57277         2.97167
           57278         2.99248
           57279         3.04392
           57280         3.00396
           57281         3.02186
           57282         2.91717
           57283         2.93249
           57284         2.88481
           57285         2.87669
           57286         2.90099
           57287         2.91017
           57288         2.92740
           57289         2.91231
           57290         2.87117
           57291         2.87427
           57292         2.91038
           57293         2.93653
           57294         2.96062
           57295         2.95175
           57296         2.45994
           57297         2.46972
           57298         2.55100
           57299         2.29741
           57300         2.68452
           57301         2.67252
           57302         2.58848
           57303         2.04867
           57304         2.00568
           57305         2.17175
           57306         1.90378
           57307         1.94315
           57308         1.79196
           57309         1.92328
           57310         1.90340
           57311         2.72527
           57312         2.27077
           57313         2.44329
           57314         2.34084
           57315         2.23654
           57316         2.10846
           57317         2.49474
           57318         2.24586
           57319         6.17045
           57320         6.23625
           57321         5.13833
           57322         5.86197
           57323         5.94203
           57324         5.87309
           57325         5.93519
           57326         5.92395
           57327         5.99307
           57328         5.97375
           57329         6.05474
           57330         6.28973
           57331         6.01410
           57332         6.07291
           57333         6.06176
           57334         6.00353
           57335         5.94327
           57336         6.06531
           57337         6.20175
           57338         6.13367
           57339         2.83303
           57340         2.81617
           57341         5.60879
           57342         5.53191
           57343         5.57810
           57344         5.54180
           57345         5.61746
           57346         5.57507
           57347         5.63921
           57348         5.66662
           57349         5.68006
           57350         5.65418
           57351         5.62630
           57352         5.61044
           57353         5.68048
           57354         5.65295
           57355         5.62417
           57356         5.65127
           57357         5.61478
           57358         5.62206
           57359     583.094E-03
           57360     766.475E-03
           57361         2.31571
           57362         2.30398
           57363         2.30228
           57364         2.32247
           57365         2.33318
           57366         2.33466
           57367     769.865E-03
           57368     934.477E-03
           57369         5.83095
           57370         5.92839
           57371         1.18114
           57372         1.16114
           57373         2.54287
           57374         2.55128
           57375         2.54635
           57376         2.53537
           57377         4.98450
           57378         5.03533
           57379         5.08136
           57380         2.56425
           57381         2.56451
           57382         2.56081
           57383         2.55368
           57384         2.55853
           57385         2.54609
           57386         2.55158
           57387         2.54405
           57388         2.56056
           57389         2.28799
           57390         2.23424
           57391         2.25734
           57392         2.18330
           57393         2.21310
           57394         2.18815
           57395         2.19006
           57396         2.24878
           57397         2.30389
           57398         2.23508
           57399         2.35840
           57400         3.73972
           57401         3.75129
           57402         3.88246
           57403         3.90385
           57404         3.86926
           57405         3.83313
           57406         3.97115
           57407         3.84765
           57408         3.81303
           57409         3.68730
           57410         3.79254
           57411         3.76634
           57412         3.77545
           57413         3.93262
           57414         3.59574
           57415         3.71388
           57416         3.58251
           57417         3.55479
           57418         3.67805
           57419     909.371E-03
           57420         1.09128
           57421         1.07780
           57422     891.229E-03
           57423         1.18796
           57424     739.267E-03
           57425     789.412E-03
           57426     879.005E-03
           57427     803.697E-03
           57428     716.230E-03
           57429     749.439E-03
           57430     680.273E-03
           57431     727.936E-03
           57432     679.677E-03
           57433     631.727E-03
           57434     616.441E-03
           57435     653.872E-03
           57436     708.225E-03
           57437     612.509E-03
           57438     600.420E-03
           57439         3.79949
           57440         3.97473
           57441         4.07525
           57442         4.03711
           57443     622.755E-03
           57444     661.935E-03
           57445         4.43650
           57446         4.40060
           57447         4.30072
           57448         4.35311
           57449         4.38224
           57450         4.61762
           57451         4.50885
           57452         4.54686
           57453         4.59804
           57454         4.56727
           57455         4.62731
           57456         4.46695
           57457         4.34017
           57458         4.37031
           57459         4.23716
           57460         4.36944
           57461         4.47546
           57462         4.38661
           57463         4.28366
           57464         4.35997
           57465         3.24272
           57466         3.21180
           57467         3.18685
           57468         3.21649
           57469         3.24687
           57470         3.24092
           57471         3.30410
           57472         3.27789
           57473         3.27219
           57474         3.19732
           57475         3.14216
           57476         3.16136
           57477         3.16612
           57478         3.14690
           57479         3.33138
           57480         3.26722
           57481         3.29380
           57482         3.92248
           57483         3.83033
           57484         3.80945
           57485         3.82529
           57486         3.73696
           57487         3.99329
           57488         3.99962
           57489         3.92873
           57490         3.99802
           57491         3.99128
           57492         4.06406
           57493         3.94545
           57494         3.96350
           57495         3.89585
           57496         3.87831
           57497         3.48903
           57498         3.78193
           57499         3.89871
           57500         3.89041
           57501         3.90128
           57502         3.86188
           57503         3.92467
           57504         2.54969
           57505         2.45938
           57506         1.99808
           57507         2.24139
           57508         2.41743
           57509         2.11748
           57510         4.97317
           57511         2.17956
           57512         2.12492
           57513         2.15206
           57514         2.19951
           57515         2.24044
           57516         2.22717
           57517         2.17646
           57518         2.24257
           57519         2.19140
           57520         2.18850
           57521         2.40599
           57522         2.41064
           57523         2.40996
           57524         2.32298
           57525         2.31607
           57526         2.36615
           57527         2.46232
           57528         2.47571
           57529         2.43356
           57530         2.47504
           57531         2.38027
           57532         2.27447
           57533         2.20900
           57534         2.24731
           57535         2.27945
           57536         4.94549
           57537         5.04971
           57538         5.06957
           57539         5.07511
           57540         5.85214
           57541         5.85622
           57542         5.88389
           57543         5.92356
           57544         5.92271
           57545         5.89231
           57546         5.92199
           57547         5.92895
           57548         5.89254
           57549         5.86245
           57550         5.85395
           57551         5.87545
           57552         5.85485
           57553         5.97236
           57554         6.02871
           57555         6.01295
           57556         5.97642
           57557         5.93388
           57558         5.88420
           57559         2.75960
           57560         2.78112
           57561         2.78344
           57562         2.78462
           57563         2.75653
           57564         2.78662
           57565         2.78893
           57566         1.50296
           57567         1.33234
           57568         1.10594
           57569         1.16116
           57570         1.27772
           57571         2.81598
           57572         2.78254
           57573         2.83769
           57574         2.83036
           57575         2.81259
           57576         2.12416
           57577         2.10661
           57578         2.10867
           57579         2.13454
           57580         2.15144
           57581         2.19739
           57582         2.21018
           57583         2.15680
           57584         2.17586
           57585         2.16287
           57586         2.16781
           57587         2.15221
           57588         6.09018
           57589         6.15661
           57590         6.12650
           57591         6.04724
           57592         6.01366
           57593         6.06140
           57594         6.04695
           57595         6.02676
           57596         5.98268
           57597         5.94741
           57598         5.92473
           57599         5.90775
           57600         5.91035
           57601         2.56679
           57602         5.15242
           57603         5.17943
           57604         5.20991
           57605         5.24161
           57606         2.50576
           57607         2.60116
           57608         2.58486
           57609         2.56078
           57610         2.57630
           57611         2.53774
           57612         2.57991
           57613         2.55610
           57614         2.52633
           57615         2.53655
           57616     417.131E-03
           57617     407.974E-03
           57618     373.944E-03
           57619     423.361E-03
           57620     432.533E-03
           57621     468.418E-03
           57622     452.949E-03
           57623     417.293E-03
           57624     380.292E-03
           57625     346.000E-03
           57626     379.672E-03
           57627     356.407E-03
           57628     306.867E-03
           57629     333.259E-03
           57630     295.890E-03
           57631     319.490E-03
           57632     324.524E-03
           57633     271.129E-03
           57634     319.926E-03
           57635     311.131E-03
           57636     379.209E-03
           57637     428.213E-03
           57638     495.603E-03
           57639     444.318E-03
           57640     417.122E-03
           57641         5.40353
           57642         5.33140
           57643         5.33610
           57644     319.340E-03
           57645     367.668E-03
           57646     391.169E-03
           57647         5.61894
           57648         5.56729
           57649         5.56767
           57650         5.53818
           57651         5.53852
           57652         5.55558
           57653         5.51839
           57654         5.51888
           57655         5.53362
           57656         5.51577
           57657         5.51754
           57658         5.50318
           57659         3.01202
           57660         3.01845
           57661         3.10707
           57662         3.05251
           57663         3.04622
           57664         3.32537
           57665         3.27818
           57666         3.27974
           57667         3.24592
           57668         3.24474
           57669         3.17278
           57670         3.18386
           57671         3.18455
           57672         3.11260
           57673         3.17299
           57674         3.17938
           57675         3.10728
           57676         3.29120
           57677         3.17771
           57678         3.24034
           57679         3.11170
           57680         3.00443
           57681         3.05792
           57682         3.03789
           57683         3.09630
           57684         3.09109
           57685         3.16633
           57686         2.78132
           57687         2.76661
           57688         2.79298
           57689         2.75797
           57690         2.78808
           57691         2.78406
           57692         2.78527
           57693         5.73870
           57694         5.87728
           57695         5.87541
           57696         5.86959
           57697         4.88153
           57698         4.86006
           57699         4.97203
           57700         4.85163
           57701         5.07375
           57702         4.94123
           57703         4.98467
           57704         4.80140
           57705         5.05071
           57706         5.13904
           57707         5.25718
           57708         5.15290
           57709         5.31980
           57710         5.32826
           57711         5.33383
           57712         5.32722
           57713         5.20756
           57714         5.49753
           57715         5.50982
           57716         5.52785
           57717         5.23368
           57718         5.27483
           57719         5.33883
           57720         5.22493
           57721         5.16601
           57722         5.11362
           57723         5.62560
           57724         5.64538
           57725         5.50713
           57726         5.31853
           57727         5.21334
           57728         5.25996
           57729         5.20451
           57730         1.44285
           57731         1.39655
           57732         1.60755
           57733         1.59534
           57734         1.58178
           57735         1.41622
           57736         1.39867
           57737         1.45667
           57738         1.54946
           57739         6.71388
           57740         6.57764
           57741         6.71138
           57742         5.93830
           57743         6.03954
           57744         5.98640
           57745         6.03040
           57746         5.97717
           57747         6.02377
           57748         6.02847
           57749         6.09777
           57750         6.14080
           57751         6.06193
           57752         6.05414
           57753         6.09134
           57754         6.11699
           57755         6.21759
           57756         5.21468
           57757         5.25052
           57758         5.23479
           57759         5.27972
           57760         5.25019
           57761         5.30658
           57762         5.22508
           57763         5.37677
           57764         5.29233
           57765         5.16380
           57766         5.13969
           57767         5.13325
           57768         5.20270
           57769         5.28170
           57770         5.34171
           57771         5.15035
           57772         5.11822
           57773         3.84913
           57774         3.88548
           57775         4.02724
           57776         3.82352
           57777         3.77514
           57778         3.80813
           57779         3.70326
           57780         7.97370
           57781         8.33653
           57782         8.90441
           57783         8.84789
           57784         8.87609
           57785         8.75926
           57786         9.15594
           57787         7.80637
           57788         7.86438
           57789         7.87987
           57790         6.33755
           57791         6.39841
           57792         6.42306
           57793         6.30190
           57794         6.24420
           57795         3.53110
           57796         3.53091
           57797         3.57851
           57798         3.62600
           57799         3.62453
           57800         3.93321
           57801         3.91023
           57802         3.83514
           57803         3.85660
           57804         3.88763
           57805     832.277E-03
           57806     893.235E-03
           57807     971.009E-03
           57808         11.0086
           57809         10.3180
           57810         9.04196
           57811         8.05927
           57812         8.65305
           57813         9.73455
           57814         3.58304
           57815         3.60830
           57816         3.56051
           57817         3.61711
           57818         3.55481
           57819         3.55544
           57820         3.60549
           57821         2.10915
           57822         2.11862
           57823         2.12678
           57824         2.10481
           57825         2.08649
           57826         2.14985
           57827         2.15438
           57828         2.12977
           57829         2.20276
           57830         2.22224
           57831         2.16795
           57832         2.13526
           57833         2.13217
           57834         2.16486
           57835         2.14699
           57836         2.08796
           57837         2.12354
           57838         2.10799
           57839         2.11017
           57840         2.09075
           57841         2.10805
           57842         2.10942
           57843         2.10743
           57844         2.18636
           57845         2.15421
           57846         6.02558
           57847         2.22418
           57848         2.22637
           57849         2.32448
           57850         2.30031
           57851         2.35067
           57852         2.26785
           57853         2.91037
           57854         2.90206
           57855         2.97540
           57856         2.92176
           57857     10.8536E-03
           57858     23.0821E-03
           57859         2.94778
           57860         2.94761
           57861         2.88708
           57862         2.93074
           57863         2.97470
           57864         3.01884
           57865         2.95803
           57866         2.91383
           57867         2.92086
           57868         2.98643
           57869         3.05290
           57870         3.05289
           57871         3.04257
           57872         3.12874
           57873     754.879E-03
           57874     636.475E-03
           57875     690.241E-03
           57876     661.584E-03
           57877     593.014E-03
           57878     696.126E-03
           57879     646.640E-03
           57880     609.730E-03
           57881     642.131E-03
           57882         5.64970
           57883         5.65513
           57884         5.62254
           57885     669.701E-03
           57886     693.466E-03
           57887     617.923E-03
           57888     664.378E-03
           57889     596.197E-03
           57890     688.724E-03
           57891     668.645E-03
           57892     620.366E-03
           57893         6.48231
           57894         5.15161
           57895         5.98122
           57896         5.91913
           57897         5.86638
           57898         6.66625
           57899         6.55923
           57900         6.36243
           57901         6.50395
           57902         2.58104
           57903         2.58755
           57904         2.61702
           57905         2.59115
           57906         6.85468
           57907         6.95489
           57908         6.78152
           57909         7.17307
           57910         7.05351
           57911         6.87731
           57912         1.84416
           57913         1.85662
           57914         3.30246
           57915         4.77454
           57916         1.79839
           57917         1.01410
           57918         1.82908
           57919         1.96481
           57920         1.98001
           57921         1.85168
           57922         5.99390
           57923         6.02076
           57924         5.85276
           57925         5.83392
           57926         5.91198
           57927         5.64834
           57928         5.81893
           57929         5.78106
           57930         5.92918
           57931         5.75135
           57932         5.90963
           57933         6.05958
           57934         6.03184
           57935         6.23723
           57936         6.12455
           57937         6.09651
           57938     958.060E-03
           57939     939.746E-03
           57940     963.445E-03
           57941     837.983E-03
           57942     885.309E-03
           57943     905.139E-03
           57944     801.252E-03
           57945     896.882E-03
           57946     931.922E-03
           57947     936.118E-03
           57948         1.50416
           57949         1.31343
           57950         1.24582
           57951     784.500E-03
           57952     369.325E-03
           57953     395.024E-03
           57954     335.557E-03
           57955     605.493E-03
           57956     732.200E-03
           57957     615.590E-03
           57958     600.248E-03
           57959     596.526E-03
           57960         4.33133
           57961         4.27268
           57962         4.16670
           57963         4.23020
           57964         4.39233
           57965     299.289E-03
           57966     306.362E-03
           57967     332.928E-03
           57968     620.875E-03
           57969     519.473E-03
           57970     661.086E-03
           57971     650.236E-03
           57972         5.49469
           57973         5.63432
           57974     668.574E-03
           57975         5.81421
           57976         5.65874
           57977         5.85393
           57978         5.75604
           57979         16.4601
           57980         12.9010
           57981         11.4271
           57982         19.0310
           57983         5.52094
           57984         5.64965
           57985         5.56201
           57986         6.41373
           57987         6.25504
           57988         5.79420
           57989         11.4028
           57990         4.96417
           57991         4.99799
           57992         4.98248
           57993         5.06732
           57994         5.05201
           57995         5.04983
           57996         4.79527
           57997         4.67095
           57998         4.85424
           57999         5.04086
           58000         5.21421
           58001         5.34621
           58002         5.16390
           58003         5.23325
           58004         5.23220
           58005         5.24741
           58006         2.01612
           58007         2.04944
           58008         2.02421
           58009         2.00211
           58010         1.99351
           58011         2.55944
           58012         5.12394
           58013         5.05331
           58014         5.26044
           58015         4.85246
           58016         4.81642
           58017         4.89170
           58018         5.05962
           58019         5.55099
           58020         5.53210
           58021         4.63305
           58022         4.74152
           58023         4.89195
           58024         6.59244
           58025         6.54314
           58026         6.84544
           58027         6.60998
           58028         6.65927
           58029         6.36404
           58030         6.75486
           58031         7.03920
           58032         6.97808
           58033         6.92349
           58034         6.82134
           58035         6.79397
           58036         6.62905
           58037         6.72839
           58038         6.75596
           58039         2.98941
           58040         2.97363
           58041         2.94992
           58042         3.00788
           58043         7.39721
           58044         7.31089
           58045         3.70012
           58046         3.66430
           58047         3.61495
           58048         3.65178
           58049         3.68828
           58050         3.73962
           58051         6.99938
           58052         2.78037
           58053         2.07126
           58054         2.07221
           58055         6.64983
           58056         6.86010
           58057         6.97101
           58058         2.84545
           58059         2.87480
           58060         2.94152
           58061         2.88133
           58062         2.93901
           58063         2.87720
           58064         2.72937
           58065         2.89804
           58066         2.92869
           58067         3.90623
           58068         3.92144
           58069         4.01481
           58070         6.00685
           58071         6.14109
           58072         6.16880
           58073         6.16541
           58074         6.03764
           58075         6.00525
           58076         5.63249
           58077         5.57698
           58078         5.53996
           58079         5.53189
           58080         5.58262
           58081         5.61924
           58082         2.75597
           58083         2.80870
           58084         2.79307
           58085         2.83016
           58086         2.77801
           58087         2.66168
           58088         4.36307
           58089         4.31831
           58090         4.48353
           58091         4.47587
           58092         4.48736
           58093         4.44340
           58094         4.44004
           58095         4.60657
           58096         4.21102
           58097         4.15197
           58098         4.20731
           58099         5.33496
           58100         5.24054
           58101         5.19159
           58102         5.21206
           58103         9.03714
           58104         5.24677
           58105         5.18737
           58106         5.19615
           58107         5.21860
           58108         6.16867
           58109         6.40534
           58110         6.30809
           58111         6.32061
           58112         6.46828
           58113         6.43599
           58114         6.42150
           58115         6.42518
           58116         6.38478
           58117         4.75767
           58118         4.55540
           58119         5.00160
           58120         4.98445
           58121         5.01557
           58122         5.07546
           58123         4.63979
           58124         4.51583
           58125         4.51653
           58126         5.04435
           58127         4.56248
           58128         4.58872
           58129         4.42886
           58130         2.52453
           58131         2.50134
           58132         2.45153
           58133         2.45329
           58134         2.44077
           58135         2.40275
           58136         2.30643
           58137         2.39514
           58138         2.45112
           58139         2.36228
           58140         2.52908
           58141         2.60941
           58142         3.81710
           58143         2.43012
           58144         2.31378
           58145         2.41704
           58146         2.22684
           58147         2.26595
           58148         2.26607
           58149         2.19255
           58150     17.7925E-03
           58151     12.7223E-03
           58152     569.739E-03
           58153     595.388E-03
           58154     518.145E-03
           58155         2.31975
           58156         2.04595
           58157         1.97552
           58158         2.05728
           58159         2.09184
           58160         2.01012
           58161         2.20895
           58162         2.23963
           58163         2.27901
           58164         2.20136
           58165         2.24872
           58166         2.15452
           58167         2.13257
           58168         2.16901
           58169         2.22222
           58170         2.14330
           58171         2.12211
           58172         2.14389
           58173         2.18731
           58174         2.19186
           58175         2.27761
           58176         2.29306
           58177         2.27635
           58178         2.22006
           58179         2.08151
           58180         2.08262
           58181         2.08563
           58182         2.04446
           58183         2.17210
           58184         2.16474
           58185         2.13095
           58186         2.24427
           58187         2.23145
           58188         2.22726
           58189         2.23855
           58190         2.30922
           58191         2.36904
           58192         2.38045
           58193         2.38980
           58194         2.23273
           58195         1.10166
           58196         1.18154
           58197         1.02137
           58198     948.618E-03
           58199         1.04893
           58200         2.62720
           58201         2.61366
           58202         2.60622
           58203         2.62635
           58204         1.50509
           58205         1.60443
           58206         1.51509
           58207         1.56894
           58208         1.46915
           58209         1.56018
           58210     689.875E-03
           58211         2.43216
           58212         2.44483
           58213         2.46235
           58214         2.43909
           58215         1.46257
           58216         1.44861
           58217         1.48057
           58218         1.53514
           58219         1.54250
           58220         1.49406
           58221         1.48077
           58222         1.56531
           58223         1.65556
           58224         1.67177
           58225         1.63433
           58226         1.61780
           58227         1.67197
           58228         1.68833
           58229         4.27799
           58230         4.27221
           58231         4.39860
           58232         4.40321
           58233         4.31701
           58234         1.48133
           58235         1.63888
           58236         1.60425
           58237         1.63794
           58238         1.69553
           58239         6.24165
           58240         6.44842
           58241         6.23753
           58242         6.05148
           58243         6.09719
           58244         5.91324
           58245         5.85797
           58246         5.81974
           58247         5.75856
           58248         5.81347
           58249         6.28296
           58250         6.32046
           58251         6.13713
           58252         5.77148
           58253         5.50773
           58254         5.63363
           58255         5.57262
           58256         5.82746
           58257         5.69966
           58258         5.47809
           58259         5.21587
           58260         5.34344
           58261         5.84599
           58262         5.96815
           58263         5.86081
           58264         2.63656
           58265         2.64759
           58266         5.72659
           58267         2.80012
           58268         2.78228
           58269         2.79809
           58270         2.76901
           58271         5.70767
           58272         5.70774
           58273         5.27303
           58274         5.21052
           58275         5.16585
           58276         5.20734
           58277         5.19851
           58278         5.24731
           58279         5.20323
           58280         5.25303
           58281     49.9357E-03
           58282     35.4756E-03
           58283     58.6864E-03
           58284     69.2439E-03
           58285         5.31303
           58286         5.27929
           58287         5.32369
           58288         5.19039
           58289         5.21711
           58290         5.22696
           58291         5.33132
           58292         5.31552
           58293         5.25715
           58294         3.24551
           58295         3.22768
           58296         3.19233
           58297         3.16681
           58298         3.18357
           58299         3.21919
           58300         3.18557
           58301         3.16861
           58302         3.22772
           58303         3.24544
           58304         3.22104
           58305         3.24962
           58306         3.24195
           58307         3.17472
           58308         3.20694
           58309         3.12269
           58310         3.09084
           58311         2.24899
           58312         2.28458
           58313         2.23217
           58314         2.83357
           58315         2.84412
           58316         2.83844
           58317         2.86549
           58318         2.84962
           58319         2.86077
           58320         2.82537
           58321         2.83587
           58322         2.78091
           58323         2.79644
           58324         2.78025
           58325         2.78172
           58326         2.80157
           58327         2.78585
           58328         2.76646
           58329         2.78700
           58330         2.79646
           58331         2.77455
           58332         2.77992
           58333         2.78798
           58334         2.79507
           58335         2.80572
           58336         2.81577
           58337         2.80760
           58338         2.77351
           58339         2.76321
           58340         2.77734
           58341         4.53932
           58342         4.39761
           58343         4.45153
           58344         4.44976
           58345         4.59314
           58346         4.53720
           58347         4.63061
           58348         4.71463
           58349         4.64234
           58350         4.60440
           58351         4.55823
           58352         4.47233
           58353         4.51034
           58354         4.55553
           58355         4.68837
           58356         4.67640
           58357     123.185E-03
           58358     140.290E-03
           58359     98.4102E-03
           58360     82.0716E-03
           58361     126.820E-03
           58362     163.361E-03
           58363     143.820E-03
           58364     162.387E-03
           58365     152.770E-03
           58366     182.715E-03
           58367         4.25084
           58368         4.19746
           58369     108.682E-03
           58370     69.1510E-03
           58371     212.390E-03
           58372     160.338E-03
           58373     199.250E-03
           58374     148.005E-03
           58375     183.921E-03
           58376     169.801E-03
           58377         4.76807
           58378         4.75806
           58379         5.69417
           58380         5.64615
           58381         5.59081
           58382         5.53692
           58383         5.57803
           58384         5.63927
           58385         5.60433
           58386         5.55699
           58387         5.59725
           58388         5.63625
           58389         5.68262
           58390         5.32835
           58391         5.21691
           58392         5.49695
           58393         5.44000
           58394         5.54283
           58395         5.59931
           58396         5.49916
           58397         5.58931
           58398         5.67265
           58399         5.59794
           58400         5.62873
           58401         5.54480
           58402         5.61736
           58403         5.60683
           58404         5.68089
           58405         5.50301
           58406         5.48559
           58407         5.41083
           58408         5.59275
           58409         5.50057
           58410         5.50380
           58411         5.52244
           58412         5.45461
           58413         5.43379
           58414         2.01059
           58415         1.94487
           58416         1.95830
           58417         1.87904
           58418         1.94195
           58419         1.92505
           58420         1.88003
           58421         1.86637
           58422         1.95186
           58423         1.93074
           58424         1.94841
           58425         1.93645
           58426         1.90261
           58427         2.16154
           58428         2.11880
           58429         2.10914
           58430         2.23841
           58431         1.94473
           58432         1.96547
           58433         1.88565
           58434         5.43924
           58435         5.42393
           58436         5.37466
           58437         5.41822
           58438         5.48583
           58439     87.8154E-03
           58440     87.8470E-03
           58441         7.45645
           58442         16.4197
           58443         17.9583
           58444         14.2166
           58445         17.7282
           58446         16.7169
           58447         21.5306
           58448         2.77608
           58449         2.79114
           58450         2.79037
           58451         10.0299
           58452         9.44209
           58453         9.77360
           58454         9.39452
           58455         9.08858
           58456         2.88073
           58457         5.55709
           58458         5.59089
           58459         2.74574
           58460         2.76535
           58461         2.75810
           58462         7.10810
           58463         7.05344
           58464         6.87153
           58465         2.76106
           58466         2.76495
           58467         2.76345
           58468         4.38731
           58469         4.39427
           58470         2.74981
           58471         2.76858
           58472         5.54916
           58473         5.53015
           58474         5.58553
           58475         5.64372
           58476         5.46941
           58477         6.15812
           58478         6.10344
           58479         6.29826
           58480         6.50723
           58481         6.56885
           58482         6.37929
           58483         5.66315
           58484         5.39416
           58485         5.34211
           58486         2.98515
           58487         4.04713
           58488         3.93426
           58489         4.00582
           58490         5.49928
           58491         5.59494
           58492     580.519E-03
           58493     457.829E-03
           58494     780.026E-03
           58495     552.921E-03
           58496         3.01625
           58497         4.38156
           58498         1.31773
           58499         6.00312
           58500         6.05640
           58501         2.83474
           58502         1.35225
           58503         1.16465
           58504         1.29323
           58505         1.24436
           58506         1.56439
           58507         3.00155
           58508         3.01015
           58509         2.87348
           58510     724.483E-03
           58511     701.133E-03
           58512     708.646E-03
           58513     704.885E-03
           58514     775.735E-03
           58515         2.87919
           58516         2.89233
           58517     583.719E-03
           58518     627.284E-03
           58519     703.876E-03
           58520     705.110E-03
           58521     770.743E-03
           58522         1.08261
           58523     935.987E-03
           58524     792.168E-03
           58525     635.462E-03
           58526     771.128E-03
           58527     630.459E-03
           58528     643.789E-03
           58529     608.588E-03
           58530     260.606E-03
           58531     237.824E-03
           58532     214.709E-03
           58533     241.905E-03
           58534     289.236E-03
           58535         1.12907
           58536         1.03821
           58537     726.940E-03
           58538     693.499E-03
           58539     651.580E-03
           58540     700.193E-03
           58541     681.145E-03
           58542     708.236E-03
           58543     560.121E-03
           58544     609.818E-03
           58545         2.55586
           58546         2.57754
           58547         2.59925
           58548         2.53369
           58549         2.54139
           58550         2.60534
           58551         2.58187
           58552         2.53012
           58553         2.53715
           58554         1.27561
           58555         1.52945
           58556         1.56234
           58557         1.27448
           58558         1.48540
           58559         2.57526
           58560         2.53329
           58561         2.51924
           58562         2.16992
           58563         2.06626
           58564     963.027E-03
           58565     914.058E-03
           58566         2.06958
           58567         2.17152
           58568         2.74976
           58569         2.74645
           58570         2.75769
           58571         2.41586
           58572         2.48027
           58573         2.60963
           58574         2.55931
           58575         2.32855
           58576         2.34379
           58577         2.28436
           58578         2.55737
           58579         6.41417
           58580         6.30029
           58581         2.67693
           58582         2.67648
           58583         2.67902
           58584         2.68096
           58585         2.67781
           58586         2.67599
           58587         2.67664
           58588         2.68261
           58589         3.73501
           58590         3.72922
           58591         3.73489
           58592         3.66477
           58593         2.67737
           58594         2.67708
           58595         6.13043
           58596         6.05362
           58597         6.32306
           58598         6.55059
           58599         6.63226
           58600         2.67391
           58601         2.67313
           58602         9.16199
           58603         9.49839
           58604         8.37070
           58605         9.10894
           58606         9.84808
           58607         7.99515
           58608         7.79967
           58609         8.96928
           58610         9.14265
           58611         10.2217
           58612         9.02328
           58613         7.33990
           58614         8.38985
           58615         9.37517
           58616         10.9034
           58617         9.35617
           58618         9.89158
           58619         1.32126
           58620         7.17104
           58621         6.72868
           58622         7.39385
           58623         7.09812
           58624         15.5010
           58625         18.4856
           58626         15.2868
           58627         15.2275
           58628         12.2843
           58629         15.4039
           58630         2.92716
           58631         2.84482
           58632         7.71363
           58633         7.82124
           58634         8.10329
           58635         8.30622
           58636         6.46013
           58637         6.46250
           58638         1.47253
           58639         1.50197
           58640         1.61491
           58641         1.67328
           58642         1.63561
           58643         1.67191
           58644         1.64560
           58645         1.60295
           58646         1.60856
           58647         1.59024
           58648         1.58176
           58649         1.60663
           58650         1.64742
           58651         1.60909
           58652         2.89058
           58653         2.88174
           58654         2.83600
           58655         2.87293
           58656         3.17329
           58657         3.13918
           58658         3.12510
           58659         3.12809
           58660         3.17717
           58661         1.25879
           58662         1.20524
           58663         1.21296
           58664         1.27253
           58665         1.37375
           58666         4.46688
           58667         1.49601
           58668         1.22983
           58669         1.28095
           58670         1.03933
           58671     831.934E-03
           58672     954.448E-03
           58673         1.13702
           58674         1.34290
           58675         1.24636
           58676         2.27236
           58677         2.13058
           58678         1.56701
           58679         1.20747
           58680         1.27628
           58681         1.37679
           58682         1.41321
           58683         2.76016
           58684         2.87173
           58685         2.92172
           58686         2.72222
           58687         5.58887
           58688         5.56787
           58689         2.76129
           58690         2.73499
           58691         2.72062
           58692         3.16713
           58693         2.49613
           58694         2.50087
           58695         3.21387
           58696         3.38282
           58697         3.30626
           58698         2.63252
           58699         2.64319
           58700         2.66073
           58701         2.26261
           58702         2.29775
           58703         2.28712
           58704         2.31384
           58705         2.27920
           58706         2.28929
           58707         2.31511
           58708         2.32474
           58709         2.28860
           58710         2.23560
           58711         2.20093
           58712         2.21793
           58713         2.21105
           58714         2.24602
           58715         2.22930
           58716         2.22500
           58717         2.30389
           58718         2.28869
           58719         2.55953
           58720         2.55524
           58721         2.56287
           58722         2.55605
           58723         2.56023
           58724         1.83875
           58725         1.83895
           58726         1.87611
           58727         1.87159
           58728         1.92398
           58729         2.21957
           58730     955.538E-03
           58731     968.646E-03
           58732         1.02605
           58733         1.00956
           58734     999.164E-03
           58735     938.959E-03
           58736         2.45951
           58737         2.45133
           58738         2.44525
           58739         2.47416
           58740         2.36733
           58741         2.34948
           58742         2.39191
           58743         2.35569
           58744         2.38180
           58745         2.41308
           58746         2.42987
           58747         2.43117
           58748         1.98037
           58749         2.04235
           58750         2.00225
           58751         1.97651
           58752         2.01607
           58753         1.98952
           58754         2.05021
           58755         2.02452
           58756         1.98027
           58757         2.01633
           58758         5.98359
           58759         1.90864
           58760         1.91351
           58761         1.87976
           58762         1.93426
           58763         1.85748
           58764         1.88501
           58765         3.00905
           58766         3.01152
           58767         1.85210
           58768         1.82971
           58769         1.83448
           58770         1.78508
           58771         1.80269
           58772         2.03834
           58773         2.08261
           58774         2.13363
           58775         2.09016
           58776         2.08927
           58777         1.95471
           58778         1.97842
           58779         1.97004
           58780         2.71209
           58781         1.84481
           58782         1.86369
           58783         1.87315
           58784         5.41053
           58785         5.42431
           58786         5.44749
           58787         5.42632
           58788         2.73275
           58789         2.74284
           58790         2.76066
           58791         2.75069
           58792         5.52382
           58793         5.49437
           58794         5.51977
           58795         5.43789
           58796         5.45232
           58797         5.42869
           58798         2.05885
           58799         2.11015
           58800         2.09145
           58801         1.99840
           58802     443.329E-03
           58803     263.792E-03
           58804     288.823E-03
           58805     271.065E-03
           58806     553.729E-03
           58807     582.448E-03
           58808         2.54220
           58809         2.56034
           58810         2.55606
           58811         2.55458
           58812     500.802E-03
           58813     491.542E-03
           58814     377.970E-03
           58815     373.188E-03
           58816     496.498E-03
           58817     488.438E-03
           58818         5.95607
           58819         6.09058
           58820         6.77341
           58821         6.63898
           58822         6.63002
           58823         5.65165
           58824         5.65312
           58825         5.67416
           58826         5.65870
           58827         5.95260
           58828         5.89333
           58829         5.92913
           58830         5.99412
           58831         6.02790
           58832         1.18339
           58833         1.30640
           58834         1.35396
           58835         6.17430
           58836         6.20516
           58837         5.83938
           58838         5.76230
           58839         5.80453
           58840         5.94000
           58841         6.04143
           58842         5.99061
           58843         5.89981
           58844         7.94259
           58845         7.61491
           58846         6.05072
           58847         3.26912
           58848         4.81733
           58849         5.14609
           58850         4.09588
           58851         3.19544
           58852         2.14203
           58853         3.76878
           58854         3.77992
           58855         3.81488
           58856         3.92066
           58857         3.90859
           58858         3.87452
           58859         5.30521
           58860         5.31245
           58861         5.27093
           58862         5.33239
           58863         1.41588
           58864     18.7969E-03
           58865     28.3847E-03
           58866     20.5209E-03
           58867     126.907E-03
           58868         2.56773
           58869         2.56912
           58870         2.56487
           58871         2.58030
           58872         2.57860
           58873         3.36951
           58874         3.34495
           58875         3.18952
           58876         3.34156
           58877         4.17569
           58878         4.27943
           58879         2.55313
           58880         2.54907
           58881         2.56206
           58882         2.55572
           58883         2.55961
           58884         2.54686
           58885         1.63949
           58886         2.54903
           58887         2.55383
           58888         2.55823
           58889         2.54548
           58890         9.51487
           58891         9.84458
           58892         14.4823
           58893         2.57607
           58894         2.58955
           58895         2.58739
           58896         2.55198
           58897         2.55783
           58898         2.54561
           58899         3.67680
           58900         3.70114
           58901         3.77491
           58902         1.94905
           58903         1.92560
           58904         1.92999
           58905         1.89913
           58906         1.92021
           58907         1.91401
           58908         3.75036
           58909         3.19040
           58910         3.24422
           58911         3.26127
           58912         3.28891
           58913         3.23298
           58914         3.21588
           58915         5.69477
           58916         5.56439
           58917         5.63550
           58918         1.88596
           58919         1.88194
           58920         3.10834
           58921         3.08522
           58922         3.06026
           58923         3.08172
           58924         3.13130
           58925         1.93450
           58926         1.90771
           58927         1.98437
           58928         2.00591
           58929         1.89378
           58930         1.88848
           58931         6.80508
           58932         6.83421
           58933         7.08453
           58934         7.05146
           58935         6.92410
           58936         1.89985
           58937         3.80286
           58938         3.62328
           58939         3.70204
           58940         6.24815
           58941         6.51871
           58942         6.43542
           58943         6.29797
           58944         4.53403
           58945         4.49623
           58946         4.61067
           58947         10.1614
           58948         4.54560
           58949         4.58727
           58950         4.44630
           58951         4.42724
           58952         4.38461
           58953         4.40336
           58954         4.49718
           58955         5.37962
           58956         5.38529
           58957         5.31929
           58958         5.37285
           58959     368.209E-03
           58960     390.581E-03
           58961     309.746E-03
           58962         4.41416
           58963         4.37873
           58964         4.39006
           58965         4.18813
           58966         4.32555
           58967         4.25637
           58968         4.37471
           58969         4.30427
           58970         8.73712
           58971         4.27129
           58972         4.38457
           58973         4.39969
           58974     67.0964E-03
           58975     80.6389E-03
           58976     55.2698E-03
           58977     64.8405E-03
           58978     81.9653E-03
           58979         8.94567
           58980         8.03185
           58981     451.699E-03
           58982     525.277E-03
           58983         1.38413
           58984     826.092E-03
           58985     724.074E-03
           58986         2.35981
           58987         2.31039
           58988         2.21408
           58989         2.11141
           58990         2.07101
           58991         2.00534
           58992         2.03368
           58993         1.90320
           58994         1.92455
           58995         1.88924
           58996         1.86306
           58997         1.87599
           58998         5.57953
           58999         5.55922
           59000         5.63763
           59001         5.68370
           59002         4.58323
           59003         5.68610
           59004         5.70382
           59005         5.72493
           59006         5.68618
           59007         5.64547
           59008         5.69039
           59009         5.73419
           59010         5.71149
           59011         4.35316
           59012         4.34831
           59013         4.24841
           59014         4.19988
           59015         4.20497
           59016         4.30547
           59017         4.85149
           59018         4.90326
           59019         4.99206
           59020         5.02645
           59021         22.5922
           59022         25.5999
           59023         18.4045
           59024         2.81045
           59025         2.85691
           59026         2.75909
           59027         14.1671
           59028         14.2430
           59029         4.76986
           59030         4.61177
           59031         4.66359
           59032         4.72544
           59033         4.78197
           59034         4.93270
           59035         4.83180
           59036         4.88930
           59037         4.73884
           59038         4.77131
           59039         4.92177
           59040         4.75252
           59041         3.62233
           59042         3.35363
           59043         3.14472
           59044         3.24728
           59045         4.61653
           59046         4.47436
           59047         4.55567
           59048         4.57406
           59049         4.64530
           59050         4.50105
           59051         11.5453
           59052         9.86929
           59053         4.65233
           59054         4.59628
           59055         4.58290
           59056         4.82199
           59057         4.69835
           59058         1.99346
           59059         2.01861
           59060         1.97872
           59061         2.02835
           59062         2.00462
           59063         2.04278
           59064         1.97638
           59065         2.02573
           59066         2.01926
           59067         1.96996
           59068         1.94160
           59069         1.93453
           59070         1.91794
           59071         1.90685
           59072         1.97908
           59073         1.93954
           59074         1.91765
           59075         1.92916
           59076         1.95174
           59077         3.05028
           59078         3.05259
           59079         3.36635
           59080         3.76166
           59081         3.83291
           59082         3.66329
           59083         3.92710
           59084         3.79176
           59085         3.73112
           59086         3.57017
           59087         3.69858
           59088         1.06927
           59089         1.20044
           59090         3.20848
           59091         3.27460
           59092         1.54769
           59093         1.45814
           59094         1.47401
           59095         1.54737
           59096         2.65227
           59097         2.65677
           59098         2.69830
           59099         2.71487
           59100         2.71189
           59101         2.66935
           59102         3.59163
           59103         3.60419
           59104     834.660E-03
           59105     836.372E-03
           59106         3.12886
           59107         3.24977
           59108         3.49995
           59109         3.51797
           59110         3.47590
           59111         3.45814
           59112         3.52919
           59113         9.61106
           59114         9.98271
           59115         4.12227
           59116         4.18921
           59117         4.23546
           59118         4.22427
           59119         3.34244
           59120         3.32986
           59121         3.29747
           59122         3.33141
           59123         2.81221
           59124         5.16893
           59125         5.39646
           59126         3.40432
           59127         3.40207
           59128         3.42862
           59129         3.37067
           59130         3.37340
           59131         3.34842
           59132         1.89624
           59133         1.92029
           59134         3.75282
           59135         3.67176
           59136         3.80445
           59137         4.60503
           59138         3.13281
           59139         3.26408
           59140         3.25041
           59141         3.23759
           59142         2.42973
           59143         2.35971
           59144         2.42157
           59145         2.39686
           59146         5.18863
           59147         2.39260
           59148         2.36888
           59149         2.37645
           59150         2.36462
           59151         2.40972
           59152         2.40991
           59153         2.41734
           59154         2.42993
           59155         2.39634
           59156         1.18987
           59157         1.22113
           59158         1.16212
           59159         1.12620
           59160         1.21264
           59161         1.24888
           59162         1.21244
           59163         1.17236
           59164         1.17220
           59165     48.1476E-03
           59166     26.3811E-03
           59167         1.06158
           59168     990.874E-03
           59169         1.01246
           59170         1.02298
           59171         1.06361
           59172         1.00981
           59173         1.01273
           59174     939.584E-03
           59175     993.390E-03
           59176     991.799E-03
           59177         1.06391
           59178     366.042E-03
           59179         1.17252
           59180         2.52263
           59181         2.44140
           59182         2.51413
           59183         2.54602
           59184         2.70450
           59185         2.66021
           59186         2.70233
           59187         2.72017
           59188         2.68605
           59189         2.74878
           59190         2.69107
           59191         3.68123
           59192         3.61279
           59193         2.50799
           59194         2.61501
           59195         2.74397
           59196         2.72650
           59197         2.69524
           59198         2.65429
           59199         5.48288
           59200         5.41492
           59201         5.49601
           59202         5.83258
           59203         5.81413
           59204         5.78566
           59205         5.64464
           59206         5.80448
           59207         5.69230
           59208         5.61332
           59209         5.59480
           59210         5.50271
           59211         5.64170
           59212         5.78253
           59213         5.83057
           59214         5.79931
           59215         1.22611
           59216         1.26881
           59217         5.62335
           59218         5.70225
           59219         5.52589
           59220         2.56422
           59221         2.56546
           59222         2.56298
           59223         2.57595
           59224         2.56979
           59225         2.56103
           59226         3.15512
           59227         2.61008
           59228         2.61126
           59229         5.22752
           59230     572.091E-03
           59231     542.269E-03
           59232     552.945E-03
           59233     525.096E-03
           59234     617.538E-03
           59235     632.576E-03
           59236     619.403E-03
           59237         4.11472
           59238         4.34646
           59239         4.11553
           59240     653.321E-03
           59241     553.493E-03
           59242     592.799E-03
           59243     600.188E-03
           59244     600.294E-03
           59245     663.018E-03
           59246     642.014E-03
           59247     740.866E-03
           59248     711.386E-03
           59249     808.973E-03
           59250     632.388E-03
           59251     820.837E-03
           59252         8.12885
           59253     932.807E-03
           59254         6.09718
           59255         6.00078
           59256         6.09186
           59257         6.19242
           59258         6.16287
           59259         5.91768
           59260         6.25133
           59261         6.21053
           59262         6.57993
           59263         6.03767
           59264         6.16324
           59265         5.97254
           59266         6.11953
           59267         6.02423
           59268         2.49065
           59269         2.48015
           59270         2.49134
           59271         2.47258
           59272         2.48314
           59273         8.46769
           59274         8.22084
           59275         8.47275
           59276         2.45085
           59277         2.45102
           59278         2.46060
           59279         2.45729
           59280         2.45770
           59281         2.44747
           59282         2.45898
           59283         2.44883
           59284         2.44583
           59285         2.45400
           59286         2.44436
           59287         2.45525
           59288         2.45024
           59289         2.68346
           59290         2.68658
           59291         2.68194
           59292         2.68469
           59293     466.220E-03
           59294     689.120E-03
           59295         2.67910
           59296         2.68247
           59297         2.68094
           59298         2.68572
           59299         2.68600
           59300     742.002E-03
           59301     632.649E-03
           59302     552.001E-03
           59303     659.368E-03
           59304         2.67644
           59305         2.67727
           59306         2.67434
           59307         2.67817
           59308         2.67648
           59309         1.24701
           59310         1.14493
           59311         1.17339
           59312         1.27570
           59313         1.25752
           59314         1.12697
           59315     953.718E-03
           59316     835.804E-03
           59317     927.489E-03
           59318         1.54927
           59319         1.27525
           59320         1.27139
           59321         2.68079
           59322         2.67877
           59323         2.67706
           59324         2.67765
           59325     27.4073E-03
           59326     51.8842E-03
           59327     30.0037E-03
           59328     28.4535E-03
           59329     12.9906E-03
           59330     25.7957E-03
           59331         2.67574
           59332         5.60652
           59333         5.59462
           59334         5.61135
           59335         5.55262
           59336         5.62337
           59337         5.61382
           59338         5.50665
           59339         5.56320
           59340         5.52594
           59341         5.63551
           59342         5.64171
           59343     602.286E-03
           59344     602.469E-03
           59345     489.327E-03
           59346     411.594E-03
           59347     456.268E-03
           59348     525.190E-03
           59349         2.85055
           59350         2.66305
           59351         8.22588
           59352         7.85609
           59353         8.06905
           59354         7.81655
           59355         8.15596
           59356         7.94188
           59357         8.02979
           59358         7.87642
           59359         5.26401
           59360         5.17754
           59361         5.10871
           59362         5.11703
           59363         5.20280
           59364     338.482E-03
           59365     408.653E-03
           59366         7.82202
           59367         8.09505
           59368         5.12330
           59369         5.02106
           59370         5.07690
           59371         5.01738
           59372         4.48602
           59373         4.42303
           59374         4.55615
           59375         4.50952
           59376         5.03499
           59377         5.09489
           59378         5.03035
           59379         5.22803
           59380         5.34348
           59381         5.20186
           59382         5.25058
           59383         5.13603
           59384         5.27723
           59385         5.32396
           59386         5.20829
           59387         5.40819
           59388         5.32134
           59389         5.47580
           59390         2.57477
           59391         2.57337
           59392         2.58000
           59393         2.60398
           59394         8.77479
           59395         9.11432
           59396         9.05459
           59397         8.71079
           59398         9.05871
           59399         4.57206
           59400         4.48144
           59401         4.43166
           59402         4.50962
           59403         2.24385
           59404         9.16190
           59405         8.88496
           59406         9.19555
           59407         8.88406
           59408         9.15745
           59409         8.22468
           59410         8.50646
           59411         8.26106
           59412         8.66206
           59413         8.96318
           59414         2.80113
           59415         2.75495
           59416         2.75620
           59417         2.77134
           59418         2.71259
           59419         2.65415
           59420         2.64544
           59421         2.67333
           59422         2.66113
           59423         2.68115
           59424         2.64652
           59425         2.66254
           59426         2.68074
           59427         2.68472
           59428         2.65357
           59429         2.62453
           59430         2.63851
           59431         2.70475
           59432         2.69969
           59433         2.70232
           59434         2.70498
           59435         2.69974
           59436         3.99717
           59437         4.00495
           59438         2.76650
           59439         2.78264
           59440         2.76762
           59441         2.78228
           59442         2.78701
           59443         2.77243
           59444         2.80522
           59445         2.80649
           59446         2.80574
           59447         2.78796
           59448         2.82877
           59449         2.80812
           59450         2.81396
           59451         2.79307
           59452         2.81184
           59453         1.66533
           59454         1.95271
           59455         1.88323
           59456         1.97184
           59457         1.86903
           59458         1.93930
           59459         2.57533
           59460         2.55650
           59461         2.57466
           59462         2.64859
           59463         1.59837
           59464         1.57387
           59465         1.34175
           59466         1.42834
           59467         1.38394
           59468         1.47765
           59469         1.38910
           59470         1.29880
           59471         1.30517
           59472         1.60922
           59473         1.67758
           59474     710.401E-03
           59475     645.671E-03
           59476         1.51187
           59477         1.44182
           59478         1.53234
           59479         2.19615
           59480         2.16170
           59481         2.11713
           59482         3.98494
           59483         3.96253
           59484         4.12556
           59485         3.99806
           59486         1.56006
           59487         1.63099
           59488         1.62457
           59489         1.19821
           59490         1.26952
           59491         1.24250
           59492         1.27609
           59493         1.20358
           59494         1.23065
           59495         1.26343
           59496         1.23521
           59497         1.90464
           59498         1.82083
           59499         1.98606
           59500         5.62519
           59501         5.58785
           59502         5.64753
           59503         1.78381
           59504         1.78823
           59505         2.25392
           59506         2.30327
           59507         1.76321
           59508         1.79611
           59509         1.95807
           59510         2.09666
           59511         2.08936
           59512         1.98276
           59513         3.53767
           59514         3.29001
           59515         3.11639
           59516         3.23650
           59517         3.31604
           59518         12.2825
           59519         10.5454
           59520         10.1331
           59521         10.5333
           59522         11.3088
           59523         3.72927
           59524         3.88775
           59525         4.25427
           59526         3.35140
           59527         3.21757
           59528         3.13648
           59529         3.07446
           59530         3.29019
           59531         3.70486
           59532         3.66155
           59533         3.50850
           59534         3.49182
           59535         3.58476
           59536         3.71333
           59537         3.66141
           59538         2.67685
           59539         2.68284
           59540         2.67743
           59541         2.68066
           59542     552.669E-03
           59543     820.348E-03
           59544     788.264E-03
           59545     508.662E-03
           59546     292.790E-03
           59547         2.68649
           59548         2.67494
           59549         2.67406
           59550         2.67476
           59551         2.68633
           59552         2.68794
           59553         2.69200
           59554         2.69107
           59555         2.68576
           59556         2.68368
           59557         2.68840
           59558         1.41367
           59559         1.53576
           59560         1.58154
           59561         1.40647
           59562         1.29896
           59563         1.40059
           59564         1.38824
           59565         2.67033
           59566         2.68016
           59567         2.66792
           59568         1.53806
           59569         2.69115
           59570         2.69198
           59571         2.68856
           59572         2.68284
           59573         2.68314
           59574         5.68135
           59575         5.75453
           59576         5.80960
           59577         5.09976
           59578         5.21713
           59579         5.75021
           59580         8.85553
           59581         8.55229
           59582         8.81404
           59583         5.70584
           59584         1.41971
           59585         1.29665
           59586         1.49973
           59587         1.55871
           59588         1.69602
           59589         1.47457
           59590         1.29365
           59591         1.42522
           59592         1.35261
           59593         1.30795
           59594         1.22384
           59595         5.36337
           59596         5.46109
           59597         5.31688
           59598         1.35081
           59599         1.09622
           59600         1.17751
           59601         1.15364
           59602         1.17430
           59603         1.15012
           59604         1.35060
           59605         1.26879
           59606         2.56457
           59607         2.55747
           59608         2.55607
           59609         2.56379
           59610         2.56307
           59611         5.27960
           59612         5.23150
           59613         5.14152
           59614         5.05988
           59615         3.69011
           59616         3.79412
           59617         3.95538
           59618         3.85800
           59619         2.55417
           59620         2.56177
           59621         2.55353
           59622         2.55601
           59623         2.54736
           59624         2.56673
           59625         2.57274
           59626         2.56872
           59627         2.56871
           59628         2.56588
           59629         2.54161
           59630         2.55073
           59631         2.55902
           59632         2.54896
           59633         2.54417
           59634         2.55443
           59635         3.28665
           59636         3.40699
           59637         3.33317
           59638         5.63935
           59639         5.64494
           59640         5.65223
           59641         5.61356
           59642         5.60605
           59643         5.59866
           59644     633.116E-03
           59645     602.609E-03
           59646     637.791E-03
           59647         5.65573
           59648         5.64545
           59649         5.60409
           59650         5.65071
           59651         5.60859
           59652         5.64190
           59653         1.44226
           59654         1.36631
           59655         3.65477
           59656         3.52992
           59657         3.59957
           59658         3.71207
           59659         3.74317
           59660         3.67248
           59661         1.33319
           59662         1.38066
           59663         1.33406
           59664         1.25558
           59665         1.25256
           59666         3.70526
           59667         3.70294
           59668         3.83017
           59669         3.87316
           59670         3.87795
           59671         3.75170
           59672         2.85724
           59673         3.70621
           59674     839.507E-03
           59675     781.949E-03
           59676         4.34623
           59677         5.17533
           59678         4.39386
           59679         4.35240
           59680         3.81156
           59681         3.80814
           59682         3.90593
           59683         3.83460
           59684         3.83791
           59685         4.55409
           59686         4.36995
           59687         4.44249
           59688         4.01210
           59689         2.04954
           59690         2.02091
           59691         2.06506
           59692         2.04126
           59693         1.99719
           59694         3.77686
           59695         3.77721
           59696         3.83003
           59697         3.90142
           59698         3.79871
           59699         5.38300
           59700         5.31845
           59701         5.39349
           59702         5.94237
           59703         5.72360
           59704         5.80079
           59705         5.90716
           59706         6.02199
           59707         3.77454
           59708         3.79778
           59709         5.91861
           59710         5.81657
           59711         5.92242
           59712         5.75255
           59713         5.85409
           59714         9.17713
           59715         5.70354
           59716         5.70946
           59717         7.99235
           59718         2.09024
           59719         4.24938
           59720     71.2042E-03
           59721     706.573E-03
           59722     637.028E-03
           59723         1.71757
           59724         1.69894
           59725         1.66251
           59726         3.00103
           59727         2.91963
           59728         2.88149
           59729         2.85952
           59730         2.93868
           59731     833.041E-03
           59732     852.247E-03
           59733         2.99962
           59734         3.08498
           59735         2.87504
           59736         3.17806
           59737         5.00410
           59738         4.92141
           59739         4.69144
           59740         4.58633
           59741         2.82291
           59742         2.78187
           59743         2.97119
           59744         2.89916
           59745         2.87114
           59746         1.97776
           59747         5.58288
           59748         5.65515
           59749         5.55979
           59750         5.65894
           59751         5.58534
           59752         5.68303
           59753         2.04817
           59754         2.11355
           59755         2.03399
           59756         2.07226
           59757         2.01447
           59758         2.08850
           59759         1.94718
           59760         1.91154
           59761         1.94181
           59762         1.96230
           59763         1.92942
           59764         1.98848
           59765         5.78264
           59766         5.90962
           59767         5.96760
           59768         1.93996
           59769         1.95568
           59770         1.95154
           59771     662.523E-03
           59772         2.60987
           59773         2.60519
           59774         2.61049
           59775         2.60446
           59776         2.58788
           59777         2.59148
           59778         2.59055
           59779         2.60425
           59780         6.04498
           59781         2.60660
           59782         2.61104
           59783         5.32986
           59784         5.37195
           59785         5.37505
           59786         5.36135
           59787         5.31843
           59788         5.31430
           59789         5.52719
           59790         5.58348
           59791         5.49043
           59792         5.57027
           59793         5.69173
           59794         5.76820
           59795         5.39032
           59796         5.33082
           59797         5.34241
           59798         5.24329
           59799         5.29205
           59800         5.44249
           59801         8.53859
           59802         9.44270
           59803         9.09981
           59804         9.19066
           59805     820.366E-03
           59806     717.506E-03
           59807     805.613E-03
           59808     20.1726E-03
           59809     19.3763E-03
           59810         5.33268
           59811     294.790E-03
           59812     243.644E-03
           59813     253.177E-03
           59814     207.835E-03
           59815     263.374E-03
           59816     248.459E-03
           59817         5.26030
           59818         5.32892
           59819     350.049E-03
           59820     339.721E-03
           59821         5.24217
           59822         5.11140
           59823         5.06846
           59824         5.14399
           59825         3.10201
           59826         3.08354
           59827         5.16869
           59828         2.58463
           59829         2.54654
           59830         2.49637
           59831         2.69738
           59832         2.71222
           59833         2.73733
           59834         2.72232
           59835         2.71390
           59836         5.19073
           59837         5.16270
           59838         5.11072
           59839         4.28071
           59840         3.89382
           59841         3.90119
           59842         6.21561
           59843         6.24538
           59844         6.55657
           59845         7.48115
           59846         7.09257
           59847         7.26727
           59848         7.16032
           59849         7.57391
           59850         7.39842
           59851         7.88256
           59852         8.07065
           59853         8.06993
           59854         6.82097
           59855         6.64771
           59856         6.91584
           59857         6.81858
           59858         6.69774
           59859         6.98927
           59860         6.92137
           59861         2.57431
           59862         2.59733
           59863         2.61440
           59864         2.61446
           59865         2.59246
           59866         2.57490
           59867         2.65529
           59868         2.65240
           59869         2.65386
           59870         2.65887
           59871         2.55258
           59872         2.55797
           59873         2.55805
           59874         2.56474
           59875         3.42012
           59876         3.47231
           59877         3.52016
           59878         2.27600
           59879         2.28917
           59880         2.34020
           59881         2.32891
           59882         2.29082
           59883         3.32715
           59884         3.23413
           59885         3.35350
           59886         4.13876
           59887         3.54954
           59888         3.41616
           59889         3.48282
           59890         3.44949
           59891         3.58489
           59892         3.51620
           59893         3.44617
           59894         3.41179
           59895         3.52081
           59896         3.45166
           59897         3.55648
           59898         5.11582
           59899         2.27753
           59900         2.39898
           59901         2.40073
           59902         2.36322
           59903         2.39074
           59904         4.09710
           59905         4.03520
           59906         3.99531
           59907         3.98383
           59908         4.02349
           59909         4.05997
           59910         3.89846
           59911         2.43344
           59912         2.39847
           59913         4.19890
           59914         4.29067
           59915         2.38459
           59916     337.988E-03
           59917     298.488E-03
           59918         5.09760
           59919         5.00764
           59920     358.168E-03
           59921     338.541E-03
           59922     384.977E-03
           59923         2.61543
           59924         2.60988
           59925         2.61772
           59926         2.62108
           59927         2.62657
           59928         2.95531
           59929         2.95905
           59930         2.93418
           59931         2.91229
           59932         2.93166
           59933     541.407E-03
           59934     498.737E-03
           59935     459.408E-03
           59936     432.365E-03
           59937     474.909E-03
           59938     512.972E-03
           59939     430.822E-03
           59940     479.760E-03
           59941     528.164E-03
           59942     478.858E-03
           59943     492.221E-03
           59944         2.44384
           59945         2.44832
           59946         2.44001
           59947         2.43186
           59948         2.43535
           59949     400.596E-03
           59950     422.077E-03
           59951         2.73672
           59952         2.71612
           59953         2.71942
           59954         2.72053
           59955         2.74185
           59956     506.369E-03
           59957     441.266E-03
           59958         6.69206
           59959         5.72976
           59960         6.88692
           59961     418.447E-03
           59962     391.642E-03
           59963     370.189E-03
           59964     397.824E-03
           59965     400.327E-03
           59966         5.48740
           59967         5.40547
           59968         5.58571
           59969         5.55128
           59970         5.53784
           59971         5.44787
           59972         4.98155
           59973         5.04042
           59974         5.10224
           59975         5.48729
           59976         5.48187
           59977         5.46037
           59978         5.51800
           59979         4.24026
           59980         4.38134
           59981         4.45541
           59982         4.31373
           59983         4.38153
           59984         3.67767
           59985         3.61619
           59986         3.58400
           59987         1.47309
           59988         1.79376
           59989         1.48764
           59990         1.70894
           59991         1.89371
           59992         3.74022
           59993         3.01629
           59994         3.00582
           59995         2.93172
           59996         3.72387
           59997         3.38645
           59998         3.32225
           59999         1.56658
           60000         1.44874
           60001         2.20019
           60002         2.35007
           60003         1.95982
           60004         1.83911
           60005         1.53197
           60006         1.33769
           60007         1.64127
           60008         1.82722
           60009         1.86178
           60010         1.33248
           60011         2.35041
           60012         2.02563
           60013         2.74635
           60014         5.55125
           60015         5.55460
           60016         5.61058
           60017         5.57472
           60018         5.59048
           60019         5.52946
           60020         5.44175
           60021         5.51295
           60022         5.62815
           60023         4.13558
           60024         4.19167
           60025         5.63880
           60026         5.59806
           60027         5.53938
           60028         5.51680
           60029         5.16968
           60030         5.23698
           60031         5.02949
           60032         5.28537
           60033         5.55019
           60034         5.41142
           60035         4.59821
           60036         4.54358
           60037         4.63191
           60038         4.66479
           60039         4.66276
           60040         4.54030
           60041         4.58030
           60042         4.62893
           60043         4.81079
           60044         4.59797
           60045         3.60566
           60046         3.60982
           60047         3.64047
           60048         3.72187
           60049         3.68700
           60050         3.60262
           60051         3.51621
           60052         3.54888
           60053         3.49893
           60054         3.58569
           60055         3.55260
           60056         3.60672
           60057         3.70234
           60058         3.74067
           60059         2.60279
           60060         2.63669
           60061         2.60204
           60062         2.62645
           60063         2.56651
           60064         2.77321
           60065         2.76396
           60066         2.72812
           60067         2.73396
           60068         2.78825
           60069         4.43906
           60070         4.49183
           60071         4.39406
           60072         4.31368
           60073         8.88032
           60074         9.19807
           60075         9.04115
           60076         8.73000
           60077         5.71417
           60078         5.74781
           60079         2.78742
           60080         2.75016
           60081         2.74795
           60082         2.76305
           60083         5.68552
           60084         5.65439
           60085         5.69452
           60086         5.73712
           60087         5.76503
           60088         5.72401
           60089         5.62315
           60090         5.65975
           60091         5.62807
           60092         15.8692
           60093         17.2762
           60094         16.0227
           60095         5.72875
           60096         5.77453
           60097         5.77097
           60098         5.81273
           60099         5.81544
           60100         2.65336
           60101         2.65180
           60102         2.65538
           60103         2.65401
           60104         2.65567
           60105         2.65213
           60106         2.65546
           60107         2.65288
           60108         2.65773
           60109         2.64883
           60110         2.64778
           60111         2.65356
           60112         3.47016
           60113         3.49028
           60114         3.42803
           60115         3.54204
           60116         3.52323
           60117         2.65184
           60118         5.12236
           60119         5.18319
           60120         5.26079
           60121         5.22128
           60122         5.09071
           60123         3.52057
           60124         3.52853
           60125         3.47302
           60126         3.46240
           60127         3.50967
           60128         2.65842
           60129         2.65612
           60130         2.65821
           60131         5.20166
           60132         5.18110
           60133         5.26871
           60134         5.20444
           60135         5.21253
           60136         5.13607
           60137         5.18854
           60138         5.61359
           60139         5.74121
           60140         2.86296
           60141         5.36942
           60142         5.34751
           60143         5.21502
           60144         2.21902
           60145         2.20176
           60146         2.06441
           60147         2.14650
           60148         2.17090
           60149         2.30272
           60150         5.32547
           60151         5.50998
           60152         3.38421
           60153         3.40201
           60154         3.26880
           60155         3.30042
           60156         3.24962
           60157         3.24884
           60158         3.21854
           60159         3.24618
           60160         3.24738
           60161         7.24479
           60162         6.97867
           60163         7.09346
           60164         6.77710
           60165         6.67106
           60166         3.80294
           60167         4.00568
           60168         3.56477
           60169         3.50711
           60170         3.31674
           60171         3.74628
           60172         15.8108
           60173         13.9145
           60174         12.4807
           60175         15.2480
           60176         6.54782
           60177         6.36552
           60178         3.22050
           60179         3.25577
           60180         5.02619
           60181         3.29117
           60182         3.30427
           60183         3.37605
           60184         3.34306
           60185         6.16579
           60186         6.14716
           60187         6.02090
           60188         4.37625
           60189         4.35680
           60190         4.25885
           60191         4.38581
           60192         4.49802
           60193         6.98451
           60194         3.05025
           60195         3.05648
           60196         2.96972
           60197         2.89494
           60198         2.89077
           60199         2.97199
           60200         2.84505
           60201         2.79160
           60202         2.85263
           60203         2.79737
           60204         2.85119
           60205         2.79255
           60206         6.07337
           60207         6.20236
           60208         2.88469
           60209         2.82796
           60210         2.75334
           60211         2.84774
           60212         2.86161
           60213         2.99872
           60214         3.04456
           60215         3.07968
           60216         4.87264
           60217         2.89861
           60218         2.84254
           60219         2.83862
           60220         2.88427
           60221         2.61060
           60222         2.61375
           60223         2.60838
           60224         2.62916
           60225         2.62192
           60226         2.62171
           60227         2.61897
           60228         2.62627
           60229         2.62690
           60230         2.62008
           60231         2.62665
           60232         4.95142
           60233         4.98606
           60234         4.89871
           60235         2.62141
           60236         2.61666
           60237         2.61373
           60238         2.61575
           60239         2.61585
           60240         2.61634
           60241         2.61170
           60242         2.97554
           60243         3.01604
           60244         2.62470
           60245         2.63130
           60246         2.61549
           60247         2.62172
           60248         2.61929
           60249         4.09673
           60250         4.06623
           60251         3.93424
           60252         3.92136
           60253         3.95424
           60254         4.24733
           60255         4.21346
           60256         4.07737
           60257         2.58328
           60258         2.58439
           60259         2.57162
           60260         2.56868
           60261         2.57506
           60262         5.86177
           60263         4.85565
           60264         4.39833
           60265         4.54653
           60266         6.06637
           60267         5.91535
           60268         5.91549
           60269         6.06613
           60270         6.11355
           60271         4.02131
           60272         3.76945
           60273         5.67321
           60274         5.72120
           60275         5.75521
           60276         9.14611
           60277         8.71960
           60278         8.86099
           60279         10.4591
           60280         9.64167
           60281         5.23983
           60282         5.52173
           60283         5.48107
           60284         4.05999
           60285         4.02532
           60286         3.91147
           60287         1.71842
           60288         4.25009
           60289         4.65343
           60290         2.09948
           60291         2.25490
           60292         2.29892
           60293         2.35352
           60294         2.34682
           60295         2.30204
           60296         2.24410
           60297         7.70351
           60298         7.57529
           60299         1.45961
           60300         2.75414
           60301         2.82454
           60302         2.92475
           60303         3.02423
           60304         2.95656
           60305         2.85501
           60306         1.88001
           60307         1.92888
           60308         1.84974
           60309         1.90803
           60310         4.77941
           60311         4.69339
           60312         4.65686
           60313         4.77045
           60314         1.97739
           60315         1.95030
           60316         5.98798
           60317         6.00217
           60318         6.09395
           60319         5.94481
           60320         5.84100
           60321         4.02607
           60322         2.00904
           60323         1.99764
           60324         2.03659
           60325         2.07336
           60326         3.02582
           60327         3.05601
           60328         1.97809
           60329         2.33192
           60330         2.30099
           60331         2.31399
           60332         2.32464
           60333         2.34496
           60334         2.97290
           60335         2.95028
           60336         2.93389
           60337         5.01380
           60338         5.03534
           60339         5.11374
           60340         5.07100
           60341         5.04971
           60342         4.97181
           60343         5.16996
           60344         5.25230
           60345         13.6074
           60346         14.1696
           60347         13.8927
           60348         11.2521
           60349         5.11392
           60350         4.97491
           60351         5.05290
           60352         5.07430
           60353         5.38926
           60354         5.38881
           60355         5.38911
           60356         5.32154
           60357         2.51896
           60358         2.72216
           60359         2.35185
           60360         2.25505
           60361         1.94728
           60362         2.02898
           60363         2.12145
           60364         2.43431
           60365         7.88202
           60366         7.65896
           60367         7.60438
           60368         7.90382
           60369         7.58791
           60370         2.36788
           60371         2.34268
           60372         2.29426
           60373         2.24702
           60374         2.27150
           60375         2.32010
           60376         7.82978
           60377         2.40835
           60378         2.17222
           60379         2.17431
           60380         2.14153
           60381         2.74356
           60382         2.75634
           60383         2.74659
           60384         6.27515
           60385         6.40747
           60386         6.28754
           60387         5.17870
           60388         8.11794
           60389         8.00750
           60390         8.17434
           60391         7.77054
           60392         5.29974
           60393         5.38118
           60394         5.09728
           60395         5.10966
           60396         5.08329
           60397         5.01730
           60398         5.02266
           60399         5.13685
           60400         5.09637
           60401         5.04731
           60402         7.18910
           60403         7.06026
           60404         7.02441
           60405         5.01486
           60406         5.18513
           60407         5.16279
           60408         5.22418
           60409         5.15980
           60410         4.98320
           60411         4.85235
           60412         4.91679
           60413         4.89860
           60414         5.18399
           60415         5.20638
           60416         5.05998
           60417         5.14934
           60418         4.95421
           60419         2.65426
           60420         2.65461
           60421         2.63537
           60422         2.61496
           60423         2.61237
           60424         2.63287
           60425         2.68900
           60426         2.67806
           60427         2.66643
           60428         2.66265
           60429         2.67204
           60430         2.68329
           60431         4.81679
           60432     124.481E-03
           60433     187.967E-03
           60434     157.478E-03
           60435     74.8162E-03
           60436     21.9852E-03
           60437     144.941E-03
           60438     141.040E-03
           60439         2.59187
           60440         2.58957
           60441         2.59813
           60442         2.59457
           60443     289.138E-03
           60444     411.087E-03
           60445     341.412E-03
           60446     522.746E-03
           60447     486.409E-03
           60448         2.60852
           60449         2.61115
           60450         2.61386
           60451         2.61297
           60452         2.59750
           60453     345.065E-03
           60454     291.800E-03
           60455     144.871E-03
           60456     226.217E-03
           60457         3.07131
           60458         3.06006
           60459         4.02851
           60460         4.04471
           60461         6.09047
           60462         5.98625
           60463         5.49701
           60464         3.22825
           60465         3.17797
           60466         3.15820
           60467         6.01408
           60468         6.09222
           60469         5.81201
           60470         5.79274
           60471         5.99136
           60472         3.19282
           60473         3.12860
           60474         1.54431
           60475         1.61262
           60476         1.58464
           60477         3.89880
           60478         4.06450
           60479         5.62689
           60480         3.06090
           60481         3.11424
           60482         3.18598
           60483         3.22527
           60484         3.18659
           60485         3.14173
           60486         3.17778
           60487         8.35464
           60488         8.22367
           60489         7.82880
           60490         7.88741
           60491         8.01315
           60492         8.41600
           60493         3.26409
           60494         3.22324
           60495         3.26466
           60496         6.36673
           60497         6.35782
           60498         6.44743
           60499         6.65635
           60500         6.57222
           60501         5.77056
           60502         5.76286
           60503         6.11411
           60504         5.70899
           60505         5.72899
           60506         6.24589
           60507         6.28037
           60508         6.20199
           60509         6.17197
           60510         6.11222
           60511         5.69806
           60512         5.66123
           60513         5.69105
           60514         5.68718
           60515         5.72656
           60516         5.69530
           60517         4.94268
           60518         5.09300
           60519         5.65908
           60520         5.65497
           60521         5.65034
           60522         5.68204
           60523         5.68366
           60524         6.88619
           60525         6.67816
           60526         6.81916
           60527         7.10114
           60528         6.94500
           60529         5.72048
           60530         5.72153
           60531         5.72969
           60532         5.69859
           60533         5.69029
           60534         5.67582
           60535         5.71078
           60536         5.67592
           60537         5.73385
           60538         5.75640
           60539         5.76099
           60540         3.39611
           60541         3.39677
           60542         3.47361
           60543         3.50061
           60544         3.50046
           60545         3.42275
           60546         1.75729
           60547         1.82462
           60548         3.57268
           60549         3.55230
           60550         3.58077
           60551         3.60071
           60552         3.60289
           60553         3.50320
           60554         3.59635
           60555         3.56576
           60556         2.90099
           60557         2.98287
           60558         3.39697
           60559         3.47277
           60560         3.49704
           60561         3.49714
           60562         3.42015
           60563         3.54625
           60564         3.57162
           60565         3.59096
           60566         1.64754
           60567         1.66894
           60568         1.63492
           60569         2.68968
           60570         2.68973
           60571         2.69567
           60572         2.68129
           60573         5.62685
           60574         5.61764
           60575         3.56475
           60576         3.49042
           60577         3.57114
           60578         5.19601
           60579         5.17030
           60580         7.24371
           60581         7.09757
           60582         3.50266
           60583         3.52986
           60584         3.54679
           60585         5.86677
           60586         5.77034
           60587         5.88197
           60588         4.41054
           60589         4.28741
           60590         4.13860
           60591         4.47320
           60592         4.92248
           60593         4.74051
           60594         4.66559
           60595     620.957E-03
           60596     431.967E-03
           60597         1.11810
           60598     994.604E-03
           60599         8.72943
           60600         8.73361
           60601         9.07970
           60602         5.38114
           60603         5.44580
           60604         6.06954
           60605         5.42924
           60606         5.78009
           60607         5.77240
           60608         5.76694
           60609         6.02799
           60610         5.98614
           60611         6.03905
           60612         5.76009
           60613         5.78106
           60614         5.76463
           60615         5.77866
           60616         5.96926
           60617         6.00735
           60618         5.93670
           60619         5.90210
           60620         5.91759
           60621         6.71200
           60622         6.82033
           60623         6.78681
           60624         4.71176
           60625         4.59486
           60626         4.71877
           60627         4.91948
           60628         5.56908
           60629         5.58513
           60630         5.54464
           60631         5.56379
           60632         5.68912
           60633         5.67065
           60634         5.68792
           60635         5.63357
           60636         5.65156
           60637         5.63438
           60638         8.10597
           60639         7.59166
           60640         7.96224
           60641         7.95874
           60642         8.11253
           60643         5.27775
           60644         5.86034
           60645         5.82791
           60646         5.77862
           60647         5.76490
           60648         5.76476
           60649         6.12968
           60650         6.20184
           60651         6.25880
           60652         6.21665
           60653         6.14654
           60654         5.91252
           60655         5.92913
           60656         6.00452
           60657         2.67363
           60658         1.86560
           60659         1.98214
           60660         5.19854
           60661         2.61992
           60662         5.86473
           60663         5.90626
           60664         5.99126
           60665         5.52449
           60666         2.20755
           60667         2.36876
           60668         6.28414
           60669         6.26297
           60670         6.18748
           60671         6.28686
           60672         6.31120
           60673         6.39022
           60674         5.58644
           60675         5.58939
           60676         2.69696
           60677         4.68343
           60678         4.80891
           60679         4.78652
           60680         4.85511
           60681         4.87747
           60682         4.93144
           60683         2.70499
           60684         4.66544
           60685         4.69686
           60686         4.71624
           60687         4.96296
           60688         5.05699
           60689         4.99834
           60690         2.66372
           60691         2.59210
           60692         2.61152
           60693         2.59948
           60694         2.58867
           60695         2.59188
           60696         2.58682
           60697         5.33267
           60698         5.27771
           60699         5.28698
           60700         5.16144
           60701         2.61311
           60702         2.61124
           60703         2.61216
           60704         2.61330
           60705         2.61531
           60706         2.61394
           60707         5.94230
           60708         5.76798
           60709         6.15504
           60710         6.08089
           60711         2.36347
           60712         2.35657
           60713         2.37579
           60714         2.39311
           60715         2.38099
           60716         5.56131
           60717         5.48818
           60718         5.59880
           60719         5.59773
           60720         2.09778
           60721         2.05620
           60722         2.46525
           60723         2.50073
           60724         2.44498
           60725         2.44204
           60726         2.40882
           60727         2.46305
           60728         5.37691
           60729         5.48618
           60730         5.58106
           60731         5.47050
           60732         3.74660
           60733         3.63119
           60734         3.92478
           60735         3.87543
           60736         3.87745
           60737         5.61589
           60738         2.43362
           60739         2.23935
           60740         5.44630
           60741         5.64810
           60742         5.76141
           60743         5.83014
           60744         5.78584
           60745         7.21663
           60746         7.84146
           60747         5.23932
           60748         5.07099
           60749         5.04527
           60750         6.17793
           60751         6.04060
           60752         6.11922
           60753         1.12128
           60754         1.22404
           60755         2.64985
           60756         2.64458
           60757         2.64198
           60758         2.64544
           60759         2.65307
           60760         2.55687
           60761         2.56562
           60762         2.56885
           60763         2.56516
           60764         2.72525
           60765         2.74489
           60766         3.69579
           60767         3.51212
           60768         1.83002
           60769         1.75065
           60770         1.52250
           60771         2.52669
           60772         2.51837
           60773         2.47310
           60774         2.45267
           60775         2.50721
           60776         2.13577
           60777         2.18642
           60778         2.20364
           60779         2.17935
           60780         1.10676
           60781         1.12898
           60782         1.19463
           60783         1.07991
           60784     807.467E-03
           60785     773.276E-03
           60786     738.601E-03
           60787         2.68755
           60788         2.65012
           60789         2.66778
           60790         2.64698
           60791         3.34417
           60792         3.41764
           60793         3.38299
           60794         2.67202
           60795         2.64514
           60796         2.65339
           60797         2.58705
           60798         2.60307
           60799         2.55369
           60800         2.53769
           60801         2.54158
           60802         2.55717
           60803         2.57322
           60804         2.56868
           60805         2.65754
           60806         3.09661
           60807         2.97464
           60808         3.02147
           60809         2.98097
           60810         3.10339
           60811         3.05202
           60812         5.62998
           60813         5.56008
           60814         5.57721
           60815         5.97705
           60816         5.91685
           60817         5.54554
           60818         5.59629
           60819         5.63956
           60820         5.69024
           60821         5.63361
           60822         5.75670
           60823         5.78217
           60824         5.71650
           60825         5.81462
           60826         2.55366
           60827         2.54609
           60828         5.72604
           60829         3.50500
           60830         2.70170
           60831         2.69965
           60832         2.69967
           60833         2.64991
           60834         2.65571
           60835         2.65099
           60836         4.01063
           60837         3.88429
           60838         3.94765
           60839         3.82701
           60840         3.95083
           60841         3.59076
           60842         2.78735
           60843         2.79352
           60844         2.80319
           60845         2.78313
           60846         2.76842
           60847         2.51851
           60848         2.53288
           60849         2.53469
           60850         3.75043
           60851         3.64192
           60852         3.99188
           60853         4.03505
           60854         4.10887
           60855         4.06486
           60856         4.02142
           60857         3.95041
           60858         2.66340
           60859         2.65436
           60860         2.65737
           60861         2.66592
           60862         2.65838
           60863         4.21870
           60864         4.15451
           60865         4.11777
           60866         2.19791
           60867         2.23190
           60868         2.82027
           60869         2.81058
           60870         2.81846
           60871         3.10175
           60872         3.05119
           60873         2.85200
           60874         2.88688
           60875         4.19945
           60876         4.16199
           60877         2.62487
           60878         4.08786
           60879         3.99264
           60880         2.49000
           60881         2.49866
           60882         2.48543
           60883         2.49412
           60884         2.48561
           60885         2.49876
           60886         2.56130
           60887         2.44380
           60888         2.29639
           60889         3.88423
           60890         3.92848
           60891         3.87751
           60892         3.83235
           60893         3.83923
           60894         2.48920
           60895         2.48829
           60896         2.47549
           60897         2.48472
           60898         2.48615
           60899         2.49862
           60900         2.49314
           60901         2.49943
           60902         2.48904
           60903         2.55259
           60904         2.55063
           60905         2.55467
           60906         2.54599
           60907         2.54795
           60908         2.54922
           60909         2.55064
           60910         2.57739
           60911         2.67807
           60912         2.66687
           60913         2.66534
           60914         2.67441
           60915         2.68699
           60916         2.53651
           60917         2.53885
           60918         4.33333
           60919         4.39302
           60920         4.39573
           60921         2.61338
           60922         2.61676
           60923         2.55772
           60924         2.47041
           60925         2.47442
           60926         3.93764
           60927         3.83422
           60928         3.88500
           60929         3.80182
           60930         3.90357
           60931         3.85290
           60932         3.85284
           60933         3.75953
           60934         3.87734
           60935         3.93046
           60936         3.80969
           60937         3.99184
           60938         4.04517
           60939         4.10279
           60940         4.04619
           60941         3.99243
           60942         4.00398
           60943         3.96241
           60944         4.03241
           60945         3.95108
           60946         3.92386
           60947         3.86554
           60948         3.85178
           60949         3.93692
           60950         3.89832
           60951         2.53862
           60952         2.53288
           60953         2.52659
           60954         2.51959
           60955         2.52476
           60956         3.98290
           60957         4.08633
           60958         2.59744
           60959         2.59895
           60960         2.60033
           60961         2.60261
           60962         2.53873
           60963         2.56778
           60964         4.14100
           60965         4.19749
           60966         4.01675
           60967         4.08908
           60968         3.19331
           60969         3.14786
           60970         3.13372
           60971         2.31310
           60972         2.23417
           60973         2.30383
           60974         2.28445
           60975         2.18610
           60976         2.19268
           60977         2.23276
           60978         2.24356
           60979         2.19642
           60980         2.48505
           60981         2.39293
           60982         2.39160
           60983         2.28267
           60984         2.22269
           60985         5.16291
           60986         5.32303
           60987         5.19174
           60988         4.29739
           60989         4.22140
           60990         2.21430
           60991         2.20472
           60992         2.29324
           60993         2.29387
           60994         2.34360
           60995         2.37518
           60996         2.30143
           60997         2.91338
           60998         2.91326
           60999         2.88127
           61000         2.36469
           61001         2.44203
           61002         2.36427
           61003         2.36738
           61004         2.34870
           61005         2.42268
           61006         2.42097
           61007         12.5183
           61008         2.28395
           61009         2.44353
           61010         2.16776
           61011         2.14187
           61012         2.14799
           61013         2.42829
           61014         2.43700
           61015         2.47856
           61016         2.46367
           61017         3.43386
           61018         5.74745
           61019         5.77401
           61020         2.45571
           61021         2.50833
           61022         2.55081
           61023         2.48481
           61024         2.49645
           61025         5.60760
           61026         5.60425
           61027         5.41592
           61028         2.46090
           61029         5.21257
           61030         4.88163
           61031         4.53526
           61032         4.92223
           61033         6.75546
           61034         6.62904
           61035         6.51568
           61036         6.49863
           61037         3.44808
           61038         3.53466
           61039         3.61831
           61040         5.53592
           61041         5.75492
           61042         5.94050
           61043         4.43054
           61044         4.54865
           61045         4.60027
           61046         2.21545
           61047         2.21584
           61048         2.23645
           61049         2.23006
           61050         4.71529
           61051         4.56799
           61052         4.62705
           61053         2.93559
           61054         2.95469
           61055         3.00249
           61056         3.48884
           61057         3.59014
           61058         2.30178
           61059         2.37030
           61060         2.26646
           61061         2.29338
           61062         2.22281
           61063         5.71481
           61064         5.27865
           61065         2.67302
           61066         6.71138
           61067         6.80189
           61068         6.45048
           61069         5.19588
           61070         5.63246
           61071         5.53682
           61072         4.93276
           61073         4.85615
           61074         4.77036
           61075         4.91586
           61076         4.84603
           61077         2.62274
           61078         4.92238
           61079         4.77648
           61080         5.00340
           61081         4.92107
           61082         2.68019
           61083         2.68035
           61084         4.89522
           61085         4.79204
           61086         4.89827
           61087         4.93223
           61088         5.03920
           61089         4.81810
           61090         4.75291
           61091         1.93646
           61092         1.96715
           61093         1.94621
           61094         3.87614
           61095         3.05331
           61096         4.68010
           61097         3.67313
           61098         4.48325
           61099         2.16813
           61100         2.16250
           61101         2.06136
           61102         2.01197
           61103         2.04348
           61104         2.04140
           61105         1.98872
           61106         1.98374
           61107         2.03078
           61108         2.17928
           61109         2.15824
           61110         2.23392
           61111         2.09350
           61112         2.71094
           61113         2.53720
           61114         2.59270
           61115         2.57572
           61116         2.52030
           61117         2.55745
           61118         2.17124
           61119         2.33198
           61120         2.27882
           61121         2.10322
           61122         2.14838
           61123         6.45066
           61124         6.41933
           61125         6.55364
           61126         6.64432
           61127         6.67638
           61128         5.86149
           61129         5.84189
           61130         5.93006
           61131         5.87083
           61132         5.96783
           61133         4.40840
           61134         4.39593
           61135         3.56434
           61136         3.59782
           61137         3.52616
           61138         3.57358
           61139         5.97486
           61140         5.89333
           61141         5.93561
           61142         5.87254
           61143         6.25424
           61144         6.25625
           61145         6.42355
           61146         6.33579
           61147         6.33343
           61148         6.09569
           61149         6.13005
           61150         6.16084
           61151         6.21569
           61152         6.17442
           61153         2.31683
           61154         2.25054
           61155         6.00399
           61156         6.04900
           61157         6.01707
           61158     797.732E-03
           61159     857.621E-03
           61160     873.674E-03
           61161     887.498E-03
           61162     826.987E-03
           61163     811.027E-03
           61164         6.35965
           61165         6.45221
           61166         3.45111
           61167         3.59284
           61168         3.45767
           61169         3.26720
           61170         1.90760
           61171         3.26544
           61172         3.37876
           61173     703.587E-03
           61174     609.452E-03
           61175     808.418E-03
           61176     64.1460E-03
           61177     42.6294E-03
           61178     80.0323E-03
           61179     252.259E-03
           61180     686.634E-03
           61181     700.232E-03
           61182     719.706E-03
           61183         2.45691
           61184         2.29358
           61185         1.79478
           61186         2.18373
           61187         1.92790
           61188         2.02102
           61189         2.60975
           61190         2.48726
           61191         2.29288
           61192         2.55681
           61193         2.61634
           61194         2.61725
           61195         2.60786
           61196         1.29404
           61197         1.32639
           61198     378.638E-03
           61199     369.457E-03
           61200     948.063E-03
           61201     976.148E-03
           61202     976.617E-03
           61203     952.168E-03
           61204     904.943E-03
           61205         2.60128
           61206         2.59979
           61207         2.60899
           61208         2.60009
           61209         2.59253
           61210         2.59911
           61211         2.59233
           61212         2.62252
           61213         2.60857
           61214         2.61448
           61215         2.60213
           61216         2.60906
           61217         2.29003
           61218         2.46822
           61219         2.43135
           61220         2.46383
           61221         2.45521
           61222         2.49244
           61223         2.45901
           61224         2.33210
           61225         2.33669
           61226         2.36231
           61227         2.33085
           61228         2.61481
           61229         2.61930
           61230         2.61669
           61231         2.61281
           61232         2.59677
           61233         2.71353
           61234         2.21411
           61235         2.17245
           61236         2.20744
           61237         2.56003
           61238         2.68458
           61239         2.70501
           61240         2.65945
           61241         2.65709
           61242         2.65419
           61243         1.37984
           61244         1.65020
           61245         1.53642
           61246         2.48395
           61247         2.48575
           61248         2.48118
           61249         2.46926
           61250         2.47933
           61251         3.13448
           61252         1.26090
           61253         1.60547
           61254         1.57195
           61255     731.395E-03
           61256     742.423E-03
           61257         2.63622
           61258         2.63336
           61259         2.62884
           61260         2.64396
           61261         2.55472
           61262         2.61919
           61263         1.51483
           61264         1.89605
           61265         1.77169
           61266     979.991E-03
           61267         1.22792
           61268         1.00877
           61269         1.55629
           61270         1.40667
           61271         1.25579
           61272         1.23231
           61273         1.13817
           61274         5.44538
           61275         5.43134
           61276         5.41748
           61277         5.47461
           61278         5.46212
           61279         5.46772
           61280         5.46304
           61281         5.46097
           61282         5.46445
           61283         5.51230
           61284         5.47757
           61285         6.20450
           61286         5.99813
           61287         4.41640
           61288         4.44131
           61289         5.39184
           61290         5.37418
           61291         5.27104
           61292         5.29212
           61293         5.19571
           61294         5.29281
           61295         4.92335
           61296         5.45456
           61297         5.46001
           61298         5.44901
           61299         3.74706
           61300         5.44798
           61301         5.45403
           61302         5.46260
           61303         5.44308
           61304         3.41463
           61305         3.48318
           61306         2.76695
           61307         2.80502
           61308         4.50202
           61309         4.48674
           61310         2.74416
           61311         2.76188
           61312         4.37476
           61313         4.52514
           61314         3.83322
           61315         2.81935
           61316         2.79559
           61317         4.44431
           61318         2.54030
           61319         2.49197
           61320         2.47347
           61321         2.46456
           61322         2.51104
           61323         2.52972
           61324         2.58437
           61325         2.65568
           61326         2.58956
           61327         2.60837
           61328         2.60347
           61329     141.369E-03
           61330     135.152E-03
           61331     103.722E-03
           61332     103.751E-03
           61333         2.53979
           61334         2.51837
           61335         2.49950
           61336         2.66657
           61337         2.59354
           61338         2.58051
           61339         2.50853
           61340         2.57634
           61341         1.43100
           61342         1.48855
           61343         3.50064
           61344         2.50205
           61345         2.49383
           61346         2.51417
           61347         2.58741
           61348         2.57310
           61349         2.45455
           61350         2.44510
           61351         2.43405
           61352         5.60539
           61353         5.65296
           61354         5.67031
           61355         2.44052
           61356         2.42664
           61357         2.49209
           61358         2.47848
           61359         2.62006
           61360         2.63055
           61361         2.62808
           61362         2.62782
           61363         2.63787
           61364         2.61297
           61365         2.61883
           61366         2.61878
           61367         2.61208
           61368         2.61788
           61369         2.62215
           61370         2.62125
           61371         2.62074
           61372         1.74938
           61373         1.81679
           61374         1.81819
           61375         4.48875
           61376         4.53166
           61377         4.41906
           61378         4.37783
           61379         4.41130
           61380         3.82267
           61381         2.67272
           61382         2.65571
           61383         2.70053
           61384         2.71826
           61385         4.70994
           61386         1.56168
           61387         5.55819
           61388         5.58305
           61389         5.66924
           61390         5.57322
           61391         5.64439
           61392         1.64919
           61393         1.70815
           61394         1.67542
           61395         1.60416
           61396         5.60084
           61397         5.55759
           61398         5.53786
           61399         5.56555
           61400         1.57585
           61401     909.092E-03
           61402     964.704E-03
           61403     813.227E-03
           61404     871.546E-03
           61405     900.564E-03
           61406     868.478E-03
           61407         5.45472
           61408         5.45837
           61409         5.69587
           61410         5.64986
           61411         1.39631
           61412         1.09456
           61413         1.11791
           61414         1.11390
           61415         1.44735
           61416     763.652E-03
           61417     796.099E-03
           61418     813.244E-03
           61419     782.529E-03
           61420     764.127E-03
           61421     702.572E-03
           61422     607.875E-03
           61423     593.700E-03
           61424     648.211E-03
           61425         7.35886
           61426     706.633E-03
           61427     724.268E-03
           61428         2.46236
           61429         2.43238
           61430         2.41251
           61431         2.41639
           61432         2.44568
           61433         1.32053
           61434         1.33860
           61435         1.40538
           61436     693.749E-03
           61437         3.41819
           61438     599.203E-03
           61439     626.730E-03
           61440     893.977E-03
           61441     804.796E-03
           61442         1.00633
           61443     950.508E-03
           61444         5.42622
           61445         5.39457
           61446         5.29354
           61447         5.38523
           61448         5.09970
           61449         5.10375
           61450         5.12143
           61451         5.28110
           61452         5.40985
           61453         5.30303
           61454         5.18189
           61455         5.08786
           61456         5.11038
           61457     571.552E-03
           61458     535.777E-03
           61459     440.325E-03
           61460         2.29011
           61461         5.45692
           61462         5.45437
           61463         2.33370
           61464         5.71486
           61465         5.73347
           61466         5.71355
           61467         14.2205
           61468         11.6801
           61469         12.0774
           61470         12.1950
           61471         8.97677
           61472         9.37400
           61473         9.22426
           61474         2.23585
           61475         2.27517
           61476         2.27442
           61477         2.23043
           61478         2.46477
           61479         2.53655
           61480         2.49607
           61481         2.54607
           61482         2.59172
           61483         2.56670
           61484         2.59144
           61485         2.54880
           61486         4.50054
           61487         4.38526
           61488         4.65514
           61489         4.71550
           61490         4.44033
           61491         7.60219
           61492         7.34426
           61493         7.49629
           61494         7.75673
           61495         4.87030
           61496         4.90849
           61497         4.99699
           61498         4.78431
           61499         4.60978
           61500         4.29377
           61501         4.47211
           61502         4.32381
           61503         5.88628
           61504         5.97904
           61505         5.97136
           61506         5.87800
           61507         4.59002
           61508         4.60836
           61509         4.91318
           61510         4.74121
           61511         4.89501
           61512         4.76395
           61513         5.12231
           61514         5.13371
           61515         5.26338
           61516         4.89426
           61517         4.91509
           61518         2.87389
           61519         2.89561
           61520         2.88942
           61521         2.86881
           61522         2.88031
           61523     8.77353E-03
           61524     4.58294E-03
           61525     9.19038E-03
           61526     2.33519E-03
           61527     4.53622E-03
           61528     1.90777E-03
           61529         2.85478
           61530         2.84838
           61531         2.85984
           61532     533.377E-03
           61533     482.325E-03
           61534     474.800E-03
           61535     483.812E-03
           61536         2.84391
           61537         2.85071
           61538         2.86436
           61539         2.83893
           61540     33.2054E-03
           61541     41.5306E-03
           61542         2.85276
           61543         2.85878
           61544         2.88099
           61545         2.87413
           61546         2.86454
           61547         7.39301
           61548         7.47940
           61549         7.38716
           61550         7.10211
           61551         7.17074
           61552         7.19484
           61553         7.12503
           61554         7.55370
           61555         4.38048
           61556         4.29333
           61557         4.45913
           61558         4.31933
           61559         4.40484
           61560         4.22307
           61561         8.45336
           61562         8.44906
           61563         8.25898
           61564         8.14836
           61565         8.15190
           61566         8.33947
           61567         4.09477
           61568         6.55578
           61569         6.33022
           61570         6.41392
           61571         6.45007
           61572         6.28105
           61573         6.19787
           61574         6.16264
           61575         4.14032
           61576         4.16004
           61577         2.57673
           61578         2.73844
           61579         2.47702
           61580         2.56360
           61581         2.40579
           61582         2.66042
           61583         4.29048
           61584         4.41404
           61585         3.37416
           61586         3.32232
           61587         3.42828
           61588         3.31622
           61589         2.42478
           61590         2.58324
           61591         2.68084
           61592         2.44510
           61593         2.39948
           61594         2.58188
           61595     27.4326E-03
           61596     133.865E-03
           61597         2.39477
           61598         2.09795
           61599         2.21394
           61600         2.03611
           61601         2.13869
           61602         2.56511
           61603         2.46959
           61604         2.03145
           61605         2.20749
           61606         2.10057
           61607         2.02936
           61608         4.52535
           61609         4.63138
           61610         2.21419
           61611     168.713E-03
           61612     138.778E-03
           61613     168.658E-03
           61614     105.107E-03
           61615     135.163E-03
           61616     104.060E-03
           61617     395.309E-03
           61618     380.934E-03
           61619     75.8828E-03
           61620     94.3889E-03
           61621     78.1004E-03
           61622     466.470E-03
           61623     459.181E-03
           61624         5.08039
           61625         4.79677
           61626         4.83434
           61627         4.81270
           61628     202.393E-03
           61629     187.862E-03
           61630     215.418E-03
           61631     261.667E-03
           61632         6.95093
           61633         7.14756
           61634         7.14718
           61635         7.00470
           61636         6.81200
           61637         6.81542
           61638         6.59235
           61639         6.71194
           61640         6.71144
           61641         2.56114
           61642         2.56381
           61643         2.57377
           61644         2.56948
           61645         2.56715
           61646     487.390E-03
           61647     538.944E-03
           61648     548.187E-03
           61649         6.57661
           61650         6.79625
           61651         6.67573
           61652         5.19298
           61653         5.17336
           61654         7.52378
           61655         7.14146
           61656         7.17481
           61657         7.08528
           61658         7.17041
           61659         6.78359
           61660         6.71033
           61661         6.89797
           61662         5.47973
           61663         8.34273
           61664         8.32503
           61665         8.45430
           61666         7.95117
           61667         7.92015
           61668         5.56794
           61669         5.38800
           61670         5.37016
           61671         5.42345
           61672         7.18304
           61673         6.67182
           61674     160.774E-03
           61675     137.010E-03
           61676     121.185E-03
           61677         7.65656
           61678         7.83827
           61679         7.87426
           61680         4.15958
           61681         1.14197
           61682         6.65323
           61683         6.80632
           61684         6.81704
           61685         5.41914
           61686     739.434E-03
           61687         5.39488
           61688         5.43742
           61689         5.41125
           61690         5.31298
           61691         5.35811
           61692         5.33512
           61693         5.43760
           61694         5.41566
           61695         5.43082
           61696         5.34949
           61697         5.82365
           61698         5.90489
           61699         5.85512
           61700         5.83018
           61701         4.60026
           61702         4.69017
           61703         4.95738
           61704         4.91289
           61705         4.84884
           61706         4.51839
           61707         4.67517
           61708         4.60728
           61709         5.00984
           61710         5.01933
           61711         4.76104
           61712         4.62312
           61713         4.72996
           61714         4.64727
           61715         4.54864
           61716         4.67126
           61717         4.68294
           61718         4.78379
           61719         5.05284
           61720         5.00007
           61721         4.94636
           61722         5.03111
           61723         5.08186
           61724     51.2755E-03
           61725         4.61253
           61726         4.60655
           61727         4.54837
           61728         4.72681
           61729         4.73096
           61730     107.843E-03
           61731     133.396E-03
           61732     108.587E-03
           61733     71.3981E-03
           61734         4.57755
           61735         4.57711
           61736         5.20633
           61737         5.24242
           61738     754.572E-03
           61739     771.991E-03
           61740     668.433E-03
           61741     625.819E-03
           61742     607.840E-03
           61743     710.438E-03
           61744     32.8823E-03
           61745     37.5462E-03
           61746     23.0296E-03
           61747     679.105E-03
           61748     539.237E-03
           61749     555.065E-03
           61750         3.08072
           61751         2.97687
           61752         2.93917
           61753         3.02814
           61754         3.13224
           61755         3.16816
           61756         6.75995
           61757         2.35189
           61758         3.42864
           61759         3.06684
           61760         3.35982
           61761         2.66429
           61762         6.68954
           61763         6.61330
           61764         7.56280
           61765         7.93740
           61766         2.87342
           61767         2.95904
           61768         3.00225
           61769         2.95862
           61770         2.83007
           61771         4.77113
           61772         4.67549
           61773         4.49930
           61774         4.32245
           61775         4.40921
           61776         2.67198
           61777         2.68301
           61778         2.64496
           61779         7.27834
           61780         7.21244
           61781         7.12315
           61782         1.67177
           61783         1.71316
           61784         1.75901
           61785         1.80673
           61786         1.71988
           61787         7.18479
           61788         6.99656
           61789         7.17646
           61790         7.16539
           61791         2.75170
           61792         6.61680
           61793         6.98098
           61794         6.85032
           61795         4.05981
           61796         2.49064
           61797         2.47494
           61798         2.46254
           61799         2.47870
           61800         2.47553
           61801     52.3437E-03
           61802     94.8474E-03
           61803         2.47800
           61804         2.46172
           61805         2.45716
           61806         2.47330
           61807         2.45844
           61808         2.49479
           61809         2.49090
           61810         2.48649
           61811         2.49404
           61812         2.49964
           61813         2.50252
           61814     203.520E-03
           61815         2.49465
           61816         2.49115
           61817         2.48591
           61818         2.46826
           61819         2.63154
           61820         2.61889
           61821         2.40044
           61822         2.39555
           61823         2.44666
           61824         2.45215
           61825         2.43970
           61826         2.15146
           61827         2.13243
           61828         2.09545
           61829         2.42523
           61830         2.51365
           61831         2.65382
           61832         2.67318
           61833         2.67483
           61834         2.68607
           61835         2.66438
           61836         2.65498
           61837         2.62556
           61838         2.64342
           61839     242.287E-03
           61840     248.971E-03
           61841     183.535E-03
           61842     174.093E-03
           61843     166.630E-03
           61844     231.027E-03
           61845         2.60962
           61846         2.94237
           61847         2.85573
           61848         2.95777
           61849         2.92602
           61850         2.60803
           61851         2.62555
           61852         2.41222
           61853         2.54892
           61854         2.68129
           61855         2.66073
           61856         2.67170
           61857         2.68125
           61858         2.68156
           61859         2.66003
           61860         6.71098
           61861         6.72256
           61862         7.00977
           61863         6.85211
           61864         6.72541
           61865         7.00817
           61866         6.72064
           61867         6.83890
           61868         7.24578
           61869         7.07559
           61870         6.74683
           61871         6.90498
           61872         7.07687
           61873         6.58986
           61874         6.38284
           61875         6.51442
           61876         6.39536
           61877         5.66616
           61878         5.66566
           61879         5.66393
           61880         5.29019
           61881         5.33505
           61882         7.30847
           61883         7.19230
           61884         7.11439
           61885         6.86342
           61886         7.19118
           61887         7.00013
           61888         6.48754
           61889         6.68937
           61890         6.95025
           61891     31.1948E-03
           61892     474.030E-03
           61893     540.194E-03
           61894     6.35298E-03
           61895     14.8534E-03
           61896         6.10002
           61897     138.175E-03
           61898     121.213E-03
           61899     113.387E-03
           61900     160.868E-03
           61901         7.29794
           61902         7.27345
           61903         7.28252
           61904         6.96151
           61905         7.31852
           61906         5.76457
           61907         6.00652
           61908         6.17214
           61909         6.08520
           61910         6.16264
           61911         5.99364
           61912         6.10487
           61913         5.93178
           61914         5.88155
           61915         6.00957
           61916         3.06864
           61917         5.63686
           61918         5.75015
           61919         7.01334
           61920         2.44426
           61921         2.53106
           61922         2.53183
           61923         2.40284
           61924         3.67996
           61925         3.61325
           61926         3.73309
           61927         3.74560
           61928         3.81508
           61929         3.69252
           61930         3.66625
           61931         5.38731
           61932         5.46819
           61933         5.44170
           61934         5.44570
           61935         2.43847
           61936         2.46130
           61937         2.47670
           61938         5.30421
           61939         5.34907
           61940         5.43966
           61941         5.44628
           61942         5.46025
           61943         5.75387
           61944         5.12621
           61945         5.17112
           61946         6.14768
           61947         6.24322
           61948         5.82227
           61949         5.98958
           61950         5.82585
           61951         5.79301
           61952         5.95378
           61953         5.79741
           61954         5.66126
           61955         5.68038
           61956         5.60580
           61957         5.73603
           61958         5.71732
           61959         6.27275
           61960         6.43796
           61961         6.45406
           61962     169.982E-03
           61963     232.370E-03
           61964         6.14853
           61965         6.30132
           61966         6.32748
           61967         1.56376
           61968         1.51053
           61969         1.46520
           61970         1.55640
           61971         5.85736
           61972         5.88191
           61973         6.01277
           61974         5.92799
           61975         6.04032
           61976         5.87121
           61977         5.79753
           61978         6.74398
           61979         6.76775
           61980         6.46530
           61981         6.67576
           61982         6.66392
           61983         6.40271
           61984         6.69449
           61985         6.71129
           61986         6.41629
           61987         6.36332
           61988         3.18617
           61989         6.63576
           61990         2.43150
           61991         2.98287
           61992         2.11362
           61993         2.12487
           61994         2.16049
           61995         5.78206
           61996         5.80709
           61997         5.82418
           61998         5.80143
           61999         2.50863
           62000         2.52022
           62001         2.52887
           62002         2.54990
           62003         2.54155
           62004         2.26678
           62005         2.34765
           62006         2.31146
           62007     30.0160E-03
           62008     14.5748E-03
           62009         5.85581
           62010         5.97373
           62011         5.91102
           62012         5.89540
           62013     162.709E-03
           62014     178.572E-03
           62015     187.522E-03
           62016         6.43855
           62017         6.92149
           62018         5.89797
           62019         2.49032
           62020         5.76329
           62021         5.82798
           62022         5.79286
           62023         5.83267
           62024         4.08862
           62025         4.21932
           62026         4.19763
           62027         2.92652
           62028         2.92845
           62029         3.19797
           62030         2.85570
           62031         2.76197
           62032         2.77292
           62033         2.86578
           62034         2.83328
           62035         4.58328
           62036         4.65630
           62037         2.22131
           62038         2.23583
           62039         2.94213
           62040         3.17251
           62041         3.00660
           62042     207.947E-03
           62043     277.987E-03
           62044     287.613E-03
           62045         1.01281
           62046     849.094E-03
           62047     877.210E-03
           62048     896.325E-03
           62049         3.86933
           62050         3.31038
           62051         1.40252
           62052         1.42874
           62053         1.40320
           62054         3.96923
           62055         3.76837
           62056         3.85298
           62057         3.13116
           62058         5.54704
           62059         5.59210
           62060         5.55048
           62061         5.54057
           62062         5.49047
           62063         5.53682
           62064         3.40285
           62065         3.64479
           62066         5.10119
           62067         5.18515
           62068         5.07713
           62069         4.96665
           62070         4.98335
           62071         2.96897
           62072         3.05369
           62073         3.34912
           62074         3.17036
           62075         3.29390
           62076         5.88811
           62077         2.62101
           62078         2.84931
           62079         2.60278
           62080         4.56195
           62081         4.65494
           62082         2.56814
           62083         2.26353
           62084         6.40941
           62085         6.28299
           62086         6.31080
           62087         6.21022
           62088         2.38608
           62089         2.40407
           62090         2.16220
           62091         2.10140
           62092         2.11983
           62093         2.04330
           62094         2.10192
           62095         7.95974
           62096         8.28083
           62097         7.25278
           62098         7.52326
           62099         5.63575
           62100         5.68597
           62101         5.68949
           62102         5.69632
           62103         5.64086
           62104         4.71937
           62105         4.39145
           62106         6.06418
           62107         3.83229
           62108         3.40941
           62109         3.48030
           62110         3.14201
           62111         3.53596
           62112         3.45921
           62113         3.63577
           62114         3.67684
           62115         3.28006
           62116         3.60980
           62117         6.02346
           62118         5.90020
           62119         5.98322
           62120         5.92973
           62121         6.10745
           62122         3.68430
           62123         3.71897
           62124         3.65506
           62125         3.62386
           62126         3.59076
           62127         3.65309
           62128         3.42337
           62129         2.90342
           62130         3.17271
           62131         2.98069
           62132         2.89404
           62133         2.65338
           62134         2.81168
           62135         3.52521
           62136         3.83029
           62137         3.92706
           62138         3.77446
           62139         1.36213
           62140         1.52156
           62141         1.32319
           62142         1.35626
           62143         1.24992
           62144         1.41048
           62145         1.36826
           62146         1.27081
           62147     898.025E-03
           62148         1.10856
           62149         6.23295
           62150         1.57140
           62151         1.37066
           62152         1.64615
           62153         1.37362
           62154         1.55155
           62155         1.47075
           62156         5.29763
           62157         1.78427
           62158         1.46087
           62159         5.12384
           62160     853.059E-03
           62161     951.719E-03
           62162     460.223E-03
           62163     573.319E-03
           62164     520.690E-03
           62165     302.269E-03
           62166         4.98671
           62167         4.96798
           62168         4.85902
           62169         5.43541
           62170         5.67451
           62171         2.28630
           62172         2.36944
           62173         2.29391
           62174         2.17869
           62175         1.19289
           62176         1.15054
           62177         1.20563
           62178         2.67422
           62179         2.67233
           62180         2.67183
           62181         2.67342
           62182         2.74301
           62183         2.76255
           62184         2.76334
           62185         2.75356
           62186         2.66426
           62187         2.66159
           62188         2.66640
           62189         2.66384
           62190         2.65941
           62191         2.33280
           62192         2.35547
           62193         2.20847
           62194         2.67271
           62195         2.67588
           62196         2.67257
           62197         2.66995
           62198         2.67292
           62199         2.67121
           62200         2.67526
           62201         2.67431
           62202         2.66178
           62203         2.66674
           62204         2.66189
           62205         2.66787
           62206         2.67117
           62207         5.48133
           62208         5.40214
           62209         2.62825
           62210         5.70031
           62211         5.71396
           62212         5.68371
           62213         5.72839
           62214         4.19151
           62215         4.06650
           62216         3.95352
           62217         4.03468
           62218         4.07988
           62219         2.67811
           62220         2.67376
           62221         2.66459
           62222         2.66869
           62223         5.44425
           62224         5.41774
           62225         6.52603
           62226         6.78954
           62227         6.66236
           62228         6.69892
           62229         2.68018
           62230         2.68409
           62231         2.68495
           62232         3.32526
           62233         3.32484
           62234         3.30349
           62235         3.26546
           62236         3.28540
           62237         4.53432
           62238         5.42649
           62239         2.65153
           62240         2.64468
           62241         2.77397
           62242         2.60808
           62243         4.12621
           62244         4.17053
           62245         5.70832
           62246         5.71031
           62247         5.93400
           62248         5.91226
           62249         5.92019
           62250         5.66275
           62251         5.67782
           62252         5.66605
           62253         5.68245
           62254         5.66667
           62255         2.65823
           62256         8.11782
           62257         8.34592
           62258         8.19584
           62259         8.23371
           62260         8.00899
           62261         8.15564
           62262         7.92867
           62263         8.03530
           62264         8.08468
           62265         7.97973
           62266         5.76459
           62267         5.81426
           62268         5.78590
           62269         5.73633
           62270         5.70582
           62271         8.34247
           62272         8.45334
           62273         8.53674
           62274         6.54599
           62275         6.40240
           62276         6.33332
           62277         6.21811
           62278         6.25775
           62279         6.42057
           62280         6.41015
           62281         6.10863
           62282         6.12624
           62283         6.10512
           62284         6.39542
           62285         6.57163
           62286         6.42187
           62287         6.41202
           62288     252.698E-03
           62289     281.791E-03
           62290     260.199E-03
           62291     872.730E-03
           62292     812.670E-03
           62293     873.160E-03
           62294     687.064E-03
           62295     766.612E-03
           62296     929.262E-03
           62297         6.10457
           62298         3.55333
           62299         5.83733
           62300         5.80847
           62301         5.82418
           62302         5.70961
           62303         5.73930
           62304         5.72279
           62305         5.76835
           62306         5.85204
           62307         5.72311
           62308         6.50178
           62309         6.42706
           62310         6.63502
           62311         8.08407
           62312         8.00512
           62313         7.88780
           62314         8.14294
           62315         8.22077
           62316         8.34270
           62317         9.23391
           62318         6.04627
           62319         6.14605
           62320         5.84164
           62321         3.34961
           62322         3.42266
           62323         3.39786
           62324         3.43757
           62325         3.36376
           62326         3.38778
           62327         7.25754
           62328         3.95096
           62329         4.02981
           62330         3.30200
           62331         3.31567
           62332         3.24771
           62333         3.23836
           62334         3.29224
           62335         4.20538
           62336         4.21659
           62337         4.32342
           62338         6.24160
           62339         6.17440
           62340         6.19458
           62341         5.98712
           62342         6.03244
           62343         8.38608
           62344         5.20606
           62345         5.51102
           62346         5.55429
           62347         5.54064
           62348         5.44342
           62349         7.97379
           62350         7.79341
           62351         6.81154
           62352         7.01812
           62353         7.10657
           62354         6.98119
           62355         7.57559
           62356         5.50611
           62357         5.60853
           62358         5.69319
           62359         8.55489
           62360         8.75394
           62361         8.64966
           62362         8.75211
           62363         5.85957
           62364         6.10553
           62365         6.21498
           62366         5.10731
           62367         5.25521
           62368         5.20135
           62369         6.08252
           62370         6.18870
           62371         6.05918
           62372         6.00408
           62373         6.12794
           62374         5.22939
           62375         5.68966
           62376         5.67602
           62377         5.67673
           62378         5.66711
           62379         5.75052
           62380         3.71169
           62381         3.64084
           62382         3.66273
           62383         3.40560
           62384         3.47671
           62385         3.65020
           62386         3.34480
           62387         3.43249
           62388         3.72155
           62389         3.73136
           62390         3.24484
           62391         2.70130
           62392         2.70763
           62393         2.71650
           62394         2.70132
           62395         2.63112
           62396         2.64576
           62397         2.64033
           62398         2.65849
           62399         3.54700
           62400         2.59911
           62401         2.44671
           62402         2.33646
           62403         2.35841
           62404         2.55461
           62405         2.54876
           62406         2.55253
           62407         2.53109
           62408         2.53756
           62409         2.53377
           62410         2.34229
           62411         2.44581
           62412         2.17399
           62413         2.04006
           62414         2.48560
           62415         2.20377
           62416         1.39326
           62417         1.28899
           62418         1.36562
           62419         5.35892
           62420         4.46330
           62421         2.62688
           62422         2.36945
           62423         2.48044
           62424         2.09359
           62425         1.94521
           62426     428.383E-03
           62427     489.109E-03
           62428         9.70018
           62429         9.68263
           62430         9.29607
           62431         11.9949
           62432         10.8891
           62433         2.68535
           62434         2.73730
           62435         12.3078
           62436         12.0424
           62437         11.1656
           62438         11.1572
           62439         9.84634
           62440         8.52786
           62441         9.98761
           62442         2.54562
           62443         2.51225
           62444         2.51554
           62445         2.50965
           62446         2.52979
           62447         2.59148
           62448         2.71217
           62449         5.51922
           62450         5.53560
           62451         5.55258
           62452         5.47300
           62453         5.47170
           62454         5.46789
           62455         5.46703
           62456         5.45392
           62457         11.6530
           62458         13.9007
           62459         12.5663
           62460         1.44017
           62461         1.47007
           62462         1.33031
           62463         1.25079
           62464         1.22388
           62465         1.36397
           62466         1.08655
           62467         1.14837
           62468         2.50489
           62469         2.40708
           62470         2.39687
           62471         2.38562
           62472         2.39075
           62473         2.40117
           62474         2.53619
           62475         3.08442
           62476         3.04555
           62477         3.01782
           62478         3.00904
           62479         3.04716
           62480     930.840E-03
           62481     809.877E-03
           62482     807.711E-03
           62483         3.62079
           62484         3.29729
           62485         1.69361
           62486         1.57733
           62487         1.67798
           62488         3.21819
           62489         3.19461
           62490         3.14597
           62491         3.16771
           62492         3.19040
           62493         1.53398
           62494         1.52848
           62495         1.63541
           62496         1.64038
           62497         1.54038
           62498         1.34232
           62499         1.42611
           62500         1.32424
           62501         2.39139
           62502         2.37529
           62503         2.43764
           62504         2.38040
           62505         1.57171
           62506         1.65866
           62507         1.43617
           62508         1.55120
           62509     820.110E-03
           62510     451.850E-03
           62511     481.260E-03
           62512     484.197E-03
           62513     926.299E-03
           62514     982.082E-03
           62515     450.916E-03
           62516     419.263E-03
           62517     389.798E-03
           62518     383.405E-03
           62519     449.065E-03
           62520     519.611E-03
           62521     487.718E-03
           62522     479.102E-03
           62523         2.72732
           62524         2.74189
           62525         2.85120
           62526         2.85281
           62527         2.86457
           62528         2.87101
           62529         2.86903
           62530         2.85613
           62531         2.79020
           62532         2.79997
           62533         2.79391
           62534         2.56943
           62535         2.53710
           62536         2.54851
           62537         2.52809
           62538         2.56106
           62539         2.54951
           62540         2.41552
           62541         2.37283
           62542         2.36512
           62543         2.03489
           62544         2.17173
           62545         2.17614
           62546         2.14339
           62547         2.16157
           62548         2.15721
           62549         2.29043
           62550         2.35185
           62551         2.29499
           62552         3.71833
           62553         3.75653
           62554         3.69505
           62555         3.82264
           62556         3.82744
           62557         3.93387
           62558         2.33061
           62559         2.31830
           62560         2.29897
           62561         2.35977
           62562         2.38833
           62563         3.45750
           62564         3.44719
           62565         4.48460
           62566         4.53105
           62567         4.56622
           62568         2.23558
           62569         2.25474
           62570         2.35396
           62571         2.37013
           62572         2.33904
           62573         2.28271
           62574         2.31179
           62575         2.64115
           62576         3.07716
           62577         3.00545
           62578         3.02455
           62579         3.04222
           62580         3.06549
           62581         3.04746
           62582         3.01558
           62583         2.36671
           62584         2.42091
           62585         2.40337
           62586         2.44366
           62587         2.40627
           62588         2.40602
           62589         2.39048
           62590         3.20886
           62591         3.24235
           62592         3.22521
           62593         3.19189
           62594         3.18049
           62595         2.43063
           62596         2.38764
           62597         2.40634
           62598         2.98833
           62599         2.94874
           62600         3.00250
           62601         2.93911
           62602         2.97780
           62603         2.34022
           62604         2.31300
           62605         2.26818
           62606         2.28037
           62607         3.99845
           62608         3.87061
           62609         4.01046
           62610         3.91295
           62611         5.65744
           62612         5.65137
           62613         5.65872
           62614         5.66821
           62615         5.67328
           62616         10.4424
           62617         5.71272
           62618         5.71238
           62619         4.07078
           62620         3.37376
           62621         3.60068
           62622         3.92173
           62623         4.39013
           62624         4.25304
           62625         4.97031
           62626         6.12034
           62627         4.11427
           62628         4.41021
           62629         5.82771
           62630         4.04195
           62631         3.86732
           62632         3.91557
           62633         5.01916
           62634         5.11741
           62635         5.06985
           62636         4.96969
           62637         2.22186
           62638         2.48702
           62639         2.43089
           62640         2.23121
           62641         2.19367
           62642         2.63570
           62643         2.63464
           62644         2.82232
           62645         2.85004
           62646         2.02484
           62647         2.05901
           62648         2.02670
           62649         2.70832
           62650         2.68830
           62651         2.68334
           62652         2.08669
           62653         2.10686
           62654         2.09842
           62655         2.05136
           62656         2.13412
           62657         2.16148
           62658         2.70359
           62659         2.72224
           62660         2.70180
           62661         2.73263
           62662         2.71349
           62663         3.00762
           62664         2.27387
           62665         2.30019
           62666         2.28532
           62667         2.71233
           62668         2.69034
           62669         10.7512
           62670         13.1394
           62671         11.6195
           62672         12.0858
           62673         10.0171
           62674         11.1803
           62675         4.83872
           62676         4.81506
           62677         8.77453
           62678         8.57081
           62679         9.52210
           62680         8.94421
           62681         9.12660
           62682         8.21803
           62683         11.7759
           62684         9.82318
           62685         10.3263
           62686         6.49651
           62687         6.36459
           62688         6.47550
           62689         5.44261
           62690         5.42243
           62691         5.42237
           62692         5.44209
           62693         5.46457
           62694         11.2392
           62695         6.21458
           62696         6.18452
           62697         6.07694
           62698         5.77036
           62699         5.76900
           62700         5.79105
           62701         5.78550
           62702         4.65845
           62703         4.78224
           62704         2.60291
           62705         2.79183
           62706         4.54502
           62707         4.47260
           62708         4.30350
           62709         4.37394
           62710         2.35365
           62711         2.39613
           62712         2.32046
           62713         2.32464
           62714         2.06850
           62715         4.45140
           62716         4.48941
           62717         4.72150
           62718         4.47682
           62719         4.54461
           62720         5.35064
           62721         5.51161
           62722         5.41987
           62723         5.45706
           62724         5.29670
           62725         5.38784
           62726         5.24139
           62727         5.11484
           62728         5.13529
           62729         5.06772
           62730         5.19198
           62731         5.17196
           62732         2.34827
           62733         2.33479
           62734         5.05456
           62735         5.17897
           62736         5.09710
           62737         5.17703
           62738         2.65444
           62739         2.70454
           62740         2.72612
           62741         2.80201
           62742         2.74816
           62743         2.72648
           62744         5.29543
           62745         5.45567
           62746         5.49384
           62747         5.33277
           62748         5.36886
           62749         9.75592
           62750         9.33595
           62751         9.97541
           62752         9.60406
           62753         9.38766
           62754         3.44891
           62755         9.91939
           62756         9.92578
           62757         10.8378
           62758         10.8845
           62759         10.3844
           62760         3.61756
           62761         3.65996
           62762         3.59554
           62763         3.53832
           62764         2.55358
           62765         2.50081
           62766         2.52478
           62767         2.18452
           62768         2.22699
           62769         2.19995
           62770         10.2055
           62771         10.3125
           62772         11.0448
           62773         2.67295
           62774         2.67902
           62775         2.66732
           62776         2.62439
           62777         2.67880
           62778         2.68333
           62779         2.68338
           62780         2.67602
           62781         2.68563
           62782         2.87988
           62783         2.92021
           62784         2.69573
           62785         2.68954
           62786         2.69786
           62787         2.68989
           62788         5.87433
           62789         5.87970
           62790         6.03054
           62791         5.93076
           62792         2.69911
           62793         2.88069
           62794         2.88680
           62795         2.89969
           62796         2.85980
           62797         2.85385
           62798         2.35460
           62799         2.39045
           62800         2.38796
           62801         3.15028
           62802         3.14826
           62803         3.13260
           62804         3.19411
           62805         3.19593
           62806         3.21212
           62807         5.86476
           62808         6.01457
           62809         3.13528
           62810         3.07650
           62811         6.29973
           62812         2.66389
           62813         2.66484
           62814         2.66728
           62815         2.68501
           62816         2.68655
           62817         2.68292
           62818         2.69476
           62819         2.70157
           62820         2.70796
           62821         2.68851
           62822         6.17275
           62823         2.65763
           62824         2.66130
           62825         2.67676
           62826         2.67853
           62827         2.66776
           62828         2.55126
           62829         2.54667
           62830         2.54351
           62831         2.54063
           62832         2.34330
           62833         2.33695
           62834         2.36674
           62835         2.35936
           62836         2.36641
           62837         2.33584
           62838         2.66700
           62839         2.67692
           62840         1.66505
           62841         2.68196
           62842         2.67692
           62843         2.67758
           62844         2.67507
           62845         2.66252
           62846         2.63833
           62847         2.64435
           62848         2.65732
           62849         2.83144
           62850         2.83349
           62851         2.83977
           62852         2.85542
           62853         2.84926
           62854         4.78527
           62855         4.75187
           62856         4.83179
           62857         4.71585
           62858         2.88828
           62859         4.18337
           62860         4.16680
           62861         4.86529
           62862         4.81875
           62863         2.65493
           62864         2.65233
           62865         2.65295
           62866         2.54786
           62867         2.54399
           62868         2.66032
           62869         2.66131
           62870         2.66096
           62871         2.66073
           62872         4.50026
           62873         4.31206
           62874         4.36810
           62875         2.65464
           62876         2.64919
           62877         2.65124
           62878         2.65694
           62879         2.65827
           62880         4.63922
           62881         4.61674
           62882         2.56830
           62883         2.65088
           62884         2.64632
           62885         2.64837
           62886         2.65330
           62887         2.51340
           62888         2.51466
           62889         2.52507
           62890         2.52129
           62891         2.70286
           62892         2.72901
           62893         2.70323
           62894         2.61223
           62895         2.61174
           62896         2.61126
           62897         2.61349
           62898         2.61975
           62899         2.61893
           62900         2.61569
           62901         2.41784
           62902         2.39284
           62903         2.40881
           62904         2.54502
           62905         4.47716
           62906         2.72221
           62907         2.71043
           62908         2.72578
           62909         2.71240
           62910         2.70681
           62911         2.41910
           62912         2.66154
           62913         2.66579
           62914         2.65805
           62915         2.65935
           62916         2.65499
           62917     640.067E-03
           62918     675.807E-03
           62919     711.075E-03
           62920     674.646E-03
           62921     619.174E-03
           62922         2.97167
           62923         2.61919
           62924         2.61485
           62925         2.61720
           62926         2.62170
           62927         2.59682
           62928         1.04967
           62929         1.03340
           62930         1.11515
           62931         1.06024
           62932         1.07657
           62933         2.66935
           62934         2.66452
           62935         2.66609
           62936         2.64572
           62937         2.64719
           62938         2.64925
           62939         2.65141
           62940     933.386E-03
           62941         1.00500
           62942         1.03331
           62943         1.01641
           62944         2.63838
           62945         2.63885
           62946         2.58060
           62947         2.57299
           62948     925.933E-03
           62949     990.440E-03
           62950         2.91074
           62951         2.90023
           62952         2.64053
           62953         2.65144
           62954         2.64227
           62955         2.63633
           62956         2.63531
           62957         2.60196
           62958         2.60089
           62959         2.59526
           62960         2.59593
           62961         2.59791
           62962         2.55731
           62963         2.56242
           62964         2.55211
           62965         2.54663
           62966         2.78102
           62967         2.77683
           62968         2.75401
           62969         2.78490
           62970         2.58526
           62971         2.56841
           62972         2.77891
           62973         2.79688
           62974         2.79354
           62975         2.77644
           62976         2.76267
           62977         2.44081
           62978         2.43125
           62979         1.08788
           62980         1.05432
           62981         1.05390
           62982         2.12745
           62983         2.18108
           62984         2.11604
           62985         2.11789
           62986         2.06298
           62987         2.12884
           62988         2.08659
           62989         2.14156
           62990         2.13474
           62991         2.08059
           62992         2.10551
           62993         3.59334
           62994         3.57420
           62995         3.49981
           62996         3.39652
           62997         3.41283
           62998         3.48989
           62999         2.29445
           63000         2.01711
           63001         2.01960
           63002         2.03291
           63003         3.08042
           63004         3.08924
           63005         3.00950
           63006         3.08930
           63007         3.08048
           63008         3.16036
           63009         2.03287
           63010         2.01888
           63011         2.01319
           63012         2.06032
           63013         2.01534
           63014         2.04227
           63015         2.06986
           63016         2.06000
           63017         2.06580
           63018         2.02841
           63019         2.09614
           63020         2.05565
           63021         2.09149
           63022         2.02355
           63023         2.77092
           63024         2.63560
           63025         2.56403
           63026     283.474E-03
           63027     46.5678E-03
           63028     33.7104E-03
           63029     62.3403E-03
           63030     44.1377E-03
           63031     76.7002E-03
           63032     14.7865E-03
           63033     30.2284E-03
           63034     15.9551E-03
           63035     49.5609E-03
           63036     21.8026E-03
           63037     52.2040E-03
           63038     43.3994E-03
           63039     73.2292E-03
           63040     928.745E-03
           63041         1.02033
           63042     37.5582E-03
           63043     21.0852E-03
           63044     22.1548E-03
           63045     50.3301E-03
           63046     49.6115E-03
           63047         5.54004
           63048         5.54546
           63049         5.58709
           63050         5.53791
           63051         5.48373
           63052         5.47277
           63053         5.49244
           63054         5.47192
           63055         5.47948
           63056         5.93958
           63057         5.96778
           63058         5.99451
           63059         5.95501
           63060         5.89964
           63061         2.82323
           63062         2.85650
           63063         2.84879
           63064         2.80471
           63065         5.85674
           63066         5.89893
           63067         5.87164
           63068         3.40352
           63069         3.44294
           63070         3.50817
           63071         2.49795
           63072         2.49174
           63073         4.95142
           63074         2.80407
           63075         2.79742
           63076         2.77795
           63077         5.87151
           63078         5.89778
           63079         2.99754
           63080         3.00959
           63081         2.96230
           63082         2.99647
           63083         2.98442
           63084     452.078E-03
           63085     409.211E-03
           63086         5.38793
           63087         5.42828
           63088         5.45745
           63089         5.41495
           63090         5.52460
           63091         5.53285
           63092         5.57200
           63093         5.56172
           63094         5.56877
           63095         5.54106
           63096         5.46567
           63097         6.44835
           63098         6.44461
           63099         6.30616
           63100     506.519E-03
           63101     492.080E-03
           63102     463.274E-03
           63103         2.39436
           63104         2.43917
           63105         2.85478
           63106         2.38967
           63107         2.41170
           63108         2.57569
           63109         2.56685
           63110         2.55547
           63111         2.54653
           63112         2.55536
           63113         2.56610
           63114     504.996E-03
           63115     429.394E-03
           63116     446.791E-03
           63117     441.946E-03
           63118     516.470E-03
           63119         2.62992
           63120     597.407E-03
           63121     654.057E-03
           63122     560.426E-03
           63123     505.919E-03
           63124     667.799E-03
           63125     355.861E-03
           63126     303.033E-03
           63127     384.139E-03
           63128     407.049E-03
           63129         4.80587
           63130         4.77560
           63131         4.20240
           63132         4.13537
           63133         4.43569
           63134         9.72836
           63135         8.77430
           63136         8.95604
           63137         8.94980
           63138         8.73844
           63139         7.82343
           63140         6.99876
           63141         10.4554
           63142         12.2066
           63143         7.47031
           63144         14.8597
           63145         15.5849
           63146         13.9811
           63147         11.5764
           63148         10.6380
           63149         8.28411
           63150         7.81031
           63151         8.00636
           63152         8.24247
           63153         8.47744
           63154         8.19420
           63155         2.51709
           63156         2.60965
           63157         2.67905
           63158         2.60251
           63159         10.8999
           63160         11.4980
           63161         10.3491
           63162         10.6931
           63163         10.1830
           63164         11.3569
           63165         6.80986
           63166         10.4526
           63167         10.8490
           63168         7.23862
           63169         7.39156
           63170         8.18182
           63171         8.83604
           63172         5.90218
           63173         5.97483
           63174         6.08398
           63175         5.61461
           63176         6.08311
           63177         5.48011
           63178         9.19341
           63179         10.1166
           63180         10.1255
           63181         9.17148
           63182         8.32444
           63183         8.45007
           63184         13.9318
           63185         4.74753
           63186         4.99393
           63187         13.0096
           63188         11.8210
           63189         6.86481
           63190         9.94068
           63191         9.85267
           63192         6.36619
           63193         6.32381
           63194         6.44360
           63195         6.19158
           63196         6.56654
           63197         7.60388
           63198         4.94795
           63199         15.8904
           63200         14.4234
           63201         14.9057
           63202         16.6125
           63203         21.0203
           63204         5.04752
           63205         4.88648
           63206         2.45109
           63207         2.46087
           63208         2.45513
           63209         2.44777
           63210         2.46077
           63211         2.47082
           63212         2.46673
           63213         15.9915
           63214         21.6254
           63215         21.6421
           63216         16.3681
           63217         21.0987
           63218         6.57916
           63219         6.63338
           63220         6.95027
           63221         2.48331
           63222         2.46033
           63223         2.47459
           63224         2.48080
           63225         2.47519
           63226         2.46746
           63227         2.48755
           63228         2.44489
           63229         2.45286
           63230         6.53037
           63231         7.94414
           63232         7.35855
           63233         6.51349
           63234         7.08970
           63235         2.45536
           63236         2.61363
           63237         17.1698
           63238         16.8263
           63239         19.7278
           63240         15.7178
           63241         19.7471
           63242         8.14847
           63243         8.65655
           63244         6.94164
           63245         6.50937
           63246         2.61502
           63247         2.61595
           63248         3.78909
           63249         3.51119
           63250         2.60436
           63251         2.60430
           63252         2.60486
           63253         2.60732
           63254         2.61438
           63255         2.61300
           63256         2.61266
           63257         2.61396
           63258         2.61732
           63259         2.61854
           63260         2.61916
           63261         2.61287
           63262         2.60944
           63263         2.60799
           63264         2.61141
           63265         3.13699
           63266         3.05360
           63267         12.3853
           63268         13.0273
           63269         12.6307
           63270         12.6183
           63271         12.2489
           63272         2.13535
           63273         2.86077
           63274         2.85976
           63275         2.92034
           63276         2.87719
           63277         2.86578
           63278         2.94009
           63279         2.99666
           63280         3.00259
           63281         3.05663
           63282         10.5220
           63283         7.52685
           63284         5.41982
           63285         5.60106
           63286         5.57727
           63287         2.79578
           63288         2.92260
           63289         2.65110
           63290         2.82487
           63291         2.72436
           63292         2.99869
           63293         11.7666
           63294         13.0976
           63295         11.7816
           63296         5.33213
           63297         5.59196
           63298         5.58270
           63299         15.7960
           63300         14.1059
           63301         17.9563
           63302         5.43571
           63303         5.46400
           63304         5.48981
           63305         5.49851
           63306         14.1368
           63307         14.2615
           63308         13.6813
           63309         5.48909
           63310         10.4319
           63311         10.6533
           63312         10.7755
           63313         5.59303
           63314         2.94490
           63315         2.91282
           63316         2.92283
           63317         2.87136
           63318         2.92847
           63319         2.99696
           63320         2.92292
           63321         3.04991
           63322         2.99330
           63323         7.24155
           63324         6.46468
           63325         3.03762
           63326         2.75260
           63327         8.04778
           63328         2.98206
           63329         7.29306
           63330         10.8256
           63331         10.9836
           63332         9.01307
           63333         12.4024
           63334         7.06445
           63335         6.76137
           63336         7.02251
           63337         7.22704
           63338         6.97709
           63339         6.83489
           63340         9.82623
           63341         10.0177
           63342         3.23256
           63343         3.22438
           63344         18.8646
           63345         17.8202
           63346         18.1271
           63347         13.2699
           63348         14.2181
           63349         19.2275
           63350         23.3677
           63351         24.6779
           63352         20.2195
           63353         24.8574
           63354         2.96682
           63355         2.97864
           63356         2.98382
           63357         9.70318
           63358         8.69166
           63359         9.11916
           63360         11.8493
           63361         12.0619
           63362         11.4961
           63363         3.72835
           63364         3.81571
           63365         3.66274
           63366         3.01135
           63367         2.98654
           63368         3.09697
           63369         3.10651
           63370         3.95568
           63371         4.05054
           63372         3.94930
           63373         3.94435
           63374         3.95098
           63375         4.02743
           63376         4.18812
           63377         1.61551
           63378         11.3129
           63379         11.7031
           63380         14.1793
           63381         13.5421
           63382         14.5705
           63383         3.84561
           63384         3.75174
           63385         3.72949
           63386         3.65382
           63387         3.44678
           63388         3.47469
           63389         3.41353
           63390         1.75689
           63391         1.74139
           63392         1.61868
           63393         3.83178
           63394         3.71224
           63395         3.87894
           63396         3.97833
           63397         3.79054
           63398         3.74547
           63399         3.85795
           63400         3.92015
           63401         5.43267
           63402         5.36986
           63403         5.36653
           63404         5.38109
           63405         5.35613
           63406         5.47599
           63407         5.41915
           63408         5.40825
           63409         2.92827
           63410         2.77285
           63411         3.04930
           63412         3.54572
           63413         2.50686
           63414         2.69605
           63415         3.37634
           63416         3.12078
           63417         2.29550
           63418         6.11115
           63419         4.59932
           63420         4.73801
           63421         5.05592
           63422         5.04712
           63423         5.54659
           63424         5.53051
           63425         5.98548
           63426         5.88955
           63427         5.95338
           63428     955.754E-03
           63429     730.267E-03
           63430         7.35592
           63431         6.61573
           63432         7.08019
           63433         6.21052
           63434         6.28952
           63435         6.14469
           63436         5.98290
           63437         5.67977
           63438         5.74504
           63439         5.72619
           63440         5.72468
           63441         5.69146
           63442         1.81007
           63443         2.09464
           63444         1.27686
           63445         5.66814
           63446         5.64270
           63447         5.64202
           63448         5.61878
           63449         5.62334
           63450         4.39356
           63451         5.64438
           63452         5.63090
           63453         5.64532
           63454         5.62603
           63455         1.07529
           63456         1.13220
           63457         2.24279
           63458         2.24910
           63459         2.08625
           63460         1.72634
           63461         1.74800
           63462     621.720E-03
           63463         5.70294
           63464         5.64957
           63465         5.67484
           63466         2.56394
           63467         2.60329
           63468         2.57007
           63469         2.58911
           63470         2.54993
           63471         2.58391
           63472         2.54361
           63473         2.54599
           63474         2.52747
           63475         2.51097
           63476         6.62938
           63477         6.82927
           63478         2.58933
           63479         2.56626
           63480         2.48290
           63481         2.52745
           63482         2.53299
           63483         2.51183
           63484         2.49432
           63485         1.99351
           63486         2.00079
           63487         1.98429
           63488         1.97803
           63489         1.99379
           63490         1.99444
           63491         1.99331
           63492         2.00373
           63493         2.00932
           63494         2.01742
           63495         1.99388
           63496         1.02588
           63497         1.52117
           63498         1.51740
           63499         1.49023
           63500         1.81251
           63501         1.71557
           63502         1.90785
           63503         1.48694
           63504         1.58051
           63505         1.55581
           63506         1.62012
           63507         1.42235
           63508         1.58441
           63509         1.72736
           63510         5.54134
           63511         5.42017
           63512         5.55684
           63513         5.57944
           63514         5.50904
           63515         5.35028
           63516         5.32535
           63517         5.34907
           63518         5.25895
           63519         5.48109
           63520         5.54425
           63521         5.41218
           63522         5.35140
           63523         5.54671
           63524         5.28948
           63525         2.75391
           63526         2.77064
           63527         2.79685
           63528         2.78414
           63529         1.53770
           63530         1.42343
           63531         1.32704
           63532         1.36111
           63533         2.72401
           63534         2.71773
           63535         2.70177
           63536         2.70799
           63537         1.61534
           63538         1.48936
           63539         1.74816
           63540         2.69380
           63541         2.68715
           63542         2.71693
           63543     491.206E-03
           63544     595.681E-03
           63545     727.778E-03
           63546     700.468E-03
           63547     662.173E-03
           63548     550.289E-03
           63549         2.77091
           63550         2.76657
           63551         2.72090
           63552         2.72059
           63553     775.980E-03
           63554     647.254E-03
           63555     621.352E-03
           63556         1.18548
           63557         1.13278
           63558         1.34776
           63559         1.29607
           63560         1.02784
           63561         1.15927
           63562     978.449E-03
           63563         1.08187
           63564         4.65912
           63565         1.53815
           63566         2.02736
           63567         1.48260
           63568         1.34116
           63569         1.02470
           63570         2.57344
           63571         2.56983
           63572         2.57767
           63573         2.58049
           63574         2.57218
           63575         2.58357
           63576         2.58909
           63577         2.59173
           63578         2.58943
           63579         2.58669
           63580         2.59534
           63581         2.57980
           63582         2.58778
           63583         2.59451
           63584         2.58733
           63585         2.58899
           63586         2.58313
           63587         2.59934
           63588         2.59756
           63589         2.59573
           63590         4.19486
           63591         4.12644
           63592         4.10623
           63593         4.20827
           63594         2.60010
           63595         6.01885
           63596         5.91536
           63597         6.08077
           63598         5.97574
           63599         6.14217
           63600         6.01374
           63601         6.07095
           63602         6.13519
           63603         6.26353
           63604         6.20865
           63605         10.1359
           63606         9.43026
           63607         9.00298
           63608         8.82862
           63609         9.63348
           63610         9.58032
           63611         7.45342
           63612         9.87847
           63613         11.8564
           63614         10.9694
           63615         6.04876
           63616         5.99450
           63617         6.74273
           63618         6.21186
           63619         3.76594
           63620         3.78451
           63621         3.81659
           63622         21.5131
           63623         21.8654
           63624         23.1999
           63625         17.5535
           63626         14.1019
           63627         11.8958
           63628         3.75493
           63629         3.77329
           63630         3.71874
           63631         3.70063
           63632         3.67369
           63633         3.73914
           63634         3.65843
           63635         3.64927
           63636         3.72889
           63637         3.68643
           63638         3.80934
           63639         3.76479
           63640         3.80420
           63641         3.83331
           63642         4.84658
           63643         4.83569
           63644         4.62550
           63645         4.73400
           63646         28.9504
           63647         23.7023
           63648         26.2473
           63649         31.7433
           63650         31.2936
           63651         16.3362
           63652         22.2780
           63653         23.0194
           63654         16.5671
           63655         4.60879
           63656         4.75975
           63657         4.92077
           63658         4.90814
           63659         4.86242
           63660         2.73343
           63661         33.9277
           63662         35.9361
           63663         2.74967
           63664         2.72902
           63665         2.73609
           63666         13.6834
           63667         2.81740
           63668         2.82995
           63669         2.79204
           63670         2.77300
           63671         2.77941
           63672         2.78024
           63673         2.79276
           63674         2.71352
           63675         2.73154
           63676         2.72141
           63677         2.75705
           63678         13.1025
           63679         13.7589
           63680         11.6827
           63681         27.1051
           63682         28.0906
           63683         13.7719
           63684         2.76227
           63685         11.3065
           63686         2.72346
           63687         2.72749
           63688         6.26657
           63689         6.14049
           63690         6.30321
           63691         6.21210
           63692         6.33927
           63693         6.17375
           63694         23.1688
           63695         23.8648
           63696         11.7019
           63697         14.4730
           63698         13.9582
           63699         13.9029
           63700         6.50831
           63701         6.64784
           63702         6.60419
           63703         6.40908
           63704         6.79125
           63705         6.58634
           63706         9.43820
           63707         9.83889
           63708         10.4954
           63709         10.7398
           63710         6.53321
           63711         6.62871
           63712         6.50354
           63713         1.87396
           63714         1.89771
           63715         1.92249
           63716         1.90211
           63717         1.87361
           63718         1.79718
           63719         1.84132
           63720         1.78036
           63721         1.78779
           63722         1.74145
           63723         8.10916
           63724         5.63487
           63725         1.18532
           63726         2.13047
           63727         2.29844
           63728         1.80012
           63729         1.87620
           63730         1.85879
           63731         2.93106
           63732         2.71398
           63733         2.41194
           63734         2.66809
           63735         3.11261
           63736         2.90940
           63737         3.14339
           63738         3.29196
           63739         3.45760
           63740         3.20049
           63741         4.72724
           63742         1.87507
           63743     488.544E-03
           63744     366.145E-03
           63745     523.747E-03
           63746         3.02927
           63747         2.99892
           63748         3.00771
           63749         3.03582
           63750         3.06663
           63751         3.05908
           63752         2.95408
           63753         2.98120
           63754         2.98852
           63755         2.95183
           63756         2.96311
           63757         2.93334
           63758         2.95979
           63759         2.92279
           63760         3.01222
           63761         3.02111
           63762         3.07328
           63763         3.04715
           63764         3.36006
           63765         3.28844
           63766         3.13831
           63767         2.96099
           63768         3.02523
           63769         3.16807
           63770         3.10758
           63771         3.11319
           63772         2.20134
           63773         5.81487
           63774         5.91884
           63775         5.93710
           63776         5.91060
           63777         5.86008
           63778         5.80805
           63779         5.83943
           63780         14.6447
           63781         14.1666
           63782         10.4656
           63783         12.5794
           63784         13.3623
           63785         16.7042
           63786         5.76215
           63787         5.75399
           63788         5.79200
           63789         5.78697
           63790         5.87215
           63791         3.88134
           63792         3.93139
           63793         4.84966
           63794         1.61329
           63795         1.80097
           63796         1.84725
           63797         1.65664
           63798         1.59060
           63799         1.72447
           63800         1.64637
           63801         3.88263
           63802         1.90207
           63803         1.82866
           63804         1.68758
           63805         2.66071
           63806         2.64906
           63807     755.102E-03
           63808     742.808E-03
           63809     481.314E-03
           63810     460.043E-03
           63811     589.183E-03
           63812         2.66423
           63813     714.717E-03
           63814     678.130E-03
           63815     856.108E-03
           63816         2.14849
           63817         1.97378
           63818         2.51602
           63819         2.66778
           63820         2.68809
           63821         16.6884
           63822         2.66395
           63823         2.67450
           63824         2.66190
           63825         2.68655
           63826         2.68431
           63827         1.30584
           63828         1.13621
           63829         1.20253
           63830         1.16454
           63831     683.637E-03
           63832     444.128E-03
           63833     910.189E-03
           63834     925.612E-03
           63835     971.331E-03
           63836     882.809E-03
           63837     874.140E-03
           63838         3.85296
           63839         4.60245
           63840         4.37631
           63841         1.15335
           63842         1.25112
           63843         1.21303
           63844         1.33684
           63845         1.37420
           63846         4.55884
           63847         3.73671
           63848         1.29979
           63849     622.545E-03
           63850     340.399E-03
           63851     427.112E-03
           63852     414.285E-03
           63853     436.461E-03
           63854     349.776E-03
           63855         2.69449
           63856     359.586E-03
           63857     365.122E-03
           63858     707.402E-03
           63859     711.658E-03
           63860     332.236E-03
           63861         1.64147
           63862         4.79834
           63863         4.06900
           63864         1.38616
           63865         1.35848
           63866         1.33537
           63867         1.32043
           63868         1.34526
           63869         1.36493
           63870         2.03512
           63871         1.39429
           63872         1.49338
           63873         1.40421
           63874         1.55966
           63875         1.51520
           63876         1.51266
           63877         5.52820
           63878         2.49197
           63879         2.48977
           63880         2.48451
           63881         2.50859
           63882         2.49960
           63883         2.48115
           63884         2.47657
           63885         2.32338
           63886         2.19352
           63887         2.48923
           63888         1.48805
           63889         1.32671
           63890         1.30993
           63891     970.796E-03
           63892         1.07329
           63893         2.51386
           63894         2.50113
           63895         5.05685
           63896         4.86804
           63897         2.50661
           63898         2.48081
           63899         2.47025
           63900         2.47503
           63901         2.47853
           63902         2.48887
           63903         2.48000
           63904         2.47384
           63905         2.48894
           63906     55.2719E-03
           63907     121.067E-03
           63908     54.4992E-03
           63909     8.99662E-03
           63910     140.141E-03
           63911     126.380E-03
           63912         5.67500
           63913         6.29423
           63914         6.42705
           63915     126.507E-03
           63916     129.363E-03
           63917     62.2871E-03
           63918         12.2584
           63919         9.39033
           63920         5.76989
           63921         5.38338
           63922         4.77706
           63923         5.10328
           63924         5.33850
           63925         2.33092
           63926         2.29317
           63927         2.30401
           63928         2.34059
           63929         2.28401
           63930         12.3172
           63931         15.7125
           63932         12.0518
           63933         2.23035
           63934         2.20315
           63935         2.19682
           63936         2.19296
           63937         2.22066
           63938         2.22603
           63939         2.15549
           63940         2.16036
           63941         2.18836
           63942         2.14770
           63943         3.05053
           63944         3.14818
           63945         1.61398
           63946         3.72748
           63947         3.90575
           63948         3.54785
           63949         2.30923
           63950         2.26046
           63951         2.26623
           63952         3.78046
           63953         3.88353
           63954         3.72282
           63955         5.43936
           63956         2.23317
           63957         2.18009
           63958         2.27025
           63959         2.27376
           63960         2.61315
           63961         2.62674
           63962         2.61845
           63963         2.61615
           63964         2.60780
           63965         3.36494
           63966         2.61816
           63967         2.62392
           63968         2.62834
           63969         2.85055
           63970         2.85593
           63971         2.84029
           63972         2.84327
           63973         2.91422
           63974         2.98262
           63975         2.87043
           63976         4.42518
           63977         4.45533
           63978         4.46726
           63979         7.74613
           63980         6.40536
           63981         3.05265
           63982         3.00920
           63983         2.92297
           63984         5.92601
           63985         5.36385
           63986         2.11871
           63987         11.8831
           63988         2.36637
           63989         2.26060
           63990         2.11315
           63991         2.48423
           63992         4.38373
           63993         6.02357
           63994         1.98130
           63995         4.84004
           63996         4.99751
           63997         5.05162
           63998         4.84331
           63999         5.09502
           64000         5.04907
           64001         5.31694
           64002         4.41417
           64003         4.40062
           64004         4.60101
           64005         4.69826
           64006         4.69640
           64007         4.90467
           64008         4.79533
           64009         4.85219
           64010         4.62942
           64011         4.67388
           64012     161.662E-03
           64013     167.154E-03
           64014         13.5513
           64015     69.0215E-03
           64016     36.7732E-03
           64017     113.361E-03
           64018     153.344E-03
           64019         6.23904
           64020         6.84701
           64021         6.52661
           64022         6.61777
           64023     37.1350E-03
           64024     77.0979E-03
           64025     71.3303E-03
           64026         6.89851
           64027         6.30452
           64028         6.51413
           64029         6.97881
           64030         5.60729
           64031         5.63409
           64032         5.64256
           64033         5.61508
           64034         5.65162
           64035         5.28517
           64036         5.27108
           64037         5.38836
           64038         4.59539
           64039         4.63869
           64040         9.40108
           64041         8.68149
           64042         9.30690
           64043         7.33623
           64044         5.70904
           64045         5.68527
           64046         5.68016
           64047         5.66314
           64048         5.69202
           64049         8.19891
           64050         4.74216
           64051         4.51926
           64052         11.1373
           64053         10.7300
           64054         7.84756
           64055         8.43954
           64056         6.13793
           64057         6.18842
           64058         6.12111
           64059         5.74344
           64060         5.70561
           64061         5.68460
           64062         5.70608
           64063         5.69639
           64064         5.72763
           64065         5.75117
           64066         5.79578
           64067         5.72443
           64068         5.76557
           64069         5.64202
           64070         5.58589
           64071         5.59813
           64072         5.60377
           64073         5.66460
           64074         5.65913
           64075         8.17290
           64076         5.59672
           64077         5.60756
           64078     254.666E-03
           64079     261.386E-03
           64080     280.448E-03
           64081     221.496E-03
           64082     196.158E-03
           64083         11.2490
           64084         11.3508
           64085         11.4105
           64086         10.9636
           64087     257.665E-03
           64088     245.249E-03
           64089     273.610E-03
           64090     259.744E-03
           64091     286.506E-03
           64092     309.163E-03
           64093     279.939E-03
           64094         10.9646
           64095     332.841E-03
           64096     365.840E-03
           64097     311.655E-03
           64098     326.408E-03
           64099         10.7440
           64100         10.2315
           64101         10.8513
           64102     197.690E-03
           64103     229.100E-03
           64104     204.794E-03
           64105     214.695E-03
           64106     239.897E-03
           64107         6.11897
           64108         6.15257
           64109         6.01304
           64110         5.98301
           64111         5.90792
           64112         5.94185
           64113         5.96996
           64114         6.05278
           64115     332.713E-03
           64116     186.214E-03
           64117     188.349E-03
           64118         6.05763
           64119         6.06390
           64120         6.20016
           64121     289.829E-03
           64122     389.941E-03
           64123     345.777E-03
           64124     237.134E-03
           64125     142.340E-03
           64126     185.278E-03
           64127     231.780E-03
           64128         6.04556
           64129         8.57996
           64130         8.34583
           64131     125.017E-03
           64132     128.745E-03
           64133         9.58527
           64134         10.0274
           64135         10.4875
           64136         10.0122
           64137         9.82625
           64138     140.679E-03
           64139     194.588E-03
           64140         6.00300
           64141         6.11688
           64142         5.89353
           64143         5.79767
           64144         5.91638
           64145         7.63892
           64146         7.58624
           64147         7.54492
           64148         3.82214
           64149         3.70923
           64150         3.69709
           64151         3.79063
           64152         3.95145
           64153         4.14534
           64154         4.07840
           64155         4.14456
           64156         12.6818
           64157         18.0526
           64158         18.4476
           64159         9.83280
           64160         10.6250
           64161         9.85238
           64162         10.1956
           64163         3.80867
           64164         13.2760
           64165         3.92255
           64166         9.06244
           64167         3.85809
           64168     42.2596E-03
           64169     29.6686E-03
           64170     25.1385E-03
           64171         8.27635
           64172         8.82090
           64173         9.29998
           64174         8.60755
           64175     113.097E-03
           64176     131.774E-03
           64177         11.6684
           64178         10.6388
           64179     244.330E-03
           64180     314.355E-03
           64181     287.279E-03
           64182     291.223E-03
           64183     242.880E-03
           64184     315.221E-03
           64185     288.382E-03
           64186     208.855E-03
           64187     232.167E-03
           64188         6.16124
           64189         6.39519
           64190         6.57140
           64191         6.51644
           64192         6.27266
           64193         6.09556
           64194     178.404E-03
           64195         8.30189
           64196         8.83549
           64197         5.63594
           64198         5.67697
           64199         7.93519
           64200         8.92406
           64201         8.47831
           64202         2.61361
           64203         2.61439
           64204         2.61073
           64205         2.61634
           64206         2.61113
           64207         6.38644
           64208         6.42469
           64209         6.38846
           64210         6.03631
           64211         6.03287
           64212         6.04424
           64213         6.95075
           64214         6.71036
           64215         2.61356
           64216         2.61078
           64217         2.61520
           64218         2.61212
           64219         2.61671
           64220         7.47389
           64221         6.93274
           64222         12.1378
           64223         17.6540
           64224         16.3499
           64225         18.9686
           64226         18.1442
           64227         11.5857
           64228         12.1803
           64229         2.61800
           64230         2.62006
           64231         2.45034
           64232         2.42686
           64233         3.64543
           64234         2.41836
           64235         2.38239
           64236         2.39486
           64237         2.39723
           64238         2.43223
           64239         2.41966
           64240         2.41260
           64241         2.41082
           64242         2.44269
           64243         2.46349
           64244         2.46380
           64245         2.46356
           64246         2.44901
           64247         2.48107
           64248         2.43455
           64249         6.86165
           64250         4.79367
           64251         4.66173
           64252         4.84544
           64253         4.70197
           64254         10.7960
           64255         11.1195
           64256         11.5810
           64257         11.4478
           64258         4.91101
           64259         4.90074
           64260         9.78546
           64261         9.41483
           64262         10.6954
           64263         10.4726
           64264         10.1853
           64265         7.43262
           64266         7.56600
           64267         7.93741
           64268         7.75860
           64269         7.63783
           64270         7.28628
           64271         4.95290
           64272         4.86109
           64273         4.83486
           64274         6.03167
           64275         6.28654
           64276         4.99013
           64277         4.93654
           64278         10.7237
           64279         6.34282
           64280         6.19862
           64281         7.12589
           64282         4.79322
           64283         4.86801
           64284         4.89638
           64285         4.95739
           64286         4.86181
           64287         4.78545
           64288         6.71477
           64289         7.18901
           64290         12.8855
           64291         16.1539
           64292         10.7060
           64293         12.1663
           64294         5.66472
           64295         5.53007
           64296         5.63104
           64297         5.63792
           64298         5.61668
           64299         5.58109
           64300         5.75941
           64301         9.55408
           64302         9.89969
           64303         9.06693
           64304         5.73166
           64305         5.83730
           64306         5.62778
           64307         6.65006
           64308         6.73707
           64309         6.81114
           64310         6.68266
           64311         6.50845
           64312         7.86048
           64313         8.17532
           64314         9.75628
           64315         9.20323
           64316         9.94579
           64317         10.2257
           64318         8.22184
           64319         8.46429
           64320         8.04127
           64321         7.78008
           64322         7.53309
           64323         19.9324
           64324         6.62221
           64325         12.5433
           64326         9.95679
           64327         11.3511
           64328         3.11139
           64329         3.05371
           64330         10.4582
           64331         10.1759
           64332         10.6467
           64333         3.80034
           64334         3.78950
           64335         4.35930
           64336         4.42344
           64337         4.22273
           64338         3.13469
           64339         11.9675
           64340         15.3717
           64341         3.35766
           64342         3.35284
           64343         3.26879
           64344         3.18472
           64345         3.28221
           64346         3.28692
           64347         3.21270
           64348         3.19969
           64349         3.19571
           64350         8.56223
           64351         7.92895
           64352         7.52830
           64353         6.67707
           64354         6.59584
           64355         6.03340
           64356         5.37492
           64357         6.00937
           64358         4.97427
           64359         4.76637
           64360         5.04675
           64361         3.07252
           64362         3.20686
           64363         2.28725
           64364         2.33112
           64365         2.33785
           64366         2.40135
           64367         4.59336
           64368         4.26293
           64369         4.25709
           64370         2.82921
           64371         4.06620
           64372         4.04610
           64373         3.42451
           64374         8.99399
           64375         10.2294
           64376         10.5148
           64377         8.42959
           64378         7.52716
           64379         2.88597
           64380         2.97542
           64381         2.92550
           64382         2.74295
           64383         3.06859
           64384         5.10222
           64385         4.87550
           64386         5.43305
           64387         8.02029
           64388         9.74142
           64389         12.0246
           64390         9.29663
           64391         10.7830
           64392         11.4580
           64393         2.93712
           64394         2.97135
           64395         3.06365
           64396         2.86498
           64397         11.4107
           64398         10.9059
           64399         10.8114
           64400         14.1741
           64401         2.60971
           64402         2.67331
           64403         2.67667
           64404         2.77887
           64405         2.75975
           64406         9.42094
           64407         7.54096
           64408         3.43816
           64409         3.49379
           64410         3.32386
           64411         6.76450
           64412         3.77966
           64413         3.42618
           64414         3.44028
           64415         3.57198
           64416         3.65934
           64417         3.51302
           64418         3.66632
           64419     1.24244E-03
           64420     8.26762E-03
           64421     19.4637E-03
           64422     18.2449E-03
           64423     20.7450E-03
           64424     17.3489E-03
           64425     17.7089E-03
           64426     9.21803E-03
           64427     4.88291E-03
           64428     2.32195E-03
           64429     4.32785E-03
           64430     2.16461E-03
           64431     21.4350E-03
           64432     17.4105E-03
           64433     17.3212E-03
           64434     21.5615E-03
           64435     13.8957E-03
           64436     14.5904E-03
           64437     13.9387E-03
           64438     14.7209E-03
           64439     13.9525E-03
           64440     13.8140E-03
           64441         7.64229
           64442         7.09313
           64443         6.86150
           64444         6.74645
           64445         7.27951
           64446         7.51832
           64447         3.54138
           64448         3.52757
           64449         3.67094
           64450         7.66001
           64451         7.57228
           64452         7.10816
           64453         7.36922
           64454         3.39656
           64455         3.48504
           64456         11.8852
           64457         11.0554
           64458         7.34949
           64459         6.97111
           64460         7.00392
           64461         6.47155
           64462         6.77086
           64463         6.77013
           64464         7.63057
           64465         7.63852
           64466         7.25264
           64467         3.42391
           64468         3.47655
           64469         3.45161
           64470         3.31690
           64471         3.46821
           64472         3.34709
           64473         7.72424
           64474         7.39424
           64475         7.12525
           64476         3.65279
           64477         3.59904
           64478         3.57894
           64479         3.47342
           64480         3.72363
           64481         3.74195
           64482         10.8997
           64483         3.64107
           64484         3.70946
           64485         3.62462
           64486         8.29884
           64487         8.52640
           64488         1.92517
           64489         1.75983
           64490         7.92158
           64491         1.79461
           64492         2.00292
           64493         6.61106
           64494         6.55225
           64495         6.30464
           64496         6.12230
           64497         6.16383
           64498         6.41997
           64499         3.53549
           64500         6.58384
           64501         6.30480
           64502         6.10166
           64503         6.34575
           64504         6.59614
           64505         10.2973
           64506         10.2665
           64507         10.1493
           64508         2.24922
           64509         2.44130
           64510         1.54814
           64511         1.96200
           64512         2.08180
           64513         10.8473
           64514         11.4131
           64515         11.8836
           64516         12.9616
           64517         12.0379
           64518         1.91846
           64519         2.14762
           64520         1.89697
           64521         7.38900
           64522         7.55803
           64523         8.95594
           64524         8.69213
           64525         1.46830
           64526         5.22245
           64527         5.77185
           64528         6.15404
           64529     777.151E-03
           64530     746.278E-03
           64531     746.915E-03
           64532         14.3632
           64533         9.19509
           64534         14.6353
           64535     969.907E-03
           64536         1.08115
           64537         1.04729
           64538     923.917E-03
           64539     938.948E-03
           64540         9.42051
           64541     883.720E-03
           64542     932.921E-03
           64543     828.410E-03
           64544     774.104E-03
           64545     784.451E-03
           64546     681.185E-03
           64547     820.514E-03
           64548     921.312E-03
           64549         2.98449
           64550         2.95709
           64551         2.99052
           64552         3.01842
           64553         3.01375
           64554         3.05195
           64555         2.99530
           64556         3.02580
           64557         2.96865
           64558         2.95668
           64559         2.98168
           64560         3.01186
           64561         3.04278
           64562         3.07824
           64563         3.01489
           64564         3.14513
           64565         2.80713
           64566         2.89263
           64567         9.20060
           64568         1.00781
           64569     992.247E-03
           64570         7.45793
           64571         7.76516
           64572         1.02672
           64573     917.670E-03
           64574         1.03195
           64575         7.86861
           64576         8.53839
           64577         6.34730
           64578         6.27843
           64579         6.28824
           64580         6.33455
           64581         6.38931
           64582         5.87058
           64583         5.87688
           64584         5.79753
           64585         5.83764
           64586         1.15105
           64587         1.18790
           64588         1.14655
           64589         1.01812
           64590         1.03374
           64591         1.23745
           64592         1.19336
           64593         1.53622
           64594     887.344E-03
           64595         8.65204
           64596         8.48342
           64597         8.51779
           64598         8.93107
           64599         9.08434
           64600         9.07148
           64601         1.00703
           64602     987.914E-03
           64603     967.870E-03
           64604     920.190E-03
           64605     956.537E-03
           64606         2.46853
           64607         2.46640
           64608         2.45531
           64609         2.47686
           64610         9.09857
           64611         9.16479
           64612         8.78199
           64613         8.47104
           64614         7.93902
           64615         8.18440
           64616         8.01868
           64617         8.46336
           64618         7.84337
           64619         2.50101
           64620         2.51183
           64621         12.4278
           64622         2.49297
           64623         5.62856
           64624         5.76448
           64625         5.73804
           64626         6.02837
           64627         6.13287
           64628         6.15133
           64629         7.34556
           64630         7.69802
           64631         7.63188
           64632         7.53249
           64633         7.18648
           64634         7.98388
           64635         8.25410
           64636         7.89913
           64637         7.64400
           64638         6.14151
           64639         5.87870
           64640         5.86624
           64641         6.07882
           64642         6.09840
           64643         6.10855
           64644         6.31919
           64645         6.09317
           64646         5.98477
           64647         4.67891
           64648         5.66227
           64649         2.29364
           64650         2.33676
           64651         2.34168
           64652         2.26118
           64653         2.29539
           64654         2.28921
           64655         2.28177
           64656         2.25515
           64657         7.51064
           64658         9.63720
           64659         9.27030
           64660         9.33796
           64661         9.88366
           64662         9.77468
           64663         9.43038
           64664         9.77618
           64665         7.82932
           64666         2.24320
           64667         2.18261
           64668         2.22921
           64669         2.22298
           64670         2.23654
           64671         8.89387
           64672         9.30747
           64673         2.24149
           64674         2.21357
           64675         5.98174
           64676         5.96526
           64677         5.93117
           64678         5.94254
           64679         8.94335
           64680         9.31631
           64681         8.89466
           64682         8.83255
           64683         6.25569
           64684         6.41312
           64685         3.84862
           64686         3.81849
           64687         8.24766
           64688         8.36788
           64689         8.72547
           64690         3.56371
           64691         3.64377
           64692         3.79955
           64693         3.77339
           64694         9.49681
           64695         7.11095
           64696         8.17667
           64697         7.96106
           64698         7.97302
           64699         8.38085
           64700         8.57650
           64701         8.57300
           64702         8.04370
           64703         3.77642
           64704         3.56846
           64705         3.68018
           64706         3.66399
           64707         11.3300
           64708         12.1623
           64709         10.4129
           64710         8.07830
           64711         8.38610
           64712         3.73457
           64713         3.80580
           64714         3.81335
           64715         2.62551
           64716         2.46126
           64717         10.5016
           64718         2.52338
           64719         2.62367
           64720         2.64482
           64721         2.54391
           64722         2.58272
           64723         10.0345
           64724         11.7378
           64725         11.0428
           64726         10.3810
           64727         7.36126
           64728         7.13319
           64729         7.22685
           64730         7.40824
           64731         7.53035
           64732         18.4089
           64733         2.52272
           64734         2.46545
           64735         2.50181
           64736         2.46613
           64737         2.52358
           64738         2.58384
           64739         2.50382
           64740         8.21794
           64741         8.32595
           64742         8.80023
           64743         10.0220
           64744         9.51051
           64745         5.08784
           64746         11.7526
           64747         4.94657
           64748         4.89968
           64749         4.85261
           64750         4.89938
           64751         4.89032
           64752         5.10677
           64753         2.26745
           64754         2.25158
           64755         2.25953
           64756         2.26101
           64757         2.27744
           64758         2.27032
           64759         2.25554
           64760         2.30027
           64761         2.33922
           64762         2.31597
           64763         2.24929
           64764         2.43317
           64765         2.42516
           64766         2.39801
           64767         2.42557
           64768         2.43271
           64769         6.14790
           64770         6.34636
           64771         6.35446
           64772         6.80801
           64773         7.38168
           64774         6.82598
           64775         6.88416
           64776         2.41504
           64777         2.40714
           64778         2.42324
           64779         2.43133
           64780         2.39486
           64781         5.09136
           64782         5.06653
           64783         5.80301
           64784         2.44515
           64785         2.42695
           64786         2.45121
           64787         6.00298
           64788         6.28615
           64789         6.15794
           64790         5.80958
           64791         5.84964
           64792         5.77569
           64793         6.76200
           64794         6.72633
           64795         6.41209
           64796         6.63537
           64797         5.96306
           64798         5.91419
           64799         5.87228
           64800         5.91979
           64801         5.75431
           64802         5.79133
           64803         5.79877
           64804         5.94468
           64805         7.83858
           64806         7.62549
           64807         7.81121
           64808         8.03135
           64809         8.06281
           64810         8.95530
           64811         5.85516
           64812         5.94809
           64813         5.88063
           64814         5.94063
           64815         7.22300
           64816         5.74107
           64817         5.84634
           64818         5.93924
           64819         5.79434
           64820         5.76602
           64821         5.56773
           64822         6.31988
           64823         5.92067
           64824         5.89601
           64825     942.338E-03
           64826     923.408E-03
           64827     923.740E-03
           64828     882.599E-03
           64829     927.360E-03
           64830     979.454E-03
           64831     976.999E-03
           64832         8.42842
           64833         8.21805
           64834         8.63450
           64835         8.88320
           64836         9.08280
           64837         8.69295
           64838         6.29241
           64839     961.480E-03
           64840     891.931E-03
           64841     956.844E-03
           64842         10.0484
           64843         9.58961
           64844         9.27316
           64845         7.60506
           64846         2.56772
           64847         2.58127
           64848         2.57314
           64849         2.56022
           64850         2.57318
           64851         9.79054
           64852         10.2737
           64853         10.2307
           64854         2.54190
           64855         2.52796
           64856         2.54068
           64857         2.53424
           64858         2.54762
           64859         2.53509
           64860         2.55609
           64861         2.54253
           64862         2.53391
           64863         2.54749
           64864         2.54913
           64865         2.55067
           64866         2.55778
           64867         2.55912
           64868         2.55250
           64869         2.56213
           64870         2.56374
           64871         2.57485
           64872         2.56306
           64873         2.56158
           64874         2.56317
           64875         9.07784
           64876         8.52281
           64877         8.72998
           64878         4.96026
           64879         5.04684
           64880         5.14651
           64881         9.58392
           64882         9.70249
           64883         10.1949
           64884         7.88963
           64885         7.78149
           64886         7.61398
           64887         7.87915
           64888         7.97864
           64889         8.14824
           64890         7.51431
           64891         7.63571
           64892         7.59702
           64893         7.28891
           64894         7.46640
           64895         5.05937
           64896         9.46356
           64897         9.02138
           64898         10.0734
           64899         5.10975
           64900         2.87335
           64901         2.91178
           64902         11.8956
           64903         8.87646
           64904         8.59918
           64905         8.84986
           64906         3.13184
           64907         3.08910
           64908         3.07912
           64909         2.91887
           64910         2.87935
           64911         2.91037
           64912         2.97344
           64913         3.10427
           64914         3.05564
           64915         2.13492
           64916         2.19485
           64917         2.14552
           64918         3.89582
           64919         8.12592
           64920         2.28443
           64921         2.26393
           64922         2.30783
           64923         2.26853
           64924         2.28852
           64925         2.14588
           64926         2.16380
           64927         7.57971
           64928         7.64052
           64929         7.77916
           64930         8.14411
           64931         8.06045
           64932         7.93660
           64933         2.11238
           64934         2.13924
           64935         4.20547
           64936         3.98246
           64937         4.19921
           64938         3.44912
           64939     32.9950E-03
           64940     17.7449E-03
           64941     30.5176E-03
           64942         7.88908
           64943         7.67551
           64944     9.50841E-03
           64945         6.33832
           64946         7.04106
           64947         7.23149
           64948         5.26427
           64949         5.11462
           64950         4.90862
           64951         7.77057
           64952         3.44738
           64953         4.02021
           64954         3.87571
           64955         4.36496
           64956     21.1986E-03
           64957     106.459E-03
           64958     97.0545E-03
           64959     83.2233E-03
           64960     76.2697E-03
           64961         10.3352
           64962         10.0336
           64963         8.90257
           64964     83.9935E-03
           64965     120.344E-03
           64966         7.45191
           64967         8.95953
           64968         8.99181
           64969         6.58336
           64970     115.869E-03
           64971         5.78806
           64972         5.36261
           64973         12.1544
           64974         10.7567
           64975         14.9016
           64976         6.15291
           64977         2.77495
           64978         2.36971
           64979         2.27798
           64980         2.94338
           64981         2.50114
           64982         7.57516
           64983         7.70537
           64984         7.59281
           64985         7.85226
           64986         7.83832
           64987         7.17928
           64988         7.94234
           64989         7.68007
           64990         7.69903
           64991         4.06180
           64992         3.57619
           64993         3.86422
           64994         4.90066
           64995         4.67960
           64996         3.06222
           64997         2.71610
           64998         7.54026
           64999         4.09001
           65000         3.98329
           65001         4.02962
           65002         4.31412
           65003         4.41402
           65004         4.35476
           65005         7.25505
           65006         3.69429
           65007         4.19938
           65008         2.90084
           65009         2.87710
           65010         2.87176
           65011         2.89068
           65012         2.91409
           65013         2.92107
           65014         2.86099
           65015         2.83751
           65016         2.86591
           65017         2.85401
           65018         2.82160
           65019         3.13233
           65020         3.08028
           65021         2.87110
           65022         2.88717
           65023         2.92370
           65024         3.60308
           65025         3.48372
           65026         2.91027
           65027         2.94827
           65028         1.99248
           65029         1.98529
           65030         2.01866
           65031         1.94990
           65032         2.84802
           65033         2.85935
           65034         2.86613
           65035         2.68306
           65036         2.69744
           65037         2.70569
           65038         3.21909
           65039         3.41471
           65040         3.77792
           65041         3.57043
           65042         3.43245
           65043         2.54597
           65044         2.70539
           65045         2.71550
           65046         2.69587
           65047         2.73513
           65048         2.73225
           65049         3.63459
           65050         3.71778
           65051         3.55404
           65052         3.47354
           65053         3.59099
           65054         2.28351
           65055         2.54818
           65056         3.37529
           65057         3.90285
           65058         3.46074
           65059         2.70799
           65060         2.67872
           65061         2.66474
           65062         2.66034
           65063         2.62885
           65064         2.64171
           65065         2.55793
           65066         2.57321
           65067         2.43504
           65068         2.65826
           65069         2.66194
           65070         2.66251
           65071         2.68260
           65072         2.67837
           65073         4.64091
           65074         4.43550
           65075         4.16367
           65076         4.09347
           65077         6.37254
           65078         3.49856
           65079         3.11824
           65080         3.07161
           65081         2.65763
           65082         2.67024
           65083         2.65409
           65084         3.28479
           65085         3.15642
           65086         3.40042
           65087         5.13009
           65088         2.69214
           65089         4.76427
           65090         4.54743
           65091         5.21107
           65092         5.23750
           65093         5.06668
           65094         5.08819
           65095         5.06536
           65096         5.12181
           65097         5.10584
           65098         5.12214
           65099         3.01305
           65100         3.05878
           65101         3.02188
           65102         2.98507
           65103         2.75509
           65104         5.11620
           65105         5.10365
           65106         5.15214
           65107         5.17791
           65108         5.14127
           65109         5.27970
           65110         5.27323
           65111         5.05714
           65112         5.07477
           65113         7.18374
           65114         6.95810
           65115         5.32781
           65116         5.71442
           65117         5.69461
           65118         5.48683
           65119         5.40773
           65120         5.58162
           65121         5.50031
           65122         5.94788
           65123         9.11305
           65124         3.68337
           65125         3.84971
           65126         3.78965
           65127         3.89284
           65128         3.62839
           65129         5.05037
           65130         5.15191
           65131         5.56696
           65132         5.63086
           65133         5.47748
           65134         5.55734
           65135         5.54311
           65136         3.26419
           65137         6.72562
           65138         2.84302
           65139         2.85557
           65140         11.0086
           65141         11.6116
           65142         12.5386
           65143         2.83197
           65144         2.81089
           65145         2.83500
           65146         2.85011
           65147         2.83296
           65148         2.84696
           65149         2.82837
           65150         2.80226
           65151         2.80911
           65152         2.79259
           65153         2.81880
           65154         2.82172
           65155         2.81218
           65156         2.83654
           65157         5.67971
           65158         4.92902
           65159         4.69574
           65160         10.5866
           65161         2.81157
           65162         2.80898
           65163         12.5408
           65164         12.0811
           65165         11.7089
           65166         6.37425
           65167         7.85861
           65168         8.52157
           65169         8.16534
           65170         8.73888
           65171         8.87198
           65172         8.27147
           65173         8.15268
           65174         6.81996
           65175         8.70341
           65176         9.11179
           65177         7.77412
           65178         7.86563
           65179         6.46520
           65180         8.27042
           65181         8.63199
           65182         8.35875
           65183         8.42270
           65184         7.86696
           65185         7.77812
           65186         5.37306
           65187         5.47556
           65188         8.63047
           65189         8.70146
           65190         6.26035
           65191         6.26291
           65192         6.28511
           65193         6.18536
           65194         6.14303
           65195         6.10756
           65196         6.21634
           65197         2.63993
           65198         2.64655
           65199         5.33174
           65200         5.38747
           65201         5.07052
           65202         5.08469
           65203         5.09652
           65204         5.11126
           65205         5.09751
           65206         5.08309
           65207         8.16322
           65208         8.54589
           65209         7.79924
           65210         7.77077
           65211         7.27805
           65212         3.59222
           65213         8.13728
           65214         8.27997
           65215         2.62655
           65216         2.63533
           65217         2.62853
           65218         2.62934
           65219         2.63453
           65220         5.22447
           65221         5.29509
           65222         7.14331
           65223         7.26973
           65224         4.90987
           65225         4.96617
           65226         4.89414
           65227         4.77157
           65228         4.73378
           65229         4.76559
           65230         4.82210
           65231         4.10669
           65232         4.03668
           65233         4.34629
           65234         4.14044
           65235         4.18245
           65236         4.24346
           65237         4.35054
           65238         8.51654
           65239         4.48554
           65240         4.11112
           65241         4.20446
           65242         4.09876
           65243         5.89778
           65244         5.80295
           65245         4.41806
           65246     197.160E-03
           65247     241.316E-03
           65248         13.1077
           65249         13.0729
           65250     179.749E-03
           65251         12.1765
           65252     158.634E-03
           65253     200.275E-03
           65254     118.834E-03
           65255         8.64382
           65256         7.81349
           65257         8.27802
           65258         6.46654
           65259         5.70155
           65260         6.11184
           65261         5.34173
           65262         5.32919
           65263         4.97139
           65264         5.16810
           65265     385.001E-03
           65266         5.77490
           65267         6.27906
           65268     530.670E-03
           65269     521.802E-03
           65270         5.81344
           65271         6.48861
           65272         4.09440
           65273         4.43128
           65274         4.39315
           65275         4.48546
           65276         4.74205
           65277         4.69926
           65278         4.59813
           65279         4.34407
           65280     280.865E-03
           65281     359.642E-03
           65282     321.379E-03
           65283         2.57239
           65284         2.51745
           65285         2.62726
           65286     664.403E-03
           65287     565.845E-03
           65288     594.244E-03
           65289         2.03168
           65290         1.99089
           65291         2.06164
           65292         2.04943
           65293         3.20509
           65294         8.55379
           65295         7.64598
           65296         6.48018
           65297         3.97493
           65298         3.38836
           65299         3.37550
           65300     449.314E-03
           65301         5.13778
           65302     431.948E-03
           65303     481.979E-03
           65304     661.031E-03
           65305     524.712E-03
           65306     576.786E-03
           65307         15.3133
           65308         13.4579
           65309     428.042E-03
           65310     545.244E-03
           65311     473.531E-03
           65312     402.858E-03
           65313         9.42159
           65314         4.98342
           65315         5.34826
           65316         5.16941
           65317         4.82411
           65318         24.7046
           65319         20.0394
           65320         5.60225
           65321         6.08681
           65322         3.91479
           65323         3.16603
           65324         4.97709
           65325         5.12822
           65326         4.97634
           65327         4.87111
           65328         4.87852
           65329         6.41542
           65330         6.57446
           65331         6.18635
           65332         5.32072
           65333         5.54734
           65334         5.47322
           65335         5.68343
           65336         5.47037
           65337         3.73264
           65338         1.63173
           65339         1.46608
           65340     818.455E-03
           65341         1.39475
           65342         1.09210
           65343         1.02487
           65344         1.07706
           65345         1.15972
           65346         1.51400
           65347         2.50255
           65348         2.54568
           65349         2.48709
           65350         2.53911
           65351         2.51398
           65352         2.55485
           65353         5.94701
           65354         5.89079
           65355         5.07531
           65356         4.05706
           65357         5.05790
           65358         2.62280
           65359         2.68593
           65360         1.99173
           65361         1.94203
           65362         1.95580
           65363         2.56781
           65364         8.12428
           65365         3.25706
           65366         3.29642
           65367         1.88470
           65368         1.51393
           65369         4.30373
           65370         2.36796
           65371         2.15449
           65372         1.71249
           65373         1.72143
           65374         1.74136
           65375         7.29171
           65376         4.04643
           65377         4.07868
           65378         4.09540
           65379         4.20734
           65380         4.19124
           65381         3.91448
           65382         3.93047
           65383         3.96172
           65384         4.56852
           65385         7.68043
           65386         7.44983
           65387         7.14164
           65388         5.07435
           65389         11.0795
           65390         10.9021
           65391         11.3203
           65392         8.35141
           65393         12.9205
           65394         4.38423
           65395         4.12296
           65396         4.15326
           65397         3.80234
           65398         3.57560
           65399         3.49585
           65400         3.72045
           65401         3.42795
           65402         3.32897
           65403         3.50324
           65404         3.69783
           65405         3.91146
           65406         1.41165
           65407         1.50734
           65408         1.57400
           65409         1.46318
           65410         1.38804
           65411         1.20560
           65412     802.209E-03
           65413     811.388E-03
           65414     789.963E-03
           65415     771.981E-03
           65416     453.284E-03
           65417     901.375E-03
           65418         1.13984
           65419         1.24841
           65420         1.14042
           65421         4.07474
           65422         3.65240
           65423         3.57093
           65424         3.47860
           65425         3.55662
           65426         3.44215
           65427         3.74888
           65428         3.62853
           65429         3.75836
           65430         3.85912
           65431         3.54313
           65432         14.2366
           65433         11.0354
           65434         15.9711
           65435         1.87746
           65436         1.42057
           65437         1.96386
           65438         1.50298
           65439         1.94581
           65440         1.76106
           65441         1.95576
           65442         1.91418
           65443         1.72643
           65444         2.18557
           65445         2.54951
           65446         2.54852
           65447     476.616E-03
           65448     606.653E-03
           65449     816.289E-03
           65450         2.55737
           65451     884.829E-03
           65452     858.865E-03
           65453         1.48708
           65454         1.44491
           65455         1.60174
           65456         2.11170
           65457         2.57566
           65458         2.56827
           65459         2.56972
           65460         2.57684
           65461         2.58628
           65462         2.59513
           65463         2.57872
           65464         2.59517
           65465         2.57180
           65466         2.56240
           65467         4.24193
           65468         4.40380
           65469         4.31528
           65470         4.42820
           65471         4.24734
           65472         1.22504
           65473         1.09817
           65474     869.884E-03
           65475     789.502E-03
           65476         4.53938
           65477         4.47000
           65478         4.60027
           65479         1.31568
           65480         4.81657
           65481         4.75613
           65482         4.61158
           65483         4.60343
           65484         4.23174
           65485         3.22309
           65486         3.25505
           65487         3.04019
           65488         2.99622
           65489         4.30883
           65490         5.36597
           65491         1.36250
           65492         1.48172
           65493         1.47939
           65494         1.57511
           65495     930.391E-03
           65496         1.13196
           65497     800.548E-03
           65498     995.148E-03
           65499     834.842E-03
           65500         1.19339
           65501     386.780E-03
           65502         5.49244
           65503         5.14131
           65504         4.70908
           65505         7.24502
           65506         7.33523
           65507     532.280E-03
           65508     290.406E-03
           65509         2.60317
           65510         2.60378
           65511         2.60463
           65512         2.60384
           65513     328.620E-03
           65514     420.351E-03
           65515     222.156E-03
           65516     538.271E-03
           65517     615.563E-03
           65518     601.428E-03
           65519     291.028E-03
           65520     311.799E-03
           65521     308.822E-03
           65522     286.815E-03
           65523         1.15817
           65524         1.18356
           65525         1.49041
           65526         1.17816
           65527         2.60008
           65528         2.60315
           65529         2.61052
           65530         2.60971
           65531         2.60814
           65532         2.60768
           65533         2.60560
           65534         1.47427
           65535         1.32633
           65536     585.997E-03
           65537         6.03060
           65538         5.88165
           65539         7.18127
           65540         2.60525
           65541         2.60562
           65542         8.41630
           65543         8.08266
           65544         8.21357
           65545         8.52178
           65546         2.60960
           65547     651.213E-03
           65548         2.54886
           65549         2.49638
           65550         2.53236
           65551         2.51735
           65552         2.53341
           65553         2.55867
           65554         2.63825
           65555         2.57512
           65556         7.92789
           65557         7.76866
           65558         7.17655
           65559     531.060E-03
           65560     343.412E-03
           65561         10.4358
           65562         10.4398
           65563         2.56469
           65564         2.50178
           65565         2.52976
           65566         2.52394
           65567         2.58793
           65568         2.55853
           65569         2.53850
           65570         2.58426
           65571         2.60248
           65572         2.60235
           65573         2.59359
           65574         2.54624
           65575         2.56996
           65576         2.59917
           65577         2.56143
           65578         2.55643
           65579         2.52786
           65580         2.51399
           65581         2.52001
           65582         2.51198
           65583         9.21216
           65584         7.86282
           65585         2.49511
           65586         2.48406
           65587         3.62871
           65588         3.89190
           65589         4.17668
           65590         3.76273
           65591         3.50817
           65592         5.63078
           65593         6.55379
           65594         7.05576
           65595         2.51196
           65596         2.52408
           65597         2.51960
           65598         2.51836
           65599         5.04344
           65600         5.27338
           65601         5.28026
           65602         4.16768
           65603         4.17075
           65604         4.38554
           65605         4.24279
           65606         5.45485
           65607         5.24676
           65608         5.39051
           65609         2.67045
           65610         2.85866
           65611         3.04838
           65612         2.81182
           65613         2.62374
           65614         2.44550
           65615         2.99349
           65616         2.89360
           65617         2.47570
           65618         2.48922
           65619         2.15679
           65620         2.14912
           65621         2.15044
           65622         2.20399
           65623         7.42310
           65624         6.82828
           65625         3.98452
           65626         4.16354
           65627         22.4643
           65628         21.8123
           65629         2.23137
           65630         2.25484
           65631         2.25045
           65632         2.26675
           65633         2.29911
           65634         2.26006
           65635         2.27727
           65636         10.9701
           65637         10.9968
           65638         10.9613
           65639         9.67887
           65640         9.38542
           65641         8.96557
           65642         9.15084
           65643         9.01359
           65644         9.02738
           65645         8.92538
           65646         8.41964
           65647         8.41582
           65648         2.18388
           65649         2.12798
           65650         2.06832
           65651         2.10576
           65652         2.09262
           65653         6.45054
           65654         6.66650
           65655         6.63475
           65656         2.63837
           65657         2.64531
           65658         2.64531
           65659         2.64190
           65660         2.63563
           65661         2.64118
           65662         2.63093
           65663         2.63345
           65664         2.63366
           65665         2.62932
           65666         2.63641
           65667         2.63629
           65668         9.57448
           65669         9.86005
           65670         9.55800
           65671         9.32195
           65672         9.34414
           65673         14.4320
           65674         18.1467
           65675         9.09209
           65676         9.77524
           65677         9.57002
           65678         10.3450
           65679         9.55806
           65680         9.82248
           65681         2.63326
           65682         8.50840
           65683         8.87415
           65684         9.01670
           65685         8.63326
           65686         8.28103
           65687         23.1257
           65688         16.9196
           65689         6.43948
           65690         6.52694
           65691         6.70709
           65692         6.61129
           65693         6.42904
           65694         6.25638
           65695         6.11407
           65696         6.16399
           65697         6.03403
           65698         6.12195
           65699         6.37088
           65700         6.31693
           65701         6.38233
           65702         5.73824
           65703         6.07290
           65704         6.22625
           65705         6.29676
           65706         12.4087
           65707         6.17226
           65708         6.22375
           65709         6.33265
           65710         6.27968
           65711         4.14040
           65712         4.58413
           65713         5.10913
           65714         4.73746
           65715         11.4779
           65716         11.8450
           65717         11.8184
           65718         14.1040
           65719         13.2421
           65720         13.2912
           65721         6.32867
           65722         6.24404
           65723         6.36351
           65724         8.26629
           65725         5.96086
           65726         6.21082
           65727         6.39622
           65728     266.312E-03
           65729     368.576E-03
           65730         6.27632
           65731         5.83800
           65732         7.93281
           65733         6.93482
           65734         7.10765
           65735         3.83253
           65736         4.27656
           65737         5.05095
           65738         5.78939
           65739         5.73014
           65740         5.67202
           65741         5.76442
           65742         5.69695
           65743         6.35914
           65744         4.90401
           65745         4.40768
           65746         5.63700
           65747         5.61857
           65748         5.67933
           65749         5.59520
           65750         5.66788
           65751         5.61452
           65752         4.05409
           65753         4.04707
           65754         4.08727
           65755         4.15512
           65756         4.16193
           65757         4.05515
           65758         3.95417
           65759         3.97745
           65760         3.97698
           65761         4.06554
           65762     13.4406E-03
           65763     11.4142E-03
           65764     11.2843E-03
           65765         2.88761
           65766     21.0906E-03
           65767     21.8384E-03
           65768     18.9127E-03
           65769     19.6270E-03
           65770     18.8547E-03
           65771         3.63883
           65772     25.9181E-03
           65773     18.8807E-03
           65774     13.4008E-03
           65775     16.7309E-03
           65776     14.8130E-03
           65777         10.3635
           65778         10.4016
           65779         11.3319
           65780         11.2654
           65781         10.3599
           65782         3.56443
           65783         3.52072
           65784         3.60547
           65785         3.63624
           65786         3.54957
           65787         9.84139
           65788         9.05145
           65789         8.90879
           65790         9.67159
           65791         9.58806
           65792         9.23887
           65793         8.94468
           65794         8.76651
           65795         9.36649
           65796         9.58110
           65797         3.60223
           65798         3.51773
           65799         3.58735
           65800         6.98589
           65801         7.01813
           65802         7.02240
           65803         6.76760
           65804         10.7357
           65805         10.6030
           65806         8.67400
           65807         8.82102
           65808         3.69896
           65809         3.73366
           65810         3.61367
           65811         3.60247
           65812         3.63932
           65813         3.67888
           65814         3.69084
           65815         3.65366
           65816         3.63938
           65817         5.64834
           65818         5.64988
           65819         5.68386
           65820         5.57165
           65821         5.61557
           65822         6.99178
           65823         6.68538
           65824         6.64789
           65825         8.31326
           65826         8.70468
           65827         8.69504
           65828         5.50725
           65829         5.47521
           65830         5.52634
           65831         5.61983
           65832         13.1384
           65833         7.40378
           65834         7.19994
           65835         7.50207
           65836         5.58087
           65837         5.55365
           65838         5.56901
           65839         32.6224
           65840         11.7738
           65841         11.7929
           65842         12.2368
           65843         13.9981
           65844         10.9755
           65845         10.5612
           65846         10.1138
           65847         7.63005
           65848         5.49204
           65849         5.53177
           65850         5.53500
           65851         1.75932
           65852         1.80897
           65853         1.76464
           65854         1.85600
           65855         1.80716
           65856         1.86039
           65857         1.85062
           65858         1.80127
           65859         22.9357
           65860         25.7197
           65861         9.20359
           65862         8.77909
           65863         8.19613
           65864         8.92096
           65865         8.47799
           65866         7.85264
           65867         8.17651
           65868         10.0736
           65869         1.95307
           65870         2.03550
           65871         16.2331
           65872         2.32537
           65873         2.33586
           65874         2.21283
           65875         10.7593
           65876         8.53874
           65877         8.90793
           65878         8.42346
           65879         8.40095
           65880         4.37721
           65881         9.41492
           65882         9.21134
           65883         8.80569
           65884         8.76881
           65885         9.14047
           65886         9.55150
           65887         9.53465
           65888         10.1344
           65889         10.7755
           65890         11.1088
           65891         10.7530
           65892         10.1093
           65893         4.45013
           65894         1.92748
           65895         1.93237
           65896         1.86794
           65897         10.1438
           65898         9.48346
           65899         9.33123
           65900         9.94598
           65901         9.74871
           65902         2.00895
           65903     86.5044E-03
           65904     42.2660E-03
           65905         7.91299
           65906         7.53797
           65907         2.02193
           65908         2.02560
           65909         1.97723
           65910         2.01210
           65911         3.18876
           65912         3.12090
           65913         2.94852
           65914         2.84474
           65915         2.70359
           65916         2.80010
           65917         4.86968
           65918         3.51781
           65919         3.98840
           65920         4.46507
           65921         5.84150
           65922         5.13299
           65923         2.60258
           65924         2.77459
           65925         1.76403
           65926         1.84569
           65927         2.22708
           65928         2.55867
           65929         2.58614
           65930         2.67823
           65931         2.66035
           65932         2.53455
           65933         2.44164
           65934         2.91259
           65935         3.16439
           65936         2.59813
           65937         2.40676
           65938         2.65203
           65939         2.70584
           65940         1.48947
           65941         1.70328
           65942         1.65117
           65943         3.57512
           65944         1.66326
           65945         1.46391
           65946         1.72691
           65947         5.95875
           65948         6.27479
           65949         6.19991
           65950         6.28761
           65951         1.35771
           65952         1.32882
           65953         1.33236
           65954         1.46283
           65955         1.49175
           65956     643.278E-03
           65957     171.522E-03
           65958     626.896E-03
           65959     634.070E-03
           65960     630.456E-03
           65961     645.858E-03
           65962         1.30971
           65963         1.44070
           65964         1.44281
           65965         1.15633
           65966         1.28568
           65967         1.26675
           65968         3.65873
           65969         3.59683
           65970         1.22471
           65971         2.59204
           65972         1.30605
           65973         1.33505
           65974         6.30471
           65975         5.43063
           65976         5.99007
           65977         5.57842
           65978         5.66035
           65979         5.72686
           65980         5.82336
           65981         5.78638
           65982         5.81648
           65983         6.01379
           65984         6.30229
           65985         6.47915
           65986         5.79508
           65987         5.69857
           65988         5.83179
           65989         5.68916
           65990         5.82041
           65991         5.75315
           65992         2.65304
           65993         2.65165
           65994         11.2044
           65995         10.2579
           65996         10.7061
           65997         2.66361
           65998         2.66516
           65999         9.88497
           66000         10.5730
           66001         8.88441
           66002         10.9680
           66003         2.64929
           66004         10.5258
           66005         1.58201
           66006         2.63957
           66007         2.65576
           66008         2.64602
           66009         2.64594
           66010         2.63919
           66011         2.64559
           66012         2.64802
           66013         2.64963
           66014         2.64748
           66015         2.64791
           66016         2.64863
           66017         2.65090
           66018         2.65732
           66019         2.65572
           66020         1.27950
           66021         1.63893
           66022         1.36522
           66023         4.66041
           66024         4.74125
           66025         4.75275
           66026         4.72663
           66027         4.64635
           66028         4.63453
           66029         1.56099
           66030         1.64220
           66031         2.07173
           66032         4.43196
           66033         4.50517
           66034         4.52669
           66035         4.55884
           66036         4.69636
           66037         2.84702
           66038         2.55916
           66039         1.82956
           66040         2.06731
           66041         5.65791
           66042         1.42458
           66043         1.51962
           66044     568.293E-03
           66045     380.896E-03
           66046         5.68606
           66047         5.73008
           66048         5.71681
           66049         5.72731
           66050         5.71355
           66051         5.68321
           66052         2.61943
           66053         2.64288
           66054         2.63337
           66055         2.70303
           66056         2.66527
           66057         2.70566
           66058         2.74959
           66059         2.71261
           66060         2.69004
           66061         2.68494
           66062         7.25557
           66063         6.80446
           66064         3.85370
           66065         3.81736
           66066         3.80986
           66067         3.75641
           66068         3.87723
           66069         3.62805
           66070         3.67822
           66071         3.75208
           66072         3.70098
           66073         4.92659
           66074         4.97553
           66075         5.04811
           66076         5.04143
           66077         4.99530
           66078         4.91777
           66079         3.66440
           66080         3.81456
           66081         4.40433
           66082         4.39655
           66083         5.90535
           66084         5.25420
           66085         4.82841
           66086         4.89333
           66087         4.90257
           66088         9.95047
           66089         4.99284
           66090         4.91497
           66091         4.88684
           66092         1.25796
           66093         1.25737
           66094         1.20628
           66095         1.27306
           66096         1.17877
           66097         5.02293
           66098         4.51752
           66099         4.77786
           66100         5.28296
           66101         4.44543
           66102         1.27779
           66103         1.30551
           66104         1.25797
           66105         6.68734
           66106         1.85257
           66107         1.95256
           66108         6.89670
           66109         7.57233
           66110         7.61039
           66111         7.26486
           66112         6.93814
           66113         2.01067
           66114         2.11036
           66115         2.25089
           66116         2.24090
           66117         1.99937
           66118         9.01888
           66119         8.68328
           66120         1.14222
           66121         1.15454
           66122         8.82782
           66123         8.21997
           66124         8.51954
           66125         8.72620
           66126         9.02361
           66127         7.84890
           66128         8.14499
           66129         1.11609
           66130         1.05666
           66131         3.45433
           66132         3.65615
           66133         3.37807
           66134         3.17192
           66135         3.26908
           66136         4.03162
           66137         1.22919
           66138         1.24560
           66139         9.35190
           66140         7.94864
           66141         8.13644
           66142     10.7068E-03
           66143     13.3328E-03
           66144     16.2194E-03
           66145     14.5078E-03
           66146     16.4476E-03
           66147     19.4552E-03
           66148         5.39702
           66149         8.42775
           66150         8.30326
           66151         8.09740
           66152         7.91780
           66153         3.36898
           66154     12.2064E-03
           66155         2.88116
           66156         2.88907
           66157         2.85257
           66158         2.89819
           66159         7.28730
           66160         7.20033
           66161         7.17822
           66162         7.98191
           66163         2.86386
           66164         2.84799
           66165         2.80932
           66166         2.78954
           66167         7.25974
           66168         8.52038
           66169         8.16141
           66170         8.66055
           66171         2.88084
           66172         2.89618
           66173     999.981E-03
           66174     898.455E-03
           66175     966.841E-03
           66176         6.51844
           66177         6.62633
           66178         6.79463
           66179         6.61590
           66180         6.54389
           66181         6.37375
           66182         9.02828
           66183         8.82318
           66184         8.68647
           66185         9.13393
           66186         9.35048
           66187         9.46589
           66188         1.13990
           66189         1.02545
           66190         8.09720
           66191     996.967E-03
           66192         1.04941
           66193         1.00185
           66194         11.2764
           66195         11.2445
           66196         10.0425
           66197         10.0388
           66198         11.0135
           66199         1.03722
           66200         1.50567
           66201         1.50306
           66202         7.65897
           66203         7.49293
           66204         8.33646
           66205         8.64601
           66206         8.75791
           66207         8.12384
           66208         1.38924
           66209         1.42722
           66210         1.37835
           66211         1.34004
           66212         1.35637
           66213         4.31693
           66214         4.32897
           66215         4.42988
           66216         1.33490
           66217         1.28191
           66218         1.29931
           66219         1.34964
           66220         1.31170
           66221         1.35958
           66222         1.35475
           66223         1.30060
           66224         7.28603
           66225         7.11008
           66226         6.96635
           66227         7.22446
           66228         1.26152
           66229         1.26691
           66230         1.32122
           66231         7.84550
           66232         7.92016
           66233         7.30232
           66234         7.36448
           66235         7.30955
           66236         7.92336
           66237         1.28669
           66238         7.36987
           66239         7.64873
           66240         7.65717
           66241     238.741E-03
           66242     209.332E-03
           66243     272.653E-03
           66244     220.194E-03
           66245     407.832E-03
           66246     459.011E-03
           66247     425.291E-03
           66248     375.602E-03
           66249     457.711E-03
           66250         6.89488
           66251         7.32033
           66252         7.37977
           66253         7.23823
           66254         7.67621
           66255         7.64137
           66256         7.94834
           66257         6.15990
           66258         8.23672
           66259         8.82346
           66260         8.81913
           66261     351.872E-03
           66262     278.272E-03
           66263         8.31752
           66264         8.28791
           66265         5.89407
           66266         5.95131
           66267         5.79381
           66268         5.81880
           66269         5.88539
           66270         5.47231
           66271         5.48410
           66272         5.44233
           66273         5.65603
           66274         5.47948
           66275         5.59608
           66276         5.54446
           66277         6.79657
           66278         6.52689
           66279         13.1889
           66280         5.36786
           66281         5.73051
           66282         5.80044
           66283         5.58201
           66284         1.22609
           66285         1.01548
           66286         1.05648
           66287         5.88715
           66288         6.56383
           66289         8.03849
           66290         5.62177
           66291         5.50385
           66292         5.60553
           66293         2.61302
           66294         2.61446
           66295         2.61171
           66296         1.24375
           66297         1.15876
           66298         1.08539
           66299         1.06100
           66300         4.74413
           66301         2.60468
           66302         2.60586
           66303         2.60930
           66304         2.60910
           66305         2.59930
           66306         2.60019
           66307         2.59662
           66308         3.24246
           66309         7.37360
           66310         8.41819
           66311         4.08291
           66312         4.22498
           66313         3.53886
           66314         3.89575
           66315         1.71628
           66316         1.58756
           66317         1.12843
           66318         2.75740
           66319         2.85888
           66320         4.51820
           66321         3.68369
           66322         3.70260
           66323         3.79437
           66324         3.81319
           66325         3.86361
           66326         3.89724
           66327         3.90158
           66328         3.84394
           66329         3.85411
           66330         1.57953
           66331         3.77257
           66332         3.80563
           66333         3.71983
           66334         1.64923
           66335         1.68688
           66336         3.87710
           66337         3.78205
           66338         3.88732
           66339         1.34953
           66340         4.03382
           66341         1.40896
           66342         1.92966
           66343         1.74952
           66344         1.94367
           66345         1.82825
           66346         1.63601
           66347         1.66389
           66348         1.63392
           66349         1.51483
           66350         6.86048
           66351         1.98325
           66352         2.16984
           66353         1.95112
           66354         3.00006
           66355         1.06666
           66356         1.17983
           66357     637.384E-03
           66358     939.258E-03
           66359     700.072E-03
           66360     668.534E-03
           66361     565.642E-03
           66362         4.22867
           66363         3.49711
           66364         3.44774
           66365         3.49707
           66366         3.02371
           66367         3.17587
           66368         3.08204
           66369         3.15364
           66370         3.16898
           66371         3.58342
           66372         3.59730
           66373         3.53084
           66374         3.49110
           66375         3.55625
           66376         1.31617
           66377         3.45407
           66378         3.60651
           66379         3.59259
           66380         3.55123
           66381         3.47679
           66382         3.67376
           66383         3.59620
           66384         3.60502
           66385         3.52642
           66386         3.60130
           66387     244.996E-03
           66388     218.517E-03
           66389     215.694E-03
           66390     740.536E-03
           66391     718.098E-03
           66392     423.972E-03
           66393     336.688E-03
           66394     670.766E-03
           66395     215.523E-03
           66396     191.390E-03
           66397     156.095E-03
           66398     179.680E-03
           66399     160.515E-03
           66400     190.915E-03
           66401     212.659E-03
           66402     214.052E-03
           66403     242.840E-03
           66404         4.59951
           66405         4.46708
           66406         4.63092
           66407         4.57783
           66408         4.59900
           66409         4.42469
           66410         4.54229
           66411         4.59396
           66412         4.42074
           66413         3.33202
           66414         3.20274
           66415         3.04163
           66416         2.87243
           66417         4.69388
           66418         4.76815
           66419     576.339E-03
           66420     557.858E-03
           66421         1.61026
           66422         4.53066
           66423         4.20563
           66424         4.14345
           66425         4.71620
           66426         4.77615
           66427         4.71078
           66428         4.65762
           66429         6.25158
           66430         6.10600
           66431         6.39173
           66432         6.25568
           66433         6.39399
           66434         6.13251
           66435         6.37721
           66436     812.473E-03
           66437         1.42026
           66438         1.27367
           66439         1.07105
           66440     929.161E-03
           66441         6.55748
           66442         6.61933
           66443         6.41569
           66444         6.55210
           66445         6.70334
           66446     437.882E-03
           66447     594.000E-03
           66448         6.49826
           66449         6.01658
           66450         5.87322
           66451         5.98666
           66452     493.900E-03
           66453     488.070E-03
           66454     373.551E-03
           66455         5.88747
           66456         6.00179
           66457         3.12160
           66458         2.72741
           66459         2.71576
           66460         3.11306
           66461         3.08991
           66462         2.64366
           66463         2.62389
           66464         2.62567
           66465         4.24592
           66466         4.63335
           66467         4.04804
           66468         4.15280
           66469         3.78647
           66470         4.35768
           66471     906.221E-03
           66472         2.81877
           66473         2.94902
           66474         2.69282
           66475         2.64408
           66476     641.078E-03
           66477     487.709E-03
           66478         2.64487
           66479         2.64707
           66480         2.64579
           66481         2.64828
           66482         2.64966
           66483         2.63248
           66484         2.63474
           66485         3.42139
           66486         3.48832
           66487         3.44148
           66488         3.39406
           66489         3.43375
           66490         3.65159
           66491         2.88308
           66492         2.64237
           66493         2.64824
           66494         1.23425
           66495         1.24507
           66496         2.03814
           66497         2.23468
           66498         2.04183
           66499         1.50053
           66500         1.23303
           66501         1.19825
           66502         1.15259
           66503         1.12305
           66504         1.15715
           66505         4.04782
           66506         4.30045
           66507     946.317E-03
           66508         2.89888
           66509         3.21198
           66510         3.04891
           66511         3.12121
           66512         2.80638
           66513         2.96500
           66514     980.582E-03
           66515     934.541E-03
           66516     927.935E-03
           66517         1.13337
           66518         1.10593
           66519         4.55258
           66520         3.98456
           66521         4.22483
           66522         4.55315
           66523         1.07311
           66524         1.13826
           66525         1.09119
           66526         6.37743
           66527         6.50070
           66528         6.42406
           66529         10.0613
           66530         9.77509
           66531         10.3103
           66532         2.43877
           66533         2.42154
           66534         2.39559
           66535         2.44804
           66536         2.40686
           66537         2.38042
           66538         8.49335
           66539         8.04136
           66540         8.08896
           66541         8.20734
           66542         2.47851
           66543         2.46224
           66544         2.51378
           66545         2.51480
           66546         6.53723
           66547         6.47560
           66548         6.34268
           66549         2.54311
           66550         7.76787
           66551         3.03687
           66552         2.39682
           66553         2.41184
           66554         2.44631
           66555         6.15851
           66556         6.28934
           66557         6.21960
           66558         6.21876
           66559         5.57660
           66560         2.33121
           66561         2.34686
           66562         2.44495
           66563         2.43531
           66564         7.20393
           66565         7.39460
           66566         2.69111
           66567         2.69227
           66568         8.60480
           66569         9.10994
           66570         9.07804
           66571         8.53767
           66572         2.66853
           66573         2.68239
           66574         2.66597
           66575         2.70117
           66576         2.72585
           66577         2.72361
           66578         2.69887
           66579         2.71494
           66580         2.70165
           66581         2.71696
           66582         2.69741
           66583         2.68073
           66584         7.55839
           66585         3.31262
           66586         3.31995
           66587         3.28782
           66588         3.27210
           66589         3.30885
           66590         3.25643
           66591         6.15827
           66592         5.98588
           66593         5.91939
           66594         6.02088
           66595         6.47650
           66596         6.39416
           66597         6.43876
           66598         3.33904
           66599         7.51796
           66600         7.57339
           66601         7.06273
           66602         8.54058
           66603         8.06212
           66604         3.38460
           66605         3.41206
           66606         3.45893
           66607         3.24437
           66608         6.49486
           66609         6.39695
           66610         3.46380
           66611         6.60567
           66612         6.90504
           66613         6.91899
           66614         7.16750
           66615         6.86327
           66616         6.84313
           66617         3.30519
           66618         3.37725
           66619         3.40814
           66620         7.63728
           66621         7.88470
           66622         13.0774
           66623         5.22093
           66624         5.50885
           66625         5.51426
           66626         5.54417
           66627         5.54377
           66628         5.53703
           66629         5.50887
           66630         5.57207
           66631         5.56553
           66632         5.55167
           66633         5.52497
           66634         5.52975
           66635         5.58221
           66636         5.56729
           66637         5.56437
           66638         6.16255
           66639         6.16553
           66640         6.56772
           66641         5.57360
           66642         5.56681
           66643         5.59081
           66644         2.62895
           66645         2.66525
           66646         2.29400
           66647         2.50642
           66648         2.14230
           66649         2.24434
           66650         1.20289
           66651         2.09101
           66652     176.416E-03
           66653     167.533E-03
           66654         1.66997
           66655         1.34872
           66656         1.98315
           66657         1.78918
           66658         2.07425
           66659         1.84831
           66660         1.42320
           66661         1.42975
           66662         4.02648
           66663         3.74607
           66664         3.48493
           66665     758.838E-03
           66666     847.280E-03
           66667     842.385E-03
           66668     813.476E-03
           66669         4.64220
           66670         4.04153
           66671         5.10499
           66672         5.23936
           66673         4.75590
           66674         3.38917
           66675         2.84893
           66676         3.58821
           66677         1.68613
           66678         1.90184
           66679         1.88132
           66680         1.55932
           66681     887.906E-03
           66682     865.989E-03
           66683         2.89335
           66684         2.88758
           66685         14.9083
           66686         23.4495
           66687         2.92111
           66688         2.86993
           66689         2.86440
           66690         9.52680
           66691         9.62753
           66692         2.90768
           66693         2.78417
           66694         2.80420
           66695         2.77126
           66696         2.81108
           66697         10.6600
           66698         10.3928
           66699         2.82290
           66700         2.82720
           66701         2.82034
           66702         2.76247
           66703         2.80652
           66704         14.5109
           66705         7.71225
           66706         6.39279
           66707         8.50884
           66708         1.88721
           66709         1.98629
           66710         1.71391
           66711         2.95090
           66712         4.41162
           66713         4.19272
           66714         2.66946
           66715         1.65072
           66716         1.28569
           66717         1.85091
           66718         1.19502
           66719         1.59812
           66720         1.50245
           66721         1.42667
           66722         4.20137
           66723         1.32165
           66724         2.09320
           66725         1.33542
           66726         1.53135
           66727         1.78735
           66728         5.56918
           66729         5.50439
           66730         5.61681
           66731         5.60277
           66732         5.70025
           66733         5.78586
           66734         5.75105
           66735         8.94087
           66736         5.73309
           66737         5.89860
           66738         2.63540
           66739         6.64428
           66740         6.62239
           66741         2.63869
           66742         2.63753
           66743         2.65679
           66744         9.60548
           66745         2.62991
           66746         5.02757
           66747         3.38398
           66748         4.95018
           66749         5.02642
           66750         1.87670
           66751         3.01409
           66752         3.23711
           66753         3.69584
           66754         5.19527
           66755         5.80512
           66756         6.41965
           66757         5.84650
           66758         4.74236
           66759         5.21616
           66760         2.31011
           66761         2.28803
           66762         2.26221
           66763         8.37279
           66764         7.77260
           66765         4.42423
           66766         2.29232
           66767         6.08001
           66768         4.26044
           66769         4.96483
           66770         2.33493
           66771         2.36435
           66772         2.34666
           66773         2.34169
           66774         5.55275
           66775     519.044E-03
           66776         2.36169
           66777         2.33967
           66778         1.47995
           66779         1.16768
           66780         1.28114
           66781         1.05845
           66782         1.30483
           66783         1.18777
           66784         3.83261
           66785         3.56256
           66786         3.17088
           66787         3.05059
           66788         2.87864
           66789         2.76605
           66790         2.89740
           66791         3.01758
           66792     516.209E-03
           66793     484.230E-03
           66794         4.07244
           66795         4.22746
           66796         4.14671
           66797         3.80842
           66798         3.99645
           66799         4.31943
           66800         4.27975
           66801         4.43631
           66802         4.37968
           66803         4.52739
           66804         2.40943
           66805         2.09667
           66806         2.21854
           66807         3.05308
           66808         3.40492
           66809         3.24379
           66810         3.30015
           66811         1.99850
           66812         2.04387
           66813         1.89935
           66814         1.74859
           66815         1.84649
           66816         3.89896
           66817         4.02997
           66818         4.16226
           66819         4.18126
           66820         3.97332
           66821         3.65035
           66822         3.72680
           66823         5.44242
           66824         5.43713
           66825         5.49416
           66826         4.72043
           66827         3.49871
           66828         3.11829
           66829         3.18478
           66830         3.37429
           66831         1.42790
           66832         3.71886
           66833         3.60833
           66834         3.68745
           66835         3.22937
           66836         3.39398
           66837         3.51181
           66838         3.34103
           66839         3.19072
           66840         3.21355
           66841         1.81596
           66842         2.56233
           66843         2.40779
           66844         2.39134
           66845         2.35849
           66846         7.55439
           66847         7.85434
           66848         4.18507
           66849         4.00622
           66850         4.41653
           66851         2.34962
           66852         2.32957
           66853         2.35514
           66854         2.37086
           66855         2.39816
           66856         2.37753
           66857         2.36433
           66858         3.50437
           66859         3.85010
           66860         2.33249
           66861         2.32622
           66862         2.30605
           66863         2.28994
           66864         2.32106
           66865         2.35602
           66866         2.70441
           66867         2.70963
           66868         2.67334
           66869         2.68580
           66870         3.57455
           66871         3.36845
           66872         2.69026
           66873         2.69600
           66874         2.69757
           66875         2.69189
           66876         2.68061
           66877         2.69373
           66878         12.5531
           66879         12.2741
           66880         13.7740
           66881         17.9172
           66882         17.8851
           66883         5.45107
           66884         4.68256
           66885         5.38256
           66886         3.68761
           66887         3.57573
           66888         3.60523
           66889         2.67933
           66890         2.68896
           66891         2.68278
           66892         2.69380
           66893         2.68011
           66894         2.68867
           66895         2.68567
           66896         6.09852
           66897         12.1721
           66898         4.36473
           66899         4.30560
           66900         3.23297
           66901         3.20478
           66902         3.26174
           66903         3.49230
           66904         3.39464
           66905         13.6118
           66906         8.00722
           66907         5.08946
           66908         14.0844
           66909         15.5612
           66910         11.4180
           66911         13.4476
           66912         3.43568
           66913         3.59278
           66914         3.04846
           66915         3.39473
           66916         3.61580
           66917         3.42866
           66918         3.27847
           66919         5.88431
           66920         5.51378
           66921         3.53159
           66922         3.41942
           66923         3.56631
           66924         3.60078
           66925         3.23161
           66926         4.93045
           66927         4.65384
           66928         3.78297
           66929         3.70825
           66930         3.72530
           66931         3.78712
           66932         3.86227
           66933         3.84305
           66934         2.62801
           66935         3.01891
           66936         5.33422
           66937         4.65909
           66938         5.06049
           66939         4.69963
           66940         5.31690
           66941         4.92625
           66942         5.38651
           66943         6.04230
           66944         5.88157
           66945         4.66706
           66946         4.28677
           66947         4.03369
           66948         3.03280
           66949         3.21396
           66950         3.36000
           66951         2.93393
           66952         2.74974
           66953         2.70693
           66954         3.63002
           66955         3.69013
           66956         3.91640
           66957         4.02848
           66958         4.01917
           66959         2.80432
           66960         3.16619
           66961         3.29048
           66962         2.88620
           66963         3.90955
           66964         4.02874
           66965         4.01315
           66966         2.16713
           66967         2.24035
           66968         2.35834
           66969         2.25430
           66970         2.06070
           66971         3.87713
           66972         2.50722
           66973         5.29152
           66974         5.24642
           66975         5.28910
           66976         5.29661
           66977         5.33495
           66978         5.21599
           66979         1.91228
           66980         1.69791
           66981         1.88247
           66982         2.10184
           66983         1.96543
           66984         7.41611
           66985     409.866E-03
           66986     461.549E-03
           66987         3.55516
           66988         2.46850
           66989         3.40393
           66990         3.35900
           66991         8.41615
           66992         7.92947
           66993         7.94791
           66994         7.70483
           66995         7.41597
           66996     577.819E-03
           66997     532.301E-03
           66998         8.00619
           66999     571.320E-03
           67000     871.970E-03
           67001     775.012E-03
           67002     868.637E-03
           67003     625.482E-03
           67004     426.383E-03
           67005     522.487E-03
           67006     541.496E-03
           67007     504.798E-03
           67008         1.06408
           67009     801.455E-03
           67010     934.745E-03
           67011     971.894E-03
           67012         5.16002
           67013         1.01844
           67014     862.207E-03
           67015     870.034E-03
           67016         1.06786
           67017         1.23172
           67018     652.940E-03
           67019     772.828E-03
           67020     878.752E-03
           67021         5.34601
           67022         5.30463
           67023         5.39705
           67024         2.22122
           67025         1.87741
           67026         2.14431
           67027         2.67828
           67028         3.14360
           67029         2.75208
           67030         5.26735
           67031         5.18513
           67032         1.60641
           67033         1.77316
           67034         1.58221
           67035         5.35467
           67036         5.41848
           67037         5.38155
           67038         3.36864
           67039         3.30291
           67040         2.27487
           67041         2.66765
           67042     555.744E-03
           67043     530.403E-03
           67044     629.227E-03
           67045         1.46973
           67046         1.51048
           67047         1.72232
           67048         4.82563
           67049         1.76338
           67050         1.91661
           67051         1.97768
           67052         1.52778
           67053         2.88688
           67054         3.06849
           67055         5.72617
           67056         7.11470
           67057         3.19243
           67058         3.28323
           67059         3.12741
           67060         3.14100
           67061         2.43450
           67062         2.28065
           67063     744.413E-03
           67064     722.053E-03
           67065         3.22282
           67066         2.39804
           67067         2.43038
           67068         2.41479
           67069         4.28105
           67070         2.42230
           67071         2.43208
           67072         2.42828
           67073         2.40687
           67074         2.43177
           67075         1.22682
           67076         1.36828
           67077         1.46837
           67078         1.40751
           67079         1.38852
           67080         1.39898
           67081         1.45909
           67082         1.47786
           67083         1.89477
           67084         1.99945
           67085         2.75999
           67086         1.44783
           67087         1.43794
           67088         1.39862
           67089         1.40892
           67090         2.76942
           67091         3.05774
           67092         4.54618
           67093         1.39482
           67094         1.37746
           67095         3.60019
           67096         3.65365
           67097         3.46626
           67098         3.41114
           67099         3.52927
           67100         1.42024
           67101         1.40733
           67102         1.44599
           67103         1.47253
           67104         3.75946
           67105         3.81319
           67106         3.62747
           67107         1.48516
           67108         3.56118
           67109         4.04838
           67110         1.33917
           67111         1.27218
           67112         1.29134
           67113         3.97229
           67114         3.96486
           67115         4.10751
           67116         4.24496
           67117         4.24580
           67118         3.65952
           67119         4.63775
           67120         4.70357
           67121         4.50551
           67122         1.30766
           67123         1.52320
           67124         1.49898
           67125         3.51325
           67126         3.51736
           67127         1.32740
           67128         4.63286
           67129         2.70534
           67130         2.73785
           67131         2.73316
           67132         2.02218
           67133         1.96962
           67134         3.96105
           67135         4.20725
           67136         3.98579
           67137         3.93408
           67138         4.25172
           67139         3.96545
           67140         6.37300
           67141         5.40829
           67142         5.21326
           67143         5.27928
           67144         6.37716
           67145         7.64781
           67146         6.05820
           67147         6.22340
           67148         6.60254
           67149         3.76275
           67150         3.74616
           67151         6.79970
           67152         6.55339
           67153         5.01052
           67154         4.83924
           67155         3.53640
           67156         4.42173
           67157         4.73869
           67158         4.86394
           67159         4.84526
           67160         4.85329
           67161         2.61647
           67162         2.61819
           67163         2.61056
           67164         2.60882
           67165         2.60941
           67166         4.03639
           67167         3.98287
           67168         4.01766
           67169         4.36931
           67170         4.41744
           67171         4.39126
           67172         4.05860
           67173         3.96978
           67174         4.15535
           67175         4.35077
           67176         4.22777
           67177         5.04376
           67178         4.96176
           67179         4.98974
           67180         4.86064
           67181         2.09081
           67182         2.02453
           67183         2.31243
           67184         2.45310
           67185         2.21056
           67186         2.14541
           67187         2.25279
           67188         5.08293
           67189         5.15061
           67190         2.37993
           67191         2.35497
           67192         2.40366
           67193         2.33958
           67194         2.36537
           67195         4.37678
           67196         4.28940
           67197         4.06636
           67198         4.21618
           67199         1.61663
           67200         1.20026
           67201         1.27616
           67202         2.43085
           67203         2.37626
           67204         2.35040
           67205         2.40490
           67206         2.42309
           67207         2.35789
           67208         2.31156
           67209         2.40981
           67210         2.38791
           67211         4.34435
           67212         4.51125
           67213         4.47575
           67214         4.40755
           67215         2.70072
           67216         2.27683
           67217         1.91242
           67218         2.21597
           67219     790.240E-03
           67220     662.311E-03
           67221     825.974E-03
           67222         6.03920
           67223     980.159E-03
           67224         1.13978
           67225         1.31577
           67226         1.11262
           67227         1.09243
           67228     973.194E-03
           67229         1.07668
           67230         1.17229
           67231         6.21815
           67232         6.10389
           67233         6.12136
           67234         5.97094
           67235         5.98360
           67236         2.31725
           67237         6.35221
           67238         2.49290
           67239         1.97762
           67240         6.51453
           67241         6.43224
           67242         6.46128
           67243         6.56278
           67244         6.53283
           67245     618.438E-03
           67246         1.29341
           67247         1.53856
           67248         6.31599
           67249         5.31044
           67250         5.38073
           67251         5.20681
           67252         5.29483
           67253         5.13892
           67254         5.38174
           67255         5.20957
           67256         5.67697
           67257         5.74499
           67258         5.74570
           67259         5.67901
           67260         5.60897
           67261         1.15396
           67262         1.01707
           67263         1.36199
           67264         1.79448
           67265         5.54018
           67266         5.45135
           67267         5.37957
           67268         5.47700
           67269         5.54723
           67270         2.16246
           67271         1.60967
           67272         1.53327
           67273     615.687E-03
           67274     485.106E-03
           67275     381.223E-03
           67276     604.321E-03
           67277     597.167E-03
           67278         5.61984
           67279     976.595E-03
           67280     904.487E-03
           67281         6.35745
           67282         6.33233
           67283         6.23708
           67284         6.28854
           67285         6.31680
           67286         6.22060
           67287         6.01101
           67288         6.09235
           67289         5.96075
           67290         6.03692
           67291         5.96015
           67292         5.98525
           67293         6.00742
           67294         5.98232
           67295         6.05877
           67296         6.08561
           67297         6.08565
           67298         6.03825
           67299         5.93650
           67300         5.98241
           67301         6.14546
           67302         1.63496
           67303         1.02591
           67304         1.19315
           67305         1.08107
           67306     918.308E-03
           67307     672.314E-03
           67308     688.331E-03
           67309         1.35096
           67310         1.28632
           67311         1.41348
           67312         1.15272
           67313         1.30973
           67314         2.48089
           67315         1.66758
           67316         1.86399
           67317         1.60911
           67318         2.34322
           67319         2.29487
           67320         2.30796
           67321         2.32323
           67322         2.34676
           67323         2.33325
           67324         2.31996
           67325     936.356E-03
           67326     939.397E-03
           67327     856.176E-03
           67328     825.422E-03
           67329     891.029E-03
           67330         2.14440
           67331         2.53337
           67332         2.18902
           67333         2.33489
           67334         2.32480
           67335         2.25374
           67336         2.27790
           67337         2.25971
           67338     249.120E-03
           67339     590.284E-03
           67340     765.304E-03
           67341     813.959E-03
           67342     711.027E-03
           67343         1.03061
           67344         1.14146
           67345     325.135E-03
           67346     390.830E-03
           67347     352.609E-03
           67348     336.116E-03
           67349     399.565E-03
           67350     269.261E-03
           67351     756.709E-03
           67352     733.583E-03
           67353     814.534E-03
           67354         1.07905
           67355     860.809E-03
           67356     904.144E-03
           67357         3.52712
           67358         3.57121
           67359         3.61029
           67360         1.08821
           67361     900.839E-03
           67362         1.13019
           67363         1.04446
           67364         1.05560
           67365         1.12209
           67366         3.57431
           67367         3.74226
           67368         3.84396
           67369         3.87036
           67370         3.76808
           67371         3.83483
           67372         3.64480
           67373         3.70780
           67374         3.65117
           67375         3.61717
           67376     733.768E-03
           67377     745.724E-03
           67378     783.471E-03
           67379         3.71223
           67380         3.64906
           67381         3.62157
           67382         3.73770
           67383         4.18282
           67384         4.21585
           67385         4.00778
           67386     927.146E-03
           67387         3.84346
           67388         3.70574
           67389         3.13095
           67390         3.12312
           67391         3.71158
           67392     916.580E-03
           67393     824.438E-03
           67394     760.027E-03
           67395     801.046E-03
           67396         4.12993
           67397         3.35243
           67398         3.37166
           67399         1.02055
           67400         3.03997
           67401         2.90696
           67402         1.28222
           67403     921.499E-03
           67404     997.716E-03
           67405     820.177E-03
           67406     903.754E-03
           67407     843.214E-03
           67408         3.24954
           67409         3.19608
           67410         3.62330
           67411         5.94980
           67412         4.64449
           67413         1.44072
           67414         2.81514
           67415         2.75088
           67416         2.74869
           67417         2.77991
           67418         3.99701
           67419         4.31659
           67420         1.89133
           67421         1.83780
           67422         2.71283
           67423         2.70752
           67424         2.79573
           67425         2.69137
           67426         2.79862
           67427     996.934E-03
           67428         2.80822
           67429         2.85554
           67430         2.74880
           67431         2.64288
           67432         2.72699
           67433         2.66645
           67434         2.72618
           67435         5.13839
           67436         5.11551
           67437         2.59636
           67438         2.69910
           67439         2.32877
           67440         3.94734
           67441         2.36034
           67442         2.41526
           67443         2.42400
           67444         2.36856
           67445         7.61688
           67446         5.67481
           67447         6.33714
           67448         3.30356
           67449         3.59895
           67450         2.56224
           67451         2.54775
           67452         2.41277
           67453         4.34320
           67454         2.50072
           67455         2.41064
           67456         2.51158
           67457         2.48867
           67458         2.44381
           67459         2.46400
           67460         2.48666
           67461         2.53269
           67462         2.63304
           67463         2.70465
           67464         2.89940
           67465         4.40282
           67466         3.17338
           67467         3.64740
           67468         3.26570
           67469         3.38308
           67470         3.38238
           67471         3.35574
           67472         3.32325
           67473         3.41464
           67474         3.38693
           67475         3.76638
           67476         3.55997
           67477         3.72924
           67478         3.20201
           67479     959.056E-03
           67480     922.800E-03
           67481     851.551E-03
           67482     889.505E-03
           67483         1.00803
           67484     935.113E-03
           67485     960.781E-03
           67486         1.00996
           67487         1.00732
           67488         8.32557
           67489         3.39804
           67490         3.34083
           67491         3.46871
           67492         3.50991
           67493         3.43333
           67494         5.40365
           67495         6.00075
           67496     857.789E-03
           67497         3.29950
           67498         3.32889
           67499         3.29022
           67500         3.16599
           67501         3.78647
           67502         4.50103
           67503         4.55967
           67504         4.50384
           67505         3.76974
           67506     724.922E-03
           67507     946.370E-03
           67508     571.612E-03
           67509     740.223E-03
           67510     704.643E-03
           67511         4.55162
           67512     521.698E-03
           67513         4.64853
           67514         5.03107
           67515         5.27928
           67516         5.09341
           67517     674.715E-03
           67518     591.840E-03
           67519     728.763E-03
           67520         6.82223
           67521         5.57759
           67522         3.80405
           67523         3.90626
           67524         3.68940
           67525         3.88441
           67526         3.78546
           67527         5.70351
           67528         5.71328
           67529         4.30810
           67530         3.27950
           67531         4.87097
           67532         4.54735
           67533         3.24918
           67534         4.15264
           67535         4.71589
           67536         4.22672
           67537         4.35063
           67538         4.28619
           67539         6.35790
           67540         2.67465
           67541         2.68008
           67542         2.66991
           67543         3.81648
           67544         4.06854
           67545         6.37998
           67546         6.28824
           67547         5.33759
           67548         5.87850
           67549         6.12786
           67550         6.45810
           67551         6.49619
           67552         1.97579
           67553         1.79255
           67554         4.91370
           67555         5.32646
           67556         3.79518
           67557         3.66430
           67558         2.62265
           67559         2.76292
           67560         2.88719
           67561         2.75072
           67562         3.71719
           67563         6.53899
           67564         6.38609
           67565         2.67384
           67566         2.66341
           67567         2.66517
           67568         2.59052
           67569         2.61965
           67570         2.65844
           67571         2.65984
           67572         2.66134
           67573         2.66260
           67574         2.66143
           67575         2.66109
           67576         2.66205
           67577         2.66129
           67578         1.81754
           67579         1.84028
           67580         2.66252
           67581         2.66253
           67582         2.66145
           67583         2.59476
           67584         2.57900
           67585         2.61361
           67586         2.59739
           67587         2.61285
           67588         2.57735
           67589         2.65114
           67590         2.67695
           67591         2.65585
           67592         2.66986
           67593         2.64297
           67594         2.66450
           67595         2.63441
           67596         2.61765
           67597         2.29862
           67598         2.19043
           67599         2.55604
           67600         2.43171
           67601         2.31119
           67602         1.79364
           67603         1.66758
           67604         1.74926
           67605         2.62191
           67606         2.63874
           67607         2.64195
           67608         2.61154
           67609         2.62017
           67610         2.63853
           67611         2.65162
           67612         2.62533
           67613         2.66394
           67614         2.96537
           67615         2.92718
           67616         2.98145
           67617         2.05219
           67618         2.30409
           67619         2.88946
           67620         2.87579
           67621     370.192E-03
           67622     379.470E-03
           67623     360.664E-03
           67624     388.016E-03
           67625         2.81816
           67626         2.88058
           67627         2.81493
           67628     525.907E-03
           67629     565.808E-03
           67630     501.809E-03
           67631     418.952E-03
           67632     511.509E-03
           67633     663.667E-03
           67634     526.836E-03
           67635     761.568E-03
           67636         1.58514
           67637         1.41693
           67638         3.80035
           67639         3.67163
           67640         3.67488
           67641         3.64170
           67642         3.76621
           67643         3.79177
           67644         3.78870
           67645         3.96034
           67646         3.95034
           67647         4.03693
           67648         4.05283
           67649         4.07913
           67650         3.95965
           67651         3.94305
           67652         3.91753
           67653         3.80255
           67654         3.92975
           67655         3.90497
           67656         3.90499
           67657     882.610E-03
           67658         3.68047
           67659         4.04019
           67660     448.273E-03
           67661     429.089E-03
           67662     73.1683E-03
           67663     217.017E-03
           67664     403.352E-03
           67665         4.08414
           67666         4.05857
           67667         3.95139
           67668         3.90319
           67669         1.85648
           67670         1.90969
           67671         1.89009
           67672         1.98556
           67673         2.02265
           67674         1.98471
           67675         1.99102
           67676         1.99062
           67677         2.21478
           67678         2.23047
           67679         2.39028
           67680         3.79082
           67681         3.66807
           67682         1.93128
           67683         1.94291
           67684         1.93120
           67685         1.94617
           67686         9.02553
           67687         7.38196
           67688         1.95138
           67689         1.92927
           67690     274.636E-03
           67691     286.776E-03
           67692     233.381E-03
           67693     229.547E-03
           67694     217.661E-03
           67695     310.847E-03
           67696     236.252E-03
           67697     238.741E-03
           67698     252.121E-03
           67699     332.385E-03
           67700     405.453E-03
           67701     405.031E-03
           67702     337.266E-03
           67703         2.56524
           67704         2.37816
           67705         2.29900
           67706         2.29711
           67707     304.929E-03
           67708     358.494E-03
           67709         2.85276
           67710         2.79813
           67711     471.269E-03
           67712     511.167E-03
           67713     509.350E-03
           67714         3.21284
           67715         3.39628
           67716         3.48957
           67717         3.54403
           67718         3.56838
           67719         3.34885
           67720         5.30659
           67721         5.26748
           67722         5.26617
           67723         5.22273
           67724         5.22334
           67725         2.63061
           67726         2.62534
           67727         2.62320
           67728         2.62592
           67729         4.39068
           67730         4.39120
           67731         2.30153
           67732         3.75399
           67733         3.69259
           67734         4.03020
           67735         4.04874
           67736     252.558E-03
           67737     240.742E-03
           67738     227.503E-03
           67739         4.09954
           67740         3.87427
           67741         2.67268
           67742         2.66362
           67743         2.66578
           67744         2.69291
           67745         2.69238
           67746         3.11999
           67747         3.04224
           67748         3.02207
           67749         3.06566
           67750         2.67131
           67751         2.67837
           67752         3.77138
           67753         2.68744
           67754         2.69103
           67755         2.68839
           67756         2.67970
           67757         2.69278
           67758         4.58192
           67759         3.29604
           67760         3.30983
           67761         2.87886
           67762         3.08228
           67763         2.67407
           67764         1.67553
           67765         1.71541
           67766         1.69166
           67767         1.63017
           67768         1.35007
           67769         1.37467
           67770         2.66572
           67771         2.66138
           67772         2.66363
           67773         5.57630
           67774         5.53504
           67775         1.56210
           67776         1.59157
           67777         1.64373
           67778         1.63564
           67779         1.60524
           67780         1.55236
           67781         2.63320
           67782         2.72791
           67783         2.75807
           67784         2.53005
           67785         2.65563
           67786         2.47469
           67787         2.48435
           67788         2.51633
           67789         2.44259
           67790         2.64138
           67791         2.41280
           67792         5.60925
           67793         5.60339
           67794         5.57362
           67795         7.83788
           67796         7.85729
           67797         7.70435
           67798         7.68377
           67799         7.53086
           67800         7.38631
           67801         7.25357
           67802         2.05413
           67803         2.32695
           67804         1.36725
           67805         1.53817
           67806         7.67811
           67807         7.26242
           67808     199.021E-03
           67809     136.348E-03
           67810     114.382E-03
           67811     916.725E-03
           67812     799.537E-03
           67813     905.630E-03
           67814         1.00346
           67815         1.12710
           67816     155.431E-03
           67817     364.643E-03
           67818     385.738E-03
           67819     129.319E-03
           67820     180.621E-03
           67821     149.984E-03
           67822     790.859E-03
           67823     928.052E-03
           67824         4.04918
           67825         1.21587
           67826         1.31760
           67827         1.41906
           67828         1.58160
           67829         1.36300
           67830     269.967E-03
           67831     271.583E-03
           67832     483.120E-03
           67833         4.00896
           67834     695.158E-03
           67835     534.546E-03
           67836     998.818E-03
           67837     23.4304E-03
           67838     73.2793E-03
           67839     40.4810E-03
           67840     22.9043E-03
           67841         7.45582
           67842         5.78848
           67843         6.47404
           67844         1.10181
           67845         1.06913
           67846         5.17395
           67847         5.23132
           67848         5.22483
           67849         9.56838
           67850         9.25974
           67851         7.26064
           67852         10.6660
           67853         9.87654
           67854         8.21220
           67855         8.94885
           67856         10.3554
           67857         9.59072
           67858         5.01022
           67859         2.62566
           67860         2.62714
           67861         2.62018
           67862         6.01655
           67863     530.773E-03
           67864     809.175E-03
           67865     776.212E-03
           67866     811.167E-03
           67867         1.12630
           67868     914.902E-03
           67869     638.774E-03
           67870     651.604E-03
           67871         5.69326
           67872         5.78035
           67873         5.96906
           67874         6.11992
           67875         6.00160
           67876         5.95083
           67877     32.1396E-03
           67878     24.1500E-03
           67879     46.4522E-03
           67880     18.7263E-03
           67881     20.9539E-03
           67882     15.6380E-03
           67883     30.1391E-03
           67884         1.78087
           67885         1.71429
           67886         1.81053
           67887         1.66996
           67888     47.0506E-03
           67889     29.8462E-03
           67890     17.7962E-03
           67891     29.6168E-03
           67892     15.3533E-03
           67893     21.0439E-03
           67894     58.1458E-03
           67895     104.653E-03
           67896         9.81200
           67897     61.7969E-03
           67898         4.40866
           67899     20.4667E-03
           67900     27.7887E-03
           67901     41.1875E-03
           67902         3.97865
           67903         4.73232
           67904         4.36164
           67905         7.14202
           67906         7.35620
           67907         7.25234
           67908         4.27534
           67909         7.69674
           67910         7.97836
           67911         7.59740
           67912         7.63234
           67913         7.72568
           67914         7.44936
           67915         7.78025
           67916         7.72601
           67917         5.92391
           67918         5.98303
           67919         5.91841
           67920         5.69552
           67921         5.65814
           67922         5.62065
           67923         5.65752
           67924         5.56737
           67925         5.67631
           67926         5.65560
           67927         5.60296
           67928         5.57472
           67929     909.258E-03
           67930         1.15253
           67931         1.08739
           67932         1.31128
           67933         1.34814
           67934         5.52781
           67935         5.44667
           67936         5.45744
           67937     942.572E-03
           67938         5.69216
           67939         5.65204
           67940         5.58247
           67941         5.73812
           67942         5.76025
           67943         5.73893
           67944         5.71707
           67945         5.74449
           67946         5.83696
           67947         5.73395
           67948         5.69423
           67949         5.74728
           67950         5.71546
           67951         5.77548
           67952     715.257E-03
           67953     728.765E-03
           67954         5.76038
           67955         5.74468
           67956     681.229E-03
           67957     561.357E-03
           67958     646.356E-03
           67959     401.888E-03
           67960     686.725E-03
           67961         5.69178
           67962         5.70647
           67963         5.43018
           67964         5.47822
           67965         5.47547
           67966         5.46553
           67967         5.57405
           67968         5.63967
           67969         5.58214
           67970         5.59245
           67971         5.53143
           67972         5.59030
           67973         3.49607
           67974         4.28966
           67975         5.47222
           67976         1.06639
           67977         1.16930
           67978         1.21774
           67979         5.51800
           67980         5.53775
           67981         1.45469
           67982         1.30773
           67983         2.01204
           67984         1.67557
           67985         5.60808
           67986         5.55328
           67987         5.55051
           67988         5.57848
           67989         1.32487
           67990         1.26695
           67991         1.63282
           67992         1.74113
           67993         1.85202
           67994         1.75372
           67995         1.64127
           67996         1.63484
           67997         1.45152
           67998         1.51480
           67999         2.01430
           68000         1.79313
           68001         1.77055
           68002         1.92039
           68003         1.99531
           68004         1.89209
           68005         1.75839
           68006         1.85757
           68007         1.97021
           68008         1.99239
           68009         1.98027
           68010         1.95590
           68011         1.93954
           68012         2.04760
           68013         1.98810
           68014         2.02878
           68015         2.04583
           68016         2.06758
           68017         2.02629
           68018         2.04113
           68019         2.08200
           68020         1.98254
           68021         2.01547
           68022         1.99216
           68023         5.36896
           68024         5.36484
           68025         3.71892
           68026         4.62593
           68027         4.33197
           68028     878.286E-03
           68029     876.558E-03
           68030     887.289E-03
           68031         2.04139
           68032         1.76383
           68033         1.91861
           68034         1.93362
           68035         1.95880
           68036         2.05895
           68037         2.05412
           68038         2.08226
           68039         1.35200
           68040         2.56936
           68041         2.54071
           68042         2.65870
           68043         5.75946
           68044         3.73449
           68045         2.27129
           68046         2.50716
           68047         2.66764
           68048         2.68632
           68049         2.68026
           68050         2.62173
           68051         2.60004
           68052         2.60774
           68053         2.61893
           68054         2.64780
           68055         2.08118
           68056         2.15202
           68057         2.05018
           68058         1.96902
           68059         2.02057
           68060         5.38344
           68061         5.22604
           68062     258.517E-03
           68063     352.491E-03
           68064         5.14088
           68065         5.12382
           68066         5.15434
           68067         5.12224
           68068         5.13985
           68069         5.14292
           68070         5.17398
           68071         5.15745
           68072         5.16628
           68073         5.14319
           68074         5.17393
           68075         1.71845
           68076         1.62213
           68077     21.8039E-03
           68078     21.5542E-03
           68079     21.2133E-03
           68080         1.30563
           68081     21.8365E-03
           68082     19.2222E-03
           68083     21.7188E-03
           68084     21.3968E-03
           68085     40.1942E-03
           68086     51.5149E-03
           68087     19.5807E-03
           68088     13.0793E-03
           68089     30.2881E-03
           68090     21.9665E-03
           68091     16.5867E-03
           68092     16.3889E-03
           68093     19.1053E-03
           68094     42.6678E-03
           68095     524.819E-03
           68096     22.2768E-03
           68097     4.86931E-03
           68098     11.3512E-03
           68099     7.69170E-03
           68100     23.0600E-03
           68101     20.0558E-03
           68102     468.558E-03
           68103     541.453E-03
           68104     500.535E-03
           68105     47.8346E-03
           68106     44.0009E-03
           68107     32.0530E-03
           68108     32.5091E-03
           68109     39.2970E-03
           68110     511.606E-03
           68111     573.010E-03
           68112     572.182E-03
           68113     542.050E-03
           68114     526.187E-03
           68115     586.011E-03
           68116     544.913E-03
           68117     469.303E-03
           68118     437.818E-03
           68119         2.35516
           68120         2.37533
           68121         2.34362
           68122         2.35675
           68123         2.36899
           68124         2.38738
           68125         2.38934
           68126         2.35671
           68127         2.38861
           68128         2.38253
           68129         2.37868
           68130         2.35761
           68131         3.66857
           68132         3.69349
           68133         3.64423
           68134         3.65233
           68135         3.63830
           68136         3.79994
           68137         3.84271
           68138         3.82360
           68139         3.75926
           68140         3.79211
           68141         3.85164
           68142         3.88523
           68143         3.90611
           68144     457.990E-03
           68145         3.84252
           68146         3.83594
           68147         3.80292
           68148         3.76094
           68149         3.80432
           68150         3.84864
           68151         3.91625
           68152         3.73722
           68153         3.70558
           68154         3.75621
           68155         3.58901
           68156         3.75822
           68157         3.61390
           68158         4.69524
           68159         4.97629
           68160         4.30651
           68161         4.08981
           68162         4.45157
           68163         3.76733
           68164         3.67446
           68165         3.81031
           68166         4.21631
           68167         3.92985
           68168         3.84990
           68169     806.208E-03
           68170     736.437E-03
           68171     733.075E-03
           68172         1.02399
           68173         1.13804
           68174         1.01372
           68175     923.553E-03
           68176     780.854E-03
           68177         1.10484
           68178         1.23114
           68179         1.09706
           68180     913.195E-03
           68181         1.03680
           68182         1.02503
           68183     31.5859E-03
           68184     899.134E-03
           68185     99.6064E-03
           68186         1.34449
           68187         2.67659
           68188         2.68820
           68189     90.8793E-03
           68190     71.7406E-03
           68191         2.66881
           68192         2.66704
           68193         2.65834
           68194         2.67526
           68195         2.70816
           68196         2.66461
           68197         2.65007
           68198         2.67334
           68199         2.67076
           68200         2.65971
           68201     103.248E-03
           68202     69.8770E-03
           68203     52.5503E-03
           68204     49.0460E-03
           68205         2.65131
           68206         2.65627
           68207     989.422E-03
           68208         1.01555
           68209     964.276E-03
           68210     951.189E-03
           68211     974.757E-03
           68212     924.043E-03
           68213     958.174E-03
           68214     821.188E-03
           68215     765.536E-03
           68216     814.525E-03
           68217     789.743E-03
           68218     900.203E-03
           68219     837.157E-03
           68220     844.998E-03
           68221     86.3851E-03
           68222     784.051E-03
           68223     841.790E-03
           68224         3.19927
           68225         3.19865
           68226         3.07144
           68227         3.06256
           68228         3.06360
           68229         3.18599
           68230         5.34936
           68231         5.38217
           68232         5.42039
           68233         5.44962
           68234         5.42058
           68235         5.37918
           68236         3.21082
           68237         3.17047
           68238         3.20370
           68239     2.12704E-03
           68240     56.0541E-03
           68241     35.5716E-03
           68242     54.4940E-03
           68243     1.36972E-03
           68244     334.082E-03
           68245     414.998E-03
           68246         3.22719
           68247         3.09655
           68248         3.23563
           68249         3.20864
           68250         2.85974
           68251         2.96477
           68252         2.96883
           68253         3.07737
           68254         2.97313
           68255         6.07579
           68256         5.94304
           68257         5.99796
           68258         6.01876
           68259         5.90745
           68260         6.01976
           68261         6.44709
           68262         6.33114
           68263         5.85325
           68264         1.23433
           68265         1.28608
           68266         1.31066
           68267         1.34391
           68268         1.29376
           68269         1.32687
           68270         1.40336
           68271         1.36113
           68272         1.31177
           68273         1.35310
           68274         1.25839
           68275         1.24856
           68276         1.25066
           68277         1.24049
           68278     122.288E-03
           68279     116.602E-03
           68280     106.958E-03
           68281         1.27730
           68282         1.24962
           68283         1.31786
           68284         6.41324
           68285         6.31096
           68286         5.60860
           68287         5.70048
           68288         5.43548
           68289         6.35135
           68290         6.38077
           68291         6.15564
           68292         6.24837
           68293         6.06471
           68294         6.26283
           68295         3.56766
           68296         3.52393
           68297         3.62891
           68298         3.63682
           68299         3.64280
           68300         3.58487
           68301         3.70060
           68302         3.77184
           68303         3.80064
           68304         3.70580
           68305         3.69853
           68306         3.47090
           68307         3.60537
           68308         5.94164
           68309         5.85162
           68310         5.94785
           68311         6.41038
           68312         6.21640
           68313         6.23807
           68314     49.7723E-03
           68315         5.94005
           68316         5.88131
           68317         5.93143
           68318         6.39722
           68319         6.22018
           68320         6.13719
           68321         6.08635
           68322         6.05427
           68323     894.109E-03
           68324         1.20796
           68325         1.13757
           68326         1.24787
           68327         6.31059
           68328         6.16390
           68329         6.43329
           68330         6.21011
           68331         6.23172
           68332         6.18924
           68333         6.39743
           68334         2.40096
           68335         2.36311
           68336         2.33813
           68337         2.43904
           68338         2.47623
           68339         2.51319
           68340         2.47876
           68341         2.45397
           68342     3.34181E-03
           68343     714.464E-03
           68344     623.267E-03
           68345     558.472E-03
           68346     419.321E-03
           68347     545.534E-03
           68348     778.540E-03
           68349         2.56942
           68350         2.58254
           68351         2.57597
           68352         2.56371
           68353         2.57541
           68354         2.57110
           68355         2.57360
           68356         2.58149
           68357         2.57064
           68358         2.55024
           68359         2.54884
           68360         2.54061
           68361         2.54220
           68362         2.55820
           68363         2.55290
           68364         2.56882
           68365         2.55876
           68366         1.66153
           68367         1.83237
           68368         2.56532
           68369         2.54448
           68370         2.53780
           68371         2.55402
           68372         2.66293
           68373         2.66326
           68374         2.66323
           68375         2.66439
           68376     533.359E-03
           68377     560.597E-03
           68378     642.558E-03
           68379         5.02927
           68380         2.66359
           68381         2.66386
           68382     956.167E-03
           68383     977.554E-03
           68384     307.308E-03
           68385     251.609E-03
           68386     391.924E-03
           68387     321.087E-03
           68388     334.579E-03
           68389     353.258E-03
           68390     423.923E-03
           68391     410.649E-03
           68392         2.65594
           68393         2.65740
           68394         2.65737
           68395     76.5434E-03
           68396         2.66090
           68397         2.66101
           68398         2.66207
           68399         2.65989
           68400         2.66139
           68401         2.66086
           68402         2.66392
           68403         2.66033
           68404         2.66384
           68405         2.66026
           68406         6.89077
           68407         6.71604
           68408         6.74489
           68409         6.91172
           68410         6.88083
           68411         6.74743
           68412         6.58164
           68413         6.71912
           68414         7.09828
           68415         6.87921
           68416         6.88893
           68417         7.07694
           68418         6.58141
           68419         6.74720
           68420         6.71729
           68421         6.71442
           68422         3.14918
           68423         3.08674
           68424         2.92298
           68425         3.07803
           68426         3.11264
           68427         3.16450
           68428     195.944E-03
           68429     194.666E-03
           68430     138.389E-03
           68431         3.04500
           68432     255.798E-03
           68433         3.03055
           68434         3.08904
           68435         3.05998
           68436         3.00378
           68437         3.00809
           68438         2.91874
           68439         1.06545
           68440     576.989E-03
           68441         1.39843
           68442         1.17391
           68443     628.722E-03
           68444     462.002E-03
           68445     744.090E-03
           68446     682.705E-03
           68447         2.80765
           68448         2.81214
           68449         2.85227
           68450         2.82272
           68451         2.73799
           68452         2.71638
           68453         2.73599
           68454         2.72688
           68455         2.78698
           68456         2.79143
           68457     477.674E-03
           68458     525.530E-03
           68459         2.78669
           68460         2.70941
           68461         2.69764
           68462         2.73007
           68463         2.66071
           68464         2.68891
           68465         2.71680
           68466         2.68837
           68467         2.68071
           68468         2.67552
           68469         2.70726
           68470         2.69953
           68471         2.75937
           68472         6.19649
           68473         6.27982
           68474         6.26010
           68475         6.35445
           68476         6.26805
           68477         6.27008
           68478         6.36524
           68479         6.34324
           68480         6.52880
           68481         6.45416
           68482         6.63856
           68483         6.62312
           68484         6.69949
           68485         6.51469
           68486         6.62931
           68487         6.62248
           68488         6.55322
           68489         2.45989
           68490         2.37829
           68491         2.34625
           68492     429.283E-03
           68493     424.712E-03
           68494     483.381E-03
           68495     420.584E-03
           68496         1.03984
           68497     938.957E-03
           68498     622.728E-03
           68499     625.125E-03
           68500         2.38699
           68501     574.906E-03
           68502     651.279E-03
           68503     578.350E-03
           68504     614.557E-03
           68505         2.36813
           68506         2.37891
           68507         2.41870
           68508         2.40000
           68509         2.36519
           68510         2.32742
           68511         2.34110
           68512         2.36103
           68513         2.98164
           68514         2.96387
           68515         2.99902
           68516         3.02210
           68517         3.03135
           68518         1.39279
           68519     872.102E-03
           68520         2.98179
           68521         2.95332
           68522         2.98615
           68523         2.94046
           68524         2.91780
           68525         2.94445
           68526         5.10942
           68527         5.08472
           68528         5.11090
           68529         5.10177
           68530     524.374E-03
           68531     569.804E-03
           68532         5.08703
           68533         3.37118
           68534         3.03551
           68535         3.40839
           68536         3.11453
           68537         5.07494
           68538         5.07971
           68539         5.08134
           68540         5.09966
           68541         5.03542
           68542         5.08031
           68543         5.08231
           68544         5.07335
           68545         5.09370
           68546     476.780E-03
           68547     404.910E-03
           68548     359.564E-03
           68549     595.032E-03
           68550     607.046E-03
           68551     875.969E-03
           68552         2.57805
           68553         2.64748
           68554         2.51732
           68555         2.54666
           68556         2.72211
           68557         2.51388
           68558         2.69745
           68559         2.63371
           68560         2.63006
           68561         2.32208
           68562         2.30119
           68563         2.30611
           68564         2.35843
           68565         2.31466
           68566         2.32852
           68567         2.29246
           68568         2.28568
           68569         2.27020
           68570         2.24896
           68571         2.31264
           68572         2.31373
           68573         2.29255
           68574         2.26640
           68575         7.02117
           68576         3.82439
           68577         3.47840
           68578         3.07267
           68579         3.47741
           68580         3.77355
           68581         3.53501
           68582         3.73960
           68583         3.73971
           68584         6.34638
           68585         6.14052
           68586         6.97563
           68587         7.19237
           68588         6.57802
           68589         7.00292
           68590         6.74042
           68591         6.65388
           68592         6.48251
           68593         5.01329
           68594         5.09256
           68595         5.06089
           68596         5.10116
           68597         5.01568
           68598         5.04936
           68599         4.97151
           68600         4.98393
           68601         5.02358
           68602         5.02608
           68603         5.11123
           68604         5.07042
           68605         2.43051
           68606         2.42058
           68607         2.45740
           68608         2.52923
           68609         2.57247
           68610         2.55196
           68611         2.52690
           68612         2.53879
           68613         2.52589
           68614         2.50926
           68615         2.52237
           68616         2.55972
           68617         2.56153
           68618         2.53923
           68619         2.52866
           68620         2.55397
           68621         2.57407
           68622     950.815E-03
           68623     567.878E-03
           68624         2.56132
           68625         2.52274
           68626         2.50914
           68627         2.52918
           68628         2.49645
           68629         2.58103
           68630         2.49964
           68631         2.59032
           68632         2.68333
           68633         2.64651
           68634     345.530E-03
           68635         2.65387
           68636         2.65702
           68637         2.61125
           68638         2.57442
           68639         2.57211
           68640         2.61571
           68641         2.70909
           68642         2.59618
           68643         2.66036
           68644         5.63881
           68645         5.62829
           68646         5.65665
           68647         5.62400
           68648         5.60504
           68649     121.828E-03
           68650     130.238E-03
           68651         3.51165
           68652         3.47571
           68653         5.75027
           68654         5.77419
           68655         5.72714
           68656         5.75397
           68657         5.77743
           68658         1.58840
           68659         5.66732
           68660         5.63775
           68661         5.67756
           68662         5.67322
           68663         5.70223
           68664         3.12395
           68665         3.22829
           68666         5.61530
           68667         5.69636
           68668         5.70417
           68669         5.72879
           68670         5.74566
           68671         4.68812
           68672         4.79738
           68673         4.70512
           68674         4.64782
           68675         5.54024
           68676         5.43515
           68677         5.36309
           68678         5.06605
           68679         5.79729
           68680         5.60007
           68681         5.20933
           68682         5.10233
           68683     195.227E-03
           68684     220.530E-03
           68685     224.091E-03
           68686         6.46368
           68687         6.38476
           68688         9.68284
           68689         9.21928
           68690         10.2662
           68691     162.769E-03
           68692         3.25833
           68693         3.19308
           68694         3.24126
           68695         3.28288
           68696         3.12434
           68697         3.11632
           68698         3.11902
           68699         3.12708
           68700         3.16662
           68701         3.34247
           68702         3.30466
           68703         3.36324
           68704         3.28254
           68705         3.31979
           68706         3.27742
           68707         3.29919
           68708         3.32377
           68709         3.30163
           68710         3.16199
           68711         3.24216
           68712         3.22084
           68713         3.17031
           68714         3.23430
           68715         3.31765
           68716     916.804E-03
           68717         1.07991
           68718     975.606E-03
           68719     981.655E-03
           68720     560.647E-03
           68721     585.644E-03
           68722     923.074E-03
           68723     863.973E-03
           68724     693.556E-03
           68725     566.837E-03
           68726     484.560E-03
           68727     617.503E-03
           68728     607.133E-03
           68729         3.36749
           68730         3.20413
           68731         3.19093
           68732         3.16249
           68733         3.15838
           68734         3.17150
           68735         1.68012
           68736         1.40396
           68737         1.06388
           68738         1.12112
           68739         3.22394
           68740         3.18225
           68741         3.21128
           68742         3.25871
           68743         3.23515
           68744         2.09414
           68745         2.09331
           68746         1.90924
           68747         1.94879
           68748         1.91460
           68749         1.97311
           68750         2.00167
           68751         1.96803
           68752         2.11532
           68753         2.08339
           68754     625.566E-03
           68755     392.062E-03
           68756         1.96056
           68757         2.00273
           68758         2.03431
           68759         1.97781
           68760     867.679E-03
           68761         1.26576
           68762         1.22351
           68763         2.03512
           68764         2.05105
           68765         1.76771
           68766         1.86638
           68767         1.76674
           68768         1.81054
           68769         1.71630
           68770         1.81144
           68771         1.68548
           68772         1.71961
           68773         1.67570
           68774         1.64576
           68775         1.66462
           68776         1.72288
           68777         1.72750
           68778         1.76392
           68779         1.70931
           68780         1.70165
           68781     978.979E-03
           68782         1.93933
           68783         1.89315
           68784         1.85746
           68785         1.84443
           68786         1.87624
           68787         1.77082
           68788         1.81853
           68789         1.83481
           68790         1.80333
           68791         1.75283
           68792     698.115E-03
           68793         1.03036
           68794         1.03319
           68795     962.188E-03
           68796     789.555E-03
           68797         1.02091
           68798         1.00267
           68799     697.409E-03
           68800     938.633E-03
           68801     898.282E-03
           68802     898.662E-03
           68803     874.931E-03
           68804         2.74967
           68805         2.72211
           68806         2.49058
           68807         2.48135
           68808         1.17610
           68809         2.76365
           68810         2.70336
           68811         2.59685
           68812         2.66649
           68813         2.67582
           68814         2.51985
           68815         2.49696
           68816         2.92660
           68817         2.96330
           68818         2.94041
           68819         2.96245
           68820         2.92624
           68821         2.94742
           68822         2.95718
           68823         2.93915
           68824         2.90443
           68825         2.91941
           68826         1.61137
           68827         2.86908
           68828         2.89411
           68829         6.69399
           68830         6.69340
           68831         6.00427
           68832         6.03103
           68833         5.94196
           68834         5.98898
           68835         5.85496
           68836     936.872E-03
           68837     802.565E-03
           68838     833.088E-03
           68839     804.712E-03
           68840         6.01741
           68841         5.99452
           68842         6.02628
           68843         6.03587
           68844         6.01075
           68845         5.95704
           68846         5.90046
           68847         5.91162
           68848         5.88076
           68849         6.33138
           68850         6.28461
           68851         6.29078
           68852         6.27456
           68853         2.54479
           68854         2.57407
           68855         2.56663
           68856         2.54610
           68857         2.51522
           68858         2.52426
           68859         2.52240
           68860         2.54237
           68861         2.56476
           68862         2.57191
           68863         2.26066
           68864         2.76453
           68865         2.75729
           68866         2.78448
           68867         1.35005
           68868         2.50983
           68869         1.60740
           68870         2.26079
           68871         2.23800
           68872         2.30095
           68873         2.32351
           68874         2.31431
           68875         2.50555
           68876         2.45079
           68877         2.54884
           68878         1.51076
           68879         5.90895
           68880         5.55160
           68881         6.17546
           68882         5.72903
           68883         5.37272
           68884         5.95051
           68885         6.14717
           68886         6.72369
           68887         6.58012
           68888         1.80260
           68889         4.20191
           68890         4.25693
           68891         4.06720
           68892         4.33988
           68893         3.81151
           68894         3.61329
           68895         3.75129
           68896         3.83495
           68897         3.88957
           68898         3.96694
           68899         5.90431
           68900         4.04517
           68901         4.03239
           68902         8.14004
           68903         1.91484
           68904         1.50214
           68905         3.97716
           68906         4.15309
           68907         11.8545
           68908         10.9971
           68909         1.92004
           68910         1.72694
           68911         2.14751
           68912         1.74970
           68913         6.05148
           68914         6.21143
           68915         17.1537
           68916         1.91807
           68917         2.10374
           68918         1.71126
           68919         2.06721
           68920         14.7869
           68921     929.886E-03
           68922         1.16967
           68923     996.636E-03
           68924     922.433E-03
           68925         1.01677
           68926         1.00920
           68927     989.336E-03
           68928         1.16184
           68929         1.11558
           68930         1.04055
           68931     928.616E-03
           68932         1.00338
           68933         1.02688
           68934         1.12982
           68935         1.04984
           68936         1.05706
           68937         5.58826
           68938         2.38798
           68939         2.35838
           68940         5.48389
           68941         5.35505
           68942         1.74791
           68943         2.20140
           68944         2.23120
           68945         2.18828
           68946         5.19256
           68947         5.31638
           68948         5.38431
           68949         1.61495
           68950         1.71625
           68951         2.07845
           68952         5.69741
           68953         5.62364
           68954         5.61244
           68955         5.25724
           68956         1.28402
           68957         5.51213
           68958         5.51110
           68959         5.66883
           68960         3.22560
           68961         2.78300
           68962         5.43540
           68963         2.57958
           68964         2.56728
           68965         2.55613
           68966         2.58363
           68967         2.53665
           68968         2.52570
           68969     103.024E-03
           68970     214.872E-03
           68971     91.8081E-03
           68972         2.48989
           68973         2.58487
           68974         2.58798
           68975     769.957E-03
           68976     855.168E-03
           68977         2.57554
           68978         3.77427
           68979         4.08965
           68980         3.94635
           68981         3.98256
           68982         4.17047
           68983         4.00855
           68984         2.86034
           68985         6.39952
           68986         2.91848
           68987         2.92200
           68988         2.87071
           68989         2.89894
           68990         2.95218
           68991         1.36492
           68992         2.79656
           68993         2.80786
           68994         2.81515
           68995         2.83426
           68996         2.77286
           68997         2.79072
           68998         6.20719
           68999     944.758E-03
           69000         1.20135
           69001         2.82189
           69002         2.82857
           69003         2.82143
           69004         2.84138
           69005         2.84817
           69006         2.84287
           69007         4.21840
           69008         4.10100
           69009         4.13547
           69010         4.08433
           69011         4.31833
           69012         4.27303
           69013         4.17999
           69014         4.34696
           69015         4.44112
           69016         4.20574
           69017         4.09533
           69018         4.10201
           69019     964.404E-03
           69020         1.03734
           69021         2.94753
           69022         2.95355
           69023         2.86667
           69024         2.97616
           69025         2.96762
           69026         3.05477
           69027         2.99463
           69028         2.91311
           69029         2.96702
           69030         2.97065
           69031         2.91315
           69032         3.10021
           69033         3.09891
           69034         3.07916
           69035     590.912E-03
           69036     727.820E-03
           69037         5.61604
           69038         5.57605
           69039         5.65999
           69040         5.50947
           69041         5.48796
           69042         5.60291
           69043         5.57218
           69044         5.85970
           69045         5.63985
           69046         5.56178
           69047         5.48683
           69048         5.52353
           69049         5.60205
           69050         5.51944
           69051         5.48008
           69052         5.36633
           69053         5.37090
           69054         5.14879
           69055         5.13283
           69056         2.41279
           69057         2.66371
           69058     48.5975E-03
           69059     678.323E-03
           69060         2.64565
           69061         2.65694
           69062         2.66590
           69063         4.15887
           69064         5.38013
           69065         2.69481
           69066         2.68774
           69067     613.720E-03
           69068         2.66525
           69069         2.65382
           69070         2.42527
           69071         2.39044
           69072         2.39796
           69073         2.44786
           69074         2.47770
           69075         2.44573
           69076         2.50748
           69077         2.48548
           69078         2.45664
           69079         2.49835
           69080         4.09452
           69081         2.50180
           69082         2.53068
           69083         2.54837
           69084         2.51936
           69085         2.51905
           69086         2.50161
           69087         2.50662
           69088         2.53658
           69089         2.54107
           69090         4.39767
           69091     307.297E-03
           69092         2.81105
           69093         2.82562
           69094         2.79608
           69095         2.80623
           69096         2.79276
           69097         2.82131
           69098         2.77620
           69099         2.79547
           69100         2.78104
           69101         2.76174
           69102         2.79219
           69103         2.79520
           69104         2.74473
           69105         2.76141
           69106         3.00453
           69107         2.79449
           69108         2.80484
           69109         2.77998
           69110         2.79193
           69111         2.23485
           69112     756.710E-03
           69113     694.893E-03
           69114     608.302E-03
           69115     717.449E-03
           69116     173.123E-03
           69117     166.713E-03
           69118     221.912E-03
           69119     151.844E-03
           69120         2.54086
           69121         2.47968
           69122         2.25925
           69123         2.34696
           69124         2.45501
           69125         5.97453
           69126         5.93857
           69127         6.00374
           69128         5.94762
           69129         5.78681
           69130         5.85173
           69131         6.04245
           69132         5.88015
           69133         5.95143
           69134         5.84771
           69135         6.01008
           69136         5.71997
           69137         5.61998
           69138         5.60967
           69139         5.54436
           69140         4.92283
           69141         5.28748
           69142         5.35843
           69143     654.400E-03
           69144         7.20957
           69145         8.15455
           69146         1.37306
           69147         1.48763
           69148         1.41259
           69149         1.58980
           69150         1.49006
           69151         1.62584
           69152         1.60121
           69153         1.53785
           69154         1.57407
           69155         1.55326
           69156         1.59172
           69157         1.56414
           69158         1.52683
           69159         1.70057
           69160         1.70361
           69161         1.65393
           69162         1.40965
           69163         1.37422
           69164         1.45092
           69165         5.22143
           69166         5.30534
           69167         5.22152
           69168         1.55521
           69169         5.47804
           69170         5.76509
           69171         9.90700
           69172         5.76907
           69173         5.75292
           69174         5.75144
           69175         5.76052
           69176         4.92647
           69177         5.75368
           69178     185.053E-03
           69179     74.0828E-03
           69180     101.794E-03
           69181     100.581E-03
           69182     118.526E-03
           69183     90.0962E-03
           69184     8.88720E-03
           69185         4.09053
           69186         4.03268
           69187     119.357E-03
           69188     108.362E-03
           69189     534.768E-03
           69190     37.3069E-03
           69191     60.8904E-03
           69192     61.5490E-03
           69193     49.6831E-03
           69194     197.445E-03
           69195     215.273E-03
           69196     248.372E-03
           69197     226.521E-03
           69198         5.54865
           69199         5.56516
           69200     81.6354E-03
           69201     59.0284E-03
           69202     390.620E-03
           69203     361.625E-03
           69204     336.239E-03
           69205     349.719E-03
           69206     514.858E-03
           69207         1.43655
           69208         1.61848
           69209     608.332E-03
           69210         5.56448
           69211         5.61298
           69212         5.63834
           69213     549.716E-03
           69214     482.599E-03
           69215     602.945E-03
           69216         2.62263
           69217         2.55017
           69218         2.57004
           69219         2.59176
           69220         2.57432
           69221         2.56929
           69222         2.57767
           69223         2.81516
           69224         2.83468
           69225         2.81926
           69226         2.84716
           69227         2.86766
           69228         2.86188
           69229         2.88199
           69230         2.86664
           69231         1.05658
           69232         1.15108
           69233         1.06024
           69234         2.81422
           69235         2.82389
           69236         2.81674
           69237         2.84517
           69238         2.83031
           69239         2.89374
           69240         5.25947
           69241         5.14426
           69242         5.24447
           69243         5.48391
           69244         5.42828
           69245         5.65421
           69246         5.30290
           69247         5.14353
           69248         5.16526
           69249         5.15937
           69250     300.898E-03
           69251     225.122E-03
           69252     243.555E-03
           69253         2.49739
           69254         2.49012
           69255         2.50729
           69256         2.49484
           69257     38.7443E-03
           69258         5.61278
           69259         5.45887
           69260         5.62241
           69261         3.78998
           69262         3.84584
           69263     82.1536E-03
           69264         3.53375
           69265         3.53854
           69266         3.50461
           69267         3.50211
           69268         3.45005
           69269         3.87548
           69270         3.80928
           69271         3.90780
           69272         3.67190
           69273         3.69872
           69274         3.59645
           69275         3.63187
           69276         3.68088
           69277         3.75145
           69278         3.66871
           69279         3.76967
           69280         3.63425
           69281         3.51911
           69282     460.565E-03
           69283     417.077E-03
           69284     391.557E-03
           69285     390.407E-03
           69286     451.450E-03
           69287     282.686E-03
           69288     258.472E-03
           69289     226.337E-03
           69290     283.912E-03
           69291     316.601E-03
           69292     259.898E-03
           69293     360.853E-03
           69294     336.163E-03
           69295     312.452E-03
           69296     390.947E-03
           69297     367.477E-03
           69298     340.263E-03
           69299     384.065E-03
           69300     462.477E-03
           69301         2.56590
           69302         2.56543
           69303         2.57467
           69304         2.57528
           69305         2.55812
           69306         2.53070
           69307         2.54474
           69308         2.51456
           69309         2.48623
           69310         2.55924
           69311         2.51576
           69312         3.70586
           69313         3.22286
           69314         3.06017
           69315         3.04358
           69316         3.27478
           69317         3.22083
           69318         3.41804
           69319         3.27312
           69320         3.20279
           69321         3.64185
           69322     84.5408E-03
           69323         5.38134
           69324         5.38851
           69325         5.47639
           69326         5.22959
           69327         5.22647
           69328         5.22721
           69329         5.23207
           69330     83.8884E-03
           69331     532.676E-03
           69332     551.745E-03
           69333     588.869E-03
           69334     460.268E-03
           69335     442.777E-03
           69336     535.022E-03
           69337     364.175E-03
           69338     424.053E-03
           69339     303.238E-03
           69340         9.07405
           69341         9.62599
           69342         9.30753
           69343         9.23903
           69344         8.75185
           69345     548.246E-03
           69346     599.046E-03
           69347     489.371E-03
           69348     66.1791E-03
           69349     41.8192E-03
           69350         11.0264
           69351         10.4187
           69352         10.5298
           69353         1.93146
           69354         2.00451
           69355         2.40075
           69356         1.77603
           69357         1.91126
           69358         2.37474
           69359         2.19957
           69360         2.29370
           69361     84.9693E-03
           69362     86.7782E-03
           69363         5.66161
           69364         5.67951
           69365         5.68192
           69366     103.130E-03
           69367         5.60437
           69368         5.62103
           69369         5.74897
           69370     129.164E-03
           69371     63.6849E-03
           69372     104.220E-03
           69373     105.831E-03
           69374         5.68681
           69375         5.73042
           69376         5.75264
           69377         5.73770
           69378         4.80289
           69379         4.87763
           69380         4.88769
           69381         5.35204
           69382         5.25882
           69383         5.68756
           69384         6.07125
           69385         5.85745
           69386         5.08397
           69387         5.30331
           69388         4.96241
           69389         5.47977
           69390     106.241E-03
           69391     108.609E-03
           69392         4.17819
           69393         4.75618
           69394         5.10158
           69395         5.20898
           69396         4.86870
           69397         4.88601
           69398         5.84801
           69399         5.57568
           69400         5.36668
           69401         5.22196
           69402         5.01090
           69403         5.40748
           69404         5.43017
           69405         5.18761
           69406         5.76889
           69407         5.37036
           69408         5.51114
           69409         7.25724
           69410         7.63353
           69411         7.42360
           69412         7.07142
           69413         7.24954
           69414         7.38421
           69415         7.75190
           69416     23.8813E-03
           69417         6.00541
           69418         7.26486
           69419         7.60481
           69420         7.44523
           69421     742.244E-03
           69422     717.008E-03
           69423     608.353E-03
           69424     679.744E-03
           69425     567.639E-03
           69426     516.252E-03
           69427     618.518E-03
           69428     558.304E-03
           69429     604.739E-03
           69430     555.644E-03
           69431     658.226E-03
           69432     610.407E-03
           69433     507.341E-03
           69434     519.819E-03
           69435     622.290E-03
           69436     562.240E-03
           69437     345.093E-03
           69438     338.081E-03
           69439     365.145E-03
           69440     330.565E-03
           69441     389.587E-03
           69442     93.6514E-03
           69443     39.5431E-03
           69444     31.7882E-03
           69445     41.8314E-03
           69446     521.799E-03
           69447     480.490E-03
           69448     416.074E-03
           69449     80.8461E-03
           69450         5.42831
           69451         4.83605
           69452         5.34376
           69453         7.17331
           69454     35.9433E-03
           69455         3.31494
           69456     57.1676E-03
           69457     48.1055E-03
           69458     79.0070E-03
           69459         5.25828
           69460         5.22595
           69461         5.35962
           69462         3.79142
           69463         3.74385
           69464         3.64860
           69465         3.58466
           69466         5.58159
           69467         5.57068
           69468         5.58908
           69469     46.3799E-03
           69470     32.9720E-03
           69471     25.8860E-03
           69472     31.7994E-03
           69473         5.57706
           69474         5.61393
           69475         5.65597
           69476         5.59294
           69477         5.61450
           69478         5.48604
           69479         5.46461
           69480         5.58953
           69481         5.57167
           69482         5.39767
           69483         5.46205
           69484         5.54046
           69485         5.53109
           69486         5.47855
           69487         5.44518
           69488         5.51214
           69489         5.48790
           69490         5.52771
           69491         5.46000
           69492         5.55205
           69493         5.49075
           69494         5.54592
           69495         5.55275
           69496         5.59623
           69497     103.846E-03
           69498     111.766E-03
           69499     68.4029E-03
           69500     74.7519E-03
           69501     68.3166E-03
           69502     103.051E-03
           69503     103.291E-03
           69504     73.2324E-03
           69505     108.236E-03
           69506     98.7089E-03
           69507     79.3171E-03
           69508     56.2111E-03
           69509     57.9622E-03
           69510     86.1603E-03
           69511     41.2857E-03
           69512     36.8463E-03
           69513     15.9503E-03
           69514     35.6884E-03
           69515     146.696E-03
           69516     153.015E-03
           69517     115.890E-03
           69518     127.485E-03
           69519     153.593E-03
           69520     142.182E-03
           69521     108.453E-03
           69522     11.8905E-03
           69523         3.16948
           69524         3.34724
           69525         3.32543
           69526         5.78961
           69527         3.14435
           69528         3.03958
           69529         3.01751
           69530         5.20128
           69531         5.37813
           69532         5.28238
           69533         5.32775
           69534         5.23921
           69535         4.96396
           69536         4.92691
           69537         4.74457
           69538         5.33848
           69539         5.29518
           69540         5.48110
           69541         3.19698
           69542         3.25425
           69543         3.25721
           69544         3.19059
           69545         3.13963
           69546         3.25205
           69547         2.99585
           69548         2.95651
           69549         6.11166
           69550         6.26047
           69551         6.28989
           69552         6.31387
           69553     5.75921E-03
           69554     6.36705E-03
           69555     5.33303E-03
           69556         6.19395
           69557         6.60198
           69558         5.73569
           69559         5.80972
           69560     715.921E-03
           69561     30.4274E-03
           69562     30.9832E-03
           69563         8.19954
           69564         8.28441
           69565         8.28934
           69566         8.45817
           69567         8.37239
           69568         8.36736
           69569         8.59903
           69570         8.68748
           69571         8.50858
           69572         8.51375
           69573         8.68695
           69574         8.60013
           69575         9.03445
           69576         8.78288
           69577         9.03756
           69578         8.72134
           69579         8.51186
           69580     46.6800E-03
           69581     45.3293E-03
           69582     46.0409E-03
           69583         8.21755
           69584         8.25135
           69585         8.07951
           69586         8.33475
           69587         7.60155
           69588         7.47743
           69589         6.63563
           69590         7.68069
           69591         7.76591
           69592         7.48716
           69593         7.68964
           69594         7.10675
           69595         7.75610
           69596     10.2235E-03
           69597     48.7833E-03
           69598     67.4353E-03
           69599     7.55720E-03
           69600     37.3894E-03
           69601     41.6057E-03
           69602         6.51345
           69603         6.32066
           69604         6.36170
           69605         6.40062
           69606         6.58570
           69607         6.53613
           69608         6.24025
           69609         6.32223
           69610         6.26765
           69611         6.17937
           69612         6.11884
           69613         6.18407
           69614         6.04213
           69615         4.74066
           69616         3.93518
           69617         2.55772
           69618         2.55305
           69619         2.55753
           69620         2.55038
           69621         2.55504
           69622         2.55074
           69623         2.56138
           69624         2.56607
           69625         2.56137
           69626         2.55743
           69627         2.55269
           69628         2.56974
           69629         2.57506
           69630         2.55551
           69631         2.56263
           69632         2.55795
           69633         2.55912
           69634     53.9748E-03
           69635         3.66867
           69636         3.57095
           69637     814.803E-03
           69638     879.765E-03
           69639         3.45755
           69640         3.34005
           69641         3.28783
           69642         3.32673
           69643         3.87776
           69644         3.75795
           69645         3.63076
           69646     108.088E-03
           69647     110.843E-03
           69648         8.26459
           69649         7.75045
           69650         7.48132
           69651         7.67805
           69652     106.569E-03
           69653     39.3892E-03
           69654     39.3154E-03
           69655         4.67919
           69656         4.33602
           69657         4.13936
           69658         4.63248
           69659         4.98046
           69660         6.03742
           69661         5.62247
           69662     190.931E-03
           69663     118.809E-03
           69664         4.69595
           69665     45.7226E-03
           69666     47.3586E-03
           69667     45.9621E-03
           69668         3.74735
           69669         3.88498
           69670     220.975E-03
           69671     255.193E-03
           69672     257.432E-03
           69673         2.33837
           69674         2.36272
           69675         2.37219
           69676         2.37373
           69677         2.35656
           69678     133.565E-03
           69679     158.185E-03
           69680         2.37396
           69681         2.38556
           69682         2.63144
           69683         2.63791
           69684         2.65104
           69685         2.65495
           69686         2.65483
           69687         2.65442
           69688         5.66075
           69689         5.71528
           69690         2.64717
           69691         2.64275
           69692         2.64043
           69693         5.63293
           69694         5.62339
           69695         5.63405
           69696         5.62068
           69697         5.66427
           69698         5.68094
           69699         5.67061
           69700         5.65663
           69701         5.66058
           69702         5.63833
           69703         5.65380
           69704         3.44426
           69705         3.40996
           69706         3.44245
           69707         3.37457
           69708         3.64203
           69709         3.55565
           69710         3.60711
           69711         3.48396
           69712         3.48540
           69713         3.59940
           69714     941.040E-03
           69715         3.52657
           69716         3.52564
           69717         3.48788
           69718     362.820E-03
           69719     261.735E-03
           69720     380.127E-03
           69721     319.085E-03
           69722         3.48974
           69723         3.49361
           69724         2.24505
           69725         2.22125
           69726         2.25594
           69727         2.23600
           69728         2.29896
           69729         2.19034
           69730         2.28904
           69731         2.29087
           69732         2.31750
           69733         2.31951
           69734         2.31816
           69735         2.29217
           69736     269.074E-03
           69737         1.12010
           69738         2.29949
           69739         2.41003
           69740         2.44071
           69741         2.38712
           69742         2.36916
           69743         2.40227
           69744         2.36203
           69745         2.36953
           69746         2.30858
           69747         2.29630
           69748         1.50415
           69749         1.57593
           69750     978.182E-03
           69751         6.11957
           69752         6.20874
           69753         6.31809
           69754         6.25194
           69755         6.29186
           69756         6.35646
           69757         5.85820
           69758         5.86490
           69759         5.82404
           69760         6.10425
           69761         6.12477
           69762         6.07553
           69763         6.02106
           69764         6.06309
           69765         6.17183
           69766         6.12624
           69767         6.05832
           69768         6.36025
           69769         6.20882
           69770         6.25060
           69771         6.40682
           69772         6.27308
           69773         6.28792
           69774         6.20306
           69775         5.61167
           69776         5.64170
           69777         6.12161
           69778         6.04941
           69779         5.97791
           69780         6.04544
           69781         5.97400
           69782         6.11675
           69783         6.44065
           69784         6.62412
           69785         6.33056
           69786         6.32189
           69787         6.05354
           69788         6.13299
           69789         6.19854
           69790         6.12725
           69791         2.54709
           69792         2.56075
           69793         2.55317
           69794         2.55619
           69795         2.56757
           69796         2.57213
           69797         2.54952
           69798     892.054E-03
           69799         1.43638
           69800         2.61276
           69801         2.61141
           69802         2.61202
           69803         2.61210
           69804         2.61380
           69805         2.61306
           69806         6.11624
           69807         6.03773
           69808         2.61563
           69809         2.61303
           69810         2.61522
           69811         2.61739
           69812     254.514E-03
           69813     173.836E-03
           69814         2.61724
           69815         2.61476
           69816         2.61759
           69817         2.61605
           69818         2.61197
           69819         2.61059
           69820         2.61139
           69821         2.61127
           69822         2.60990
           69823     564.397E-03
           69824     567.472E-03
           69825         1.72116
           69826         1.67164
           69827         1.66572
           69828         1.60435
           69829         1.52494
           69830         1.56675
           69831         1.56513
           69832         1.56328
           69833         1.58042
           69834         1.61829
           69835         1.74169
           69836         1.69691
           69837         3.37127
           69838         3.29867
           69839         3.38698
           69840         3.38724
           69841     588.733E-03
           69842     636.285E-03
           69843     510.722E-03
           69844     462.713E-03
           69845         3.28910
           69846         3.18978
           69847         4.47814
           69848         4.62403
           69849         4.80219
           69850         4.71477
           69851         4.69484
           69852         4.27208
           69853         4.27129
           69854         4.28337
           69855         4.15041
           69856         4.14001
           69857         5.73894
           69858         5.74721
           69859         4.39523
           69860         4.35020
           69861         4.46160
           69862         4.39558
           69863         4.10842
           69864         4.17451
           69865         4.16730
           69866         4.18472
           69867         4.11525
           69868         4.12268
           69869         4.52128
           69870         4.48788
           69871     454.472E-03
           69872     450.044E-03
           69873     461.418E-03
           69874     346.753E-03
           69875         4.21371
           69876         4.39571
           69877         4.29668
           69878         4.88005
           69879         4.75726
           69880         5.10033
           69881         5.04041
           69882         5.09349
           69883         5.02639
           69884         4.74608
           69885         4.71824
           69886         5.06761
           69887         5.13438
           69888         4.97903
           69889         4.09280
           69890         4.03659
           69891         4.11777
           69892         4.17955
           69893         4.17477
           69894     338.424E-03
           69895     258.160E-03
           69896     338.142E-03
           69897     418.932E-03
           69898         4.16489
           69899         4.23096
           69900         4.36979
           69901         4.31690
           69902         4.06189
           69903         4.14788
           69904         4.20221
           69905         3.93132
           69906         6.23563
           69907         6.16662
           69908         6.17101
           69909         6.31537
           69910         5.82388
           69911         6.62824
           69912     685.490E-03
           69913     687.502E-03
           69914     689.055E-03
           69915         6.14549
           69916         6.20325
           69917         6.20527
           69918         6.15459
           69919         6.05960
           69920         6.09824
           69921         6.11640
           69922         5.15083
           69923         5.13408
           69924         5.28743
           69925         5.21839
           69926         5.23552
           69927         5.08362
           69928         5.32688
           69929         5.30702
           69930         5.33934
           69931         5.46627
           69932         5.39697
           69933         5.36026
           69934         5.42996
           69935         5.18437
           69936         5.05057
           69937         5.06766
           69938         5.20201
           69939         5.11768
           69940         5.33344
           69941         5.46142
           69942         5.45264
           69943         5.32549
           69944         5.38930
           69945         6.52483
           69946         6.51391
           69947         6.77900
           69948         6.35516
           69949         6.50761
           69950         6.33939
           69951         6.42446
           69952         7.08253
           69953     818.889E-03
           69954         6.23004
           69955         6.12128
           69956         6.17539
           69957         2.60119
           69958         1.93619
           69959         1.93046
           69960         2.60693
           69961         2.61509
           69962         2.05060
           69963         1.90192
           69964         2.05115
           69965         1.85148
           69966         1.86465
           69967         5.74188
           69968         5.76239
           69969         5.74340
           69970         1.89952
           69971         2.08130
           69972         1.94583
           69973         2.25928
           69974         2.07414
           69975         5.22349
           69976         5.77021
           69977         5.64927
           69978         5.69263
           69979         5.79577
           69980         5.75808
           69981         5.14211
           69982         4.99748
           69983         5.03631
           69984         5.06528
           69985         5.30928
           69986         5.36941
           69987         2.70114
           69988         2.70852
           69989         2.70886
           69990         2.70134
           69991         2.71302
           69992         2.70402
           69993         2.67408
           69994         2.67949
           69995         2.69245
           69996         2.63591
           69997         2.63226
           69998         2.62693
           69999         5.68019
           70000         5.67088
           70001         5.68971
           70002         5.76701
           70003         5.74997
           70004         2.02521
           70005         1.97813
           70006         2.05005
           70007         1.92407
           70008         1.97343
           70009     705.758E-03
           70010     688.468E-03
           70011         5.66959
           70012         5.76570
           70013         2.65933
           70014         2.66054
           70015         2.65987
           70016         2.66438
           70017         2.66320
           70018         2.65958
           70019         2.65978
           70020         2.65948
           70021         2.93158
           70022         2.53227
           70023         2.39089
           70024         2.55568
           70025         2.58746
           70026         2.56366
           70027         3.12081
           70028         3.11394
           70029         3.29522
           70030         3.16279
           70031         3.17405
           70032         3.27133
           70033         3.37982
           70034         2.78449
           70035         2.67044
           70036         2.99601
           70037         3.02433
           70038         2.85650
           70039         2.06553
           70040         2.26973
           70041         5.56096
           70042         5.49233
           70043         5.55903
           70044         5.61508
           70045         5.75203
           70046         5.69835
           70047         5.56414
           70048         5.46984
           70049         5.46326
           70050         5.92124
           70051         5.87730
           70052         5.84256
           70053         5.41819
           70054         5.73950
           70055         5.66492
           70056         6.01395
           70057         5.87720
           70058         5.84707
           70059         5.98298
           70060         5.49528
           70061         5.41011
           70062         3.28254
           70063         3.39218
           70064         3.34521
           70065         3.01741
           70066         3.00534
           70067         3.06617
           70068         3.13896
           70069         3.15606
           70070         2.97502
           70071         3.06081
           70072         3.81779
           70073         3.75122
           70074         3.85283
           70075         3.94543
           70076         3.98486
           70077         3.97560
           70078         3.93616
           70079         4.02328
           70080         4.13063
           70081         3.75162
           70082         3.82852
           70083         3.73761
           70084         3.05020
           70085         3.00476
           70086         3.01958
           70087         3.06632
           70088         2.98732
           70089         3.04880
           70090         3.09660
           70091         3.13925
           70092         3.15247
           70093         3.11359
           70094         3.22663
           70095         3.18316
           70096         3.24262
           70097         3.30121
           70098         3.20393
           70099         3.21934
           70100         3.14743
           70101         3.21595
           70102         2.61508
           70103         3.12077
           70104         3.93809
           70105         3.82677
           70106         1.10826
           70107         1.48582
           70108         1.66867
           70109         1.63857
           70110         1.64226
           70111         1.63380
           70112         1.72267
           70113         1.54131
           70114         1.68960
           70115         1.56950
           70116         1.43286
           70117         1.40617
           70118         1.48900
           70119         1.24901
           70120         1.10002
           70121         1.30308
           70122         1.11679
           70123         1.26858
           70124         1.06324
           70125         1.30325
           70126         1.45702
           70127         1.27524
           70128         2.81188
           70129         1.42317
           70130         1.45049
           70131         1.30098
           70132         1.27636
           70133         2.59616
           70134         2.59728
           70135         2.60142
           70136         2.59801
           70137         2.60234
           70138         2.60182
           70139     12.2612E-03
           70140     30.5137E-03
           70141     31.8699E-03
           70142     32.5309E-03
           70143     13.3471E-03
           70144     8.11188E-03
           70145     12.4589E-03
           70146     21.1006E-03
           70147     21.5373E-03
           70148     52.0455E-03
           70149     53.6861E-03
           70150         4.09575
           70151     24.8377E-03
           70152     49.3731E-03
           70153     24.9203E-03
           70154     52.2536E-03
           70155     28.3220E-03
           70156     15.9250E-03
           70157         2.54581
           70158         2.51073
           70159         2.51523
           70160         2.51241
           70161         2.52452
           70162         2.50791
           70163         2.51990
           70164         2.50353
           70165         2.51188
           70166         2.53094
           70167         2.52168
           70168         2.53340
           70169         2.53119
           70170         2.53626
           70171         2.53849
           70172         2.54538
           70173         2.52732
           70174         2.51992
           70175         6.15797
           70176         6.16905
           70177         6.18642
           70178         2.78746
           70179         2.89078
           70180         2.78532
           70181         6.10914
           70182         6.09143
           70183         6.18790
           70184         6.07729
           70185         5.98230
           70186         4.22675
           70187         6.22020
           70188         6.43265
           70189         6.37991
           70190         6.25019
           70191         6.36473
           70192         6.06091
           70193         6.40473
           70194         6.37816
           70195         2.40263
           70196         2.38404
           70197         2.39386
           70198         2.42656
           70199         2.40926
           70200         2.37017
           70201         6.02290
           70202         5.90112
           70203         5.87469
           70204         5.83043
           70205         2.38816
           70206         4.33701
           70207         4.30720
           70208         4.37567
           70209         4.37620
           70210         4.30171
           70211         4.17572
           70212         4.20219
           70213         4.18553
           70214         4.02082
           70215         4.19127
           70216         4.09103
           70217         4.65569
           70218         3.21597
           70219         3.00018
           70220         4.04063
           70221         4.20119
           70222         3.25358
           70223         3.35811
           70224         4.26788
           70225         2.04028
           70226         2.07968
           70227         2.03571
           70228         2.02301
           70229         2.02776
           70230         2.10583
           70231         2.05157
           70232         2.09020
           70233         2.09036
           70234         1.93881
           70235         1.92399
           70236         1.94400
           70237         1.71888
           70238         1.53012
           70239         1.65806
           70240         1.61514
           70241         1.55653
           70242         1.71201
           70243         1.86385
           70244         1.89913
           70245         1.72560
           70246         1.46925
           70247         1.80920
           70248         1.83822
           70249         1.70003
           70250         1.98990
           70251         2.08121
           70252         1.92731
           70253         2.00537
           70254         2.74238
           70255         2.74645
           70256         2.74613
           70257         2.72558
           70258         2.72158
           70259         2.71781
           70260         2.71478
           70261         2.71845
           70262         2.78700
           70263         2.71846
           70264         2.71947
           70265         2.71873
           70266         2.71270
           70267         2.71866
           70268         2.71224
           70269         2.71813
           70270         2.71856
           70271         2.74237
           70272         2.73380
           70273         2.72810
           70274         1.38764
           70275         1.22966
           70276         1.36279
           70277         1.94115
           70278         2.08956
           70279         1.90164
           70280         4.75997
           70281         4.82463
           70282         4.74825
           70283         5.08170
           70284         4.99666
           70285         4.97911
           70286         3.13446
           70287         2.87713
           70288         2.81161
           70289         2.83675
           70290         2.90239
           70291         2.66865
           70292         3.07613
           70293         2.91530
           70294         2.87656
           70295         2.91575
           70296         3.11481
           70297         3.11161
           70298         3.66041
           70299         3.28029
           70300         3.28368
           70301         3.27771
           70302         3.05407
           70303         3.19950
           70304         3.14287
           70305         3.36055
           70306         3.21602
           70307         3.01746
           70308         3.43826
           70309         3.21702
           70310         3.29306
           70311         3.00721
           70312         3.51574
           70313         3.72158
           70314         3.33672
           70315         3.64697
           70316         1.44980
           70317         5.10086
           70318         6.19893
           70319         6.18165
           70320         6.15268
           70321         6.17184
           70322         6.42758
           70323         6.43066
           70324         6.42948
           70325         6.16101
           70326         6.22442
           70327         6.15188
           70328         6.20472
           70329         6.04430
           70330         6.09455
           70331         6.08322
           70332         6.07228
           70333         2.12170
           70334         2.09026
           70335         2.06829
           70336         2.10099
           70337         2.08528
           70338         2.17514
           70339         2.17411
           70340         2.10720
           70341         2.10003
           70342         2.19600
           70343         5.04371
           70344         5.04348
           70345         2.16208
           70346         2.18398
           70347         2.19391
           70348         2.16243
           70349         2.09088
           70350         2.16259
           70351         6.15317
           70352         6.30879
           70353         7.31103
           70354         7.27762
           70355         7.79992
           70356         7.57817
           70357         7.96828
           70358         7.61458
           70359         6.98606
           70360         6.63054
           70361         7.20338
           70362         7.32639
           70363         7.87307
           70364         6.05487
           70365         6.11789
           70366         6.10578
           70367         5.96274
           70368         5.92015
           70369         5.93897
           70370         5.91636
           70371         6.02184
           70372         6.02792
           70373         6.10161
           70374         6.02012
           70375         1.57612
           70376         1.60929
           70377         1.61806
           70378         1.60441
           70379         4.57752
           70380         1.40789
           70381         1.47919
           70382         5.03240
           70383         4.96931
           70384         1.53693
           70385         5.27856
           70386         5.10320
           70387         5.50912
           70388         5.50865
           70389         1.32498
           70390         1.30749
           70391         1.30773
           70392         1.32533
           70393         5.40905
           70394         5.36578
           70395         5.53824
           70396         1.69838
           70397         1.72345
           70398         1.70390
           70399         3.71031
           70400         3.88108
           70401         3.79194
           70402         1.73389
           70403         1.69663
           70404         1.76579
           70405         1.70751
           70406         1.74057
           70407         1.75637
           70408         1.73194
           70409         1.70565
           70410         1.62933
           70411         1.60366
           70412         1.66753
           70413         1.64784
           70414         1.68190
           70415         1.62347
           70416         1.59079
           70417         7.02341
           70418         6.79827
           70419         7.32262
           70420         6.73688
           70421         6.43865
           70422         6.45696
           70423         6.44008
           70424         6.42237
           70425         6.29369
           70426         5.97462
           70427         6.84788
           70428         7.03131
           70429         7.37811
           70430         7.13282
           70431         6.67772
           70432         6.71448
           70433         6.78396
           70434         5.97345
           70435         1.31867
           70436         1.18425
           70437         1.09850
           70438         1.13259
           70439         1.13577
           70440         1.22127
           70441         1.45580
           70442         5.66554
           70443         5.59934
           70444         5.69496
           70445         4.24277
           70446         1.37504
           70447         1.38388
           70448         1.36008
           70449         1.34571
           70450         1.43618
           70451         1.42216
           70452         3.09843
           70453         3.09497
           70454         3.12602
           70455         3.15239
           70456         3.13743
           70457         3.10871
           70458         3.17947
           70459         3.13853
           70460         3.15717
           70461         3.10547
           70462         3.05637
           70463         3.06769
           70464         3.05612
           70465         3.07209
           70466         3.08924
           70467         3.04955
           70468         3.01740
           70469         3.08345
           70470         2.95921
           70471         2.97129
           70472         2.99106
           70473         2.97345
           70474         2.95465
           70475         5.66391
           70476         5.66980
           70477         5.66377
           70478         5.67154
           70479         5.66238
           70480         5.66439
           70481         5.04423
           70482         5.01859
           70483         5.67073
           70484         4.48869
           70485         4.51038
           70486         4.62791
           70487         4.55823
           70488         4.52097
           70489         4.49412
           70490         4.38731
           70491         5.71689
           70492         5.71116
           70493         5.66279
           70494         5.66315
           70495         5.64357
           70496         6.30003
           70497         6.35775
           70498         6.15107
           70499         1.72758
           70500         1.75463
           70501         1.68691
           70502         1.64692
           70503         1.86732
           70504         1.96202
           70505         1.53463
           70506         1.66597
           70507         1.67016
           70508         6.14553
           70509         6.28741
           70510         6.26013
           70511         1.77446
           70512         1.89736
           70513         1.95535
           70514         1.91886
           70515         2.63567
           70516         2.61390
           70517         2.62707
           70518         2.64589
           70519         2.66644
           70520         2.59249
           70521         2.59608
           70522         2.61613
           70523         2.63722
           70524         2.68587
           70525         2.64822
           70526         2.61521
           70527         2.60833
           70528         2.58652
           70529         4.10910
           70530         5.72231
           70531         5.73194
           70532         5.70403
           70533         2.73577
           70534         2.78703
           70535         2.74817
           70536         2.80827
           70537         7.27883
           70538         7.14656
           70539         7.41159
           70540         7.20668
           70541         7.07800
           70542         6.53772
           70543         6.87167
           70544         6.65349
           70545         7.21272
           70546         1.09033
           70547     876.478E-03
           70548         1.02291
           70549         1.98037
           70550         2.45112
           70551         1.74778
           70552         1.39209
           70553         5.90398
           70554         5.84816
           70555         5.70941
           70556         5.69578
           70557         5.67530
           70558         6.42867
           70559         6.33545
           70560         5.66623
           70561         5.68187
           70562         5.66155
           70563         1.67591
           70564         1.71859
           70565         1.69436
           70566         5.43410
           70567         5.47802
           70568         1.80806
           70569         1.73819
           70570         1.67305
           70571         1.65865
           70572         1.72284
           70573         1.68395
           70574         3.32816
           70575         3.27375
           70576         3.25290
           70577         3.24697
           70578         3.14768
           70579         3.22078
           70580         3.19115
           70581         3.22295
           70582         3.22146
           70583         3.16779
           70584         2.98567
           70585         3.02339
           70586         3.08357
           70587         3.14028
           70588         3.16552
           70589         6.24037
           70590         6.16593
           70591         6.04047
           70592         6.12634
           70593         6.38785
           70594         5.74128
           70595         7.29724
           70596         7.29971
           70597         7.08989
           70598         2.91002
           70599         2.91705
           70600         2.92900
           70601         2.80978
           70602         2.81404
           70603         2.92071
           70604         2.92248
           70605         6.94675
           70606         2.97021
           70607         2.88826
           70608         2.88638
           70609         2.88544
           70610         2.88719
           70611         2.88416
           70612         2.83689
           70613         2.83863
           70614         3.00405
           70615         3.00610
           70616         2.36353
           70617         2.32080
           70618         2.32333
           70619         2.30569
           70620         2.34889
           70621         2.34607
           70622         2.29929
           70623         2.29907
           70624         2.28970
           70625         2.33349
           70626         2.30906
           70627         2.63977
           70628         2.64321
           70629         5.94024
           70630         6.00256
           70631         6.20463
           70632         2.68964
           70633         2.68557
           70634         2.70028
           70635         2.65872
           70636         2.64901
           70637         2.63572
           70638         2.63881
           70639         8.14238
           70640         7.94721
           70641         7.65462
           70642         7.84925
           70643         7.78388
           70644         7.31825
           70645         5.71421
           70646         5.72109
           70647         4.26236
           70648         4.38953
           70649         4.32368
           70650         4.32455
           70651         4.26248
           70652         4.31177
           70653         4.44100
           70654         4.36556
           70655         7.69893
           70656         7.55610
           70657         7.70269
           70658         5.95682
           70659         4.18794
           70660         3.97231
           70661         3.94749
           70662         3.98378
           70663         4.00867
           70664         3.98508
           70665         4.02385
           70666         4.13868
           70667         4.08091
           70668     209.033E-03
           70669     237.632E-03
           70670     293.010E-03
           70671     253.883E-03
           70672     188.788E-03
           70673     248.655E-03
           70674     300.495E-03
           70675     339.924E-03
           70676     395.173E-03
           70677     382.784E-03
           70678         2.57789
           70679         2.59294
           70680         2.48065
           70681         2.54056
           70682         7.89074
           70683         7.55490
           70684         2.50093
           70685         2.60110
           70686         2.60357
           70687         2.56430
           70688         2.48224
           70689         2.38271
           70690         8.29409
           70691         7.36766
           70692         8.85449
           70693         10.2115
           70694         7.33171
           70695         10.7959
           70696         6.23136
           70697         6.60609
           70698         6.43968
           70699         6.45350
           70700         6.91155
           70701         6.76827
           70702         6.82273
           70703         6.66799
           70704         6.62832
           70705         2.96257
           70706         2.71681
           70707         2.81991
           70708         2.76337
           70709         2.83493
           70710         2.77695
           70711         2.83903
           70712         2.84090
           70713         2.80135
           70714         2.77944
           70715         2.82676
           70716         2.78348
           70717         7.23197
           70718         7.04971
           70719         2.76632
           70720         6.68511
           70721         2.99089
           70722         2.64343
           70723         2.63944
           70724         2.64060
           70725         2.64553
           70726         2.64807
           70727         2.64669
           70728         2.63511
           70729         2.63824
           70730         2.64203
           70731         2.63877
           70732         2.63837
           70733         3.41635
           70734         3.44659
           70735         3.39757
           70736         3.36706
           70737         3.46428
           70738         3.49435
           70739         3.44403
           70740         6.60918
           70741         6.86057
           70742         3.43258
           70743         3.50038
           70744         3.28783
           70745         3.32148
           70746         3.51086
           70747         3.45487
           70748         3.38844
           70749         3.45064
           70750         4.09735
           70751         4.13261
           70752         8.40934
           70753         8.41137
           70754         8.00615
           70755         8.25328
           70756         7.27488
           70757         7.40179
           70758         7.31232
           70759         7.08408
           70760         4.45533
           70761         4.53670
           70762         4.43779
           70763         4.30722
           70764         4.61361
           70765         4.55789
           70766         4.99940
           70767         4.82526
           70768         4.94439
           70769         4.94822
           70770         4.83284
           70771         7.34768
           70772         7.07020
           70773         4.74302
           70774         6.52036
           70775         6.42461
           70776         6.33043
           70777         6.41952
           70778         6.61953
           70779         4.14221
           70780         4.15705
           70781         4.13248
           70782         4.24285
           70783         4.07640
           70784         4.04797
           70785         3.81853
           70786         3.88217
           70787         3.90343
           70788         3.93625
           70789         3.94714
           70790         4.16270
           70791         4.15421
           70792         4.13508
           70793         5.92670
           70794         2.10027
           70795         2.31461
           70796         2.41624
           70797         2.29824
           70798         2.45392
           70799         8.55514
           70800         8.75296
           70801         8.85411
           70802         2.48466
           70803         1.93389
           70804         1.99115
           70805         2.73570
           70806         5.68658
           70807         2.86444
           70808         2.86192
           70809         2.88428
           70810         2.84007
           70811         2.85971
           70812         2.78994
           70813         2.75919
           70814         2.83771
           70815         2.14026
           70816         8.38914
           70817         8.52448
           70818         8.70680
           70819         8.84126
           70820         8.71103
           70821         8.52538
           70822         2.68886
           70823         2.81157
           70824         7.37046
           70825         7.12941
           70826         7.10113
           70827         2.75420
           70828         2.34277
           70829         2.47456
           70830         2.45296
           70831         2.17354
           70832         2.49000
           70833         2.46504
           70834         1.44191
           70835         1.35073
           70836         1.38127
           70837         8.06494
           70838         1.24993
           70839         1.31174
           70840         1.32788
           70841         1.38823
           70842         1.32648
           70843         1.31036
           70844         1.36321
           70845         1.33256
           70846         1.41728
           70847         5.54376
           70848         5.41792
           70849         5.38514
           70850         5.46942
           70851         5.50979
           70852         5.59695
           70853         5.54298
           70854         5.41612
           70855         5.47055
           70856         8.73632
           70857         8.67123
           70858         8.35459
           70859         8.55805
           70860         8.62474
           70861         8.95697
           70862         5.41754
           70863         5.47537
           70864         1.19751
           70865         5.71336
           70866         5.75678
           70867         1.09720
           70868         1.06197
           70869     990.547E-03
           70870         1.02581
           70871         1.02600
           70872         7.19342
           70873         7.22091
           70874         7.09756
           70875         6.98376
           70876         6.95849
           70877     954.354E-03
           70878     942.308E-03
           70879         1.02609
           70880         1.12148
           70881         1.14327
           70882         1.13258
           70883         1.20565
           70884         1.17249
           70885     993.569E-03
           70886         7.48894
           70887         7.63917
           70888         7.45413
           70889         2.56791
           70890         2.55415
           70891         2.54945
           70892         2.48201
           70893         2.49222
           70894         2.51194
           70895         2.47736
           70896         2.50128
           70897         2.50245
           70898         2.51635
           70899         2.48242
           70900         2.52722
           70901         2.54064
           70902         2.53159
           70903         2.56647
           70904         2.54245
           70905         2.52846
           70906         2.51484
           70907         2.49883
           70908         2.48119
           70909     525.453E-03
           70910     344.980E-03
           70911     354.548E-03
           70912     326.375E-03
           70913     390.885E-03
           70914     422.721E-03
           70915     449.162E-03
           70916     526.149E-03
           70917         5.54366
           70918         5.80625
           70919         5.76433
           70920         5.74010
           70921         5.65961
           70922         5.61705
           70923         5.69825
           70924         5.74916
           70925         5.78997
           70926         5.57337
           70927         5.45925
           70928         5.52929
           70929         5.55768
           70930         8.75584
           70931         8.78717
           70932         9.15626
           70933         5.72868
           70934         9.23944
           70935         9.16142
           70936         5.57632
           70937         5.62291
           70938         5.50952
           70939         5.55078
           70940         5.49388
           70941         5.88895
           70942         5.88120
           70943         5.98156
           70944         5.86908
           70945         5.79286
           70946         5.75669
           70947         5.74577
           70948         2.16247
           70949         2.16958
           70950         2.05342
           70951         2.06818
           70952         2.07340
           70953         2.06280
           70954         9.30825
           70955         9.30357
           70956         2.10315
           70957         2.04897
           70958         2.00705
           70959         2.01953
           70960         2.13441
           70961         2.17607
           70962         2.22071
           70963         2.17931
           70964         2.18684
           70965         2.05736
           70966         2.10967
           70967         2.09241
           70968         2.13994
           70969         2.44254
           70970         2.32919
           70971         2.23448
           70972         2.46055
           70973         2.34060
           70974         2.86249
           70975         2.92947
           70976         3.11207
           70977         2.85953
           70978         3.04374
           70979         2.46641
           70980         5.82707
           70981         7.90764
           70982         3.02128
           70983         2.81995
           70984         3.12883
           70985         3.04672
           70986         3.06079
           70987         2.70300
           70988         2.68966
           70989         2.51856
           70990         2.71870
           70991         2.82135
           70992         3.63546
           70993         3.66299
           70994         3.69745
           70995         4.02422
           70996         3.85091
           70997         3.90677
           70998         4.07230
           70999         8.51577
           71000         8.71718
           71001         8.86647
           71002         8.83319
           71003         4.02027
           71004         3.96527
           71005         5.51861
           71006         5.50761
           71007         5.51351
           71008         5.53541
           71009         7.11765
           71010         7.25684
           71011         7.12545
           71012         6.98609
           71013         6.99624
           71014         5.48119
           71015         5.56301
           71016         5.56622
           71017         5.47256
           71018         5.49034
           71019         5.49733
           71020         4.34190
           71021         4.28814
           71022         4.36687
           71023         4.19854
           71024         4.25154
           71025         9.43562
           71026         9.07782
           71027         9.44004
           71028         5.85063
           71029         9.07659
           71030         9.04076
           71031         9.03203
           71032         9.43430
           71033         9.43900
           71034         4.25542
           71035         4.22427
           71036         4.38910
           71037         4.33544
           71038         4.36630
           71039         4.29319
           71040         4.28680
           71041         5.04446
           71042         5.09174
           71043         4.93011
           71044         4.59836
           71045         4.54960
           71046         4.61013
           71047         4.59794
           71048         4.94465
           71049         5.03588
           71050         4.96967
           71051         4.98198
           71052         4.92032
           71053         4.71648
           71054         2.13791
           71055         2.16652
           71056         2.16157
           71057         2.13730
           71058         2.18754
           71059         2.16362
           71060         2.16053
           71061         2.12982
           71062         2.13313
           71063         2.09888
           71064         2.07977
           71065         2.15279
           71066         2.12808
           71067         9.08854
           71068         9.07610
           71069         9.42483
           71070         9.42302
           71071         2.10988
           71072         2.19224
           71073         2.17064
           71074         2.15002
           71075         2.17281
           71076         8.37020
           71077         8.39419
           71078         3.20933
           71079         3.07264
           71080         3.12573
           71081         2.97444
           71082         3.14947
           71083         3.12083
           71084         3.14874
           71085         2.97469
           71086         3.01984
           71087         3.25591
           71088         3.24567
           71089         7.41323
           71090         7.69862
           71091         7.57305
           71092         7.71643
           71093         7.55374
           71094         8.03544
           71095         7.73315
           71096         7.68711
           71097         7.50132
           71098         7.34260
           71099         7.83254
           71100         7.86160
           71101         7.75106
           71102         7.86086
           71103         8.08303
           71104         8.03678
           71105         7.92603
           71106         7.89052
           71107         7.86873
           71108         8.00097
           71109         8.00557
           71110         9.26491
           71111         9.32598
           71112         9.26045
           71113         9.22425
           71114         1.98012
           71115         2.03985
           71116         1.98175
           71117         2.00213
           71118         1.99635
           71119         1.94128
           71120         2.00939
           71121         1.94888
           71122         1.96929
           71123         1.93483
           71124         1.98567
           71125         1.95923
           71126         1.94950
           71127         1.89648
           71128         1.90279
           71129         9.36606
           71130         7.38429
           71131         7.35891
           71132         7.36426
           71133         7.55813
           71134         7.55254
           71135         6.72324
           71136         6.74254
           71137         6.84636
           71138         6.97099
           71139         6.94807
           71140         6.84539
           71141         3.49773
           71142         3.52990
           71143         3.39578
           71144         3.44904
           71145         3.47187
           71146         3.45711
           71147         3.40342
           71148         3.38179
           71149         3.47409
           71150         3.40588
           71151         3.41802
           71152         3.48690
           71153         3.43461
           71154         3.44500
           71155         3.49782
           71156         3.42885
           71157         3.63848
           71158         3.54675
           71159         3.57980
           71160         3.65031
           71161         3.51579
           71162         3.53900
           71163         3.58836
           71164         3.57013
           71165         3.52618
           71166         3.50283
           71167         3.59571
           71168         3.61974
           71169         3.53281
           71170         3.16270
           71171         3.34168
           71172         3.07359
           71173         3.27436
           71174         3.49097
           71175         2.91126
           71176         9.40948
           71177         9.36662
           71178         3.50351
           71179         3.31950
           71180         3.29024
           71181         3.54563
           71182         2.66687
           71183         2.67052
           71184         2.65391
           71185         2.65006
           71186         2.64784
           71187         2.65418
           71188         2.65670
           71189         2.66097
           71190         2.66065
           71191         2.66058
           71192         2.65833
           71193         2.65316
           71194         2.64902
           71195         2.65479
           71196         2.65899
           71197         2.65625
           71198         6.61556
           71199         6.55599
           71200         6.55999
           71201         6.45292
           71202         6.51164
           71203         6.44856
           71204         6.59994
           71205         7.00429
           71206         6.59137
           71207         6.52703
           71208         6.67045
           71209         6.67123
           71210         6.84474
           71211         6.97826
           71212         6.68594
           71213         6.63752
           71214         6.50925
           71215         6.68752
           71216         8.89131
           71217         6.48677
           71218         6.61576
           71219         6.82487
           71220         6.80392
           71221         6.34564
           71222         6.17697
           71223         6.37429
           71224         6.31489
           71225         6.48901
           71226         6.28733
           71227         6.30049
           71228         6.29900
           71229         6.45783
           71230         6.42741
           71231         2.71770
           71232         2.71679
           71233         2.71824
           71234         2.72472
           71235         2.72587
           71236         2.72481
           71237         2.71705
           71238         2.71474
           71239         2.70927
           71240         2.71441
           71241         2.70932
           71242         9.12120
           71243         2.98198
           71244         3.04779
           71245         8.01198
           71246         8.08496
           71247         7.86885
           71248         7.90132
           71249         3.06083
           71250         6.33451
           71251         6.23946
           71252         6.27422
           71253         6.00935
           71254         6.10280
           71255         3.15178
           71256         3.11849
           71257         3.17354
           71258         3.09080
           71259         8.15338
           71260         8.08229
           71261         8.08243
           71262         8.18635
           71263         3.01796
           71264         2.98431
           71265         3.04878
           71266         3.03514
           71267         2.59071
           71268         2.59433
           71269         2.59169
           71270         2.58300
           71271         2.57682
           71272         2.57900
           71273         2.57353
           71274         2.56550
           71275         2.56894
           71276         2.57302
           71277         2.59442
           71278         2.60061
           71279         2.59830
           71280         2.59129
           71281         3.81457
           71282         4.07875
           71283         4.08126
           71284         4.13549
           71285         4.18541
           71286         4.14086
           71287         4.05107
           71288         4.11471
           71289         4.09232
           71290         4.05462
           71291         4.11147
           71292         4.13428
           71293         3.98750
           71294         4.04775
           71295         4.17703
           71296         4.22421
           71297         5.62236
           71298         8.83400
           71299         8.94878
           71300         8.73904
           71301         8.60527
           71302         8.49489
           71303         8.69752
           71304         8.37812
           71305         8.18844
           71306         8.47996
           71307         5.84500
           71308         5.81931
           71309         5.78734
           71310         5.86209
           71311         5.81434
           71312         5.87661
           71313         5.69782
           71314         5.82187
           71315         5.84728
           71316         5.78722
           71317         5.80093
           71318         6.26048
           71319         6.29369
           71320         6.31761
           71321         6.36075
           71322         6.42826
           71323         6.36025
           71324         6.53442
           71325         6.34882
           71326         6.42608
           71327         6.35976
           71328         6.45266
           71329         6.16173
           71330         6.34393
           71331         6.25078
           71332         8.83230
           71333         8.94880
           71334         8.73991
           71335         8.95194
           71336         6.42947
           71337         6.43022
           71338         6.34980
           71339         6.52037
           71340         6.63007
           71341         4.09395
           71342         4.05428
           71343         4.08346
           71344         4.14047
           71345         4.11055
           71346         4.20623
           71347         4.15855
           71348         4.24574
           71349         4.14994
           71350         4.12089
           71351         7.32269
           71352         7.56726
           71353         7.52352
           71354         7.33330
           71355         8.34602
           71356         8.53774
           71357         8.53699
           71358         4.05528
           71359         2.44119
           71360         2.43324
           71361         2.42361
           71362         2.43273
           71363         2.44993
           71364         2.43176
           71365         2.41969
           71366         2.41888
           71367         2.42869
           71368         2.41279
           71369         2.40069
           71370         2.41823
           71371         2.44017
           71372         2.42719
           71373         2.42823
           71374         1.09425
           71375         1.10619
           71376         1.05308
           71377         6.55052
           71378         6.71347
           71379         8.24295
           71380         8.13504
           71381         7.89256
           71382         7.91249
           71383         1.14553
           71384     732.638E-03
           71385         1.68323
           71386         1.49369
           71387         1.64510
           71388         1.09811
           71389         1.26790
           71390         1.40398
           71391     906.635E-03
           71392         1.03099
           71393         4.91530
           71394         5.05406
           71395         4.99492
           71396         4.99707
           71397         5.13690
           71398         5.22029
           71399         5.21993
           71400         7.36714
           71401         7.38270
           71402         7.59925
           71403         7.50967
           71404         4.95223
           71405         4.91353
           71406         4.91047
           71407         4.84306
           71408         4.86264
           71409         4.76815
           71410         4.77046
           71411         4.68976
           71412         4.52748
           71413         4.67234
           71414         4.64543
           71415         5.23020
           71416         4.85366
           71417         4.69559
           71418         4.34962
           71419         4.35597
           71420         4.69754
           71421         4.54431
           71422         4.59966
           71423         4.54681
           71424         4.84049
           71425         7.31678
           71426         8.59065
           71427         8.38415
           71428         8.42423
           71429         8.62236
           71430         8.78895
           71431         3.29404
           71432         3.33851
           71433         3.47553
           71434         3.42474
           71435         3.27721
           71436         3.30204
           71437         5.68383
           71438         5.67119
           71439         3.42865
           71440         3.48342
           71441         3.34699
           71442         3.39955
           71443         3.40905
           71444         3.36335
           71445         2.20145
           71446         2.17296
           71447         2.23280
           71448         2.26257
           71449         2.23439
           71450         2.11521
           71451         2.08608
           71452         2.10012
           71453         2.07704
           71454         2.11856
           71455         2.09240
           71456         2.07318
           71457         2.09492
           71458         2.12191
           71459         7.12663
           71460         7.01822
           71461         2.08214
           71462         2.04959
           71463         2.05046
           71464         1.43477
           71465         1.36028
           71466         1.39395
           71467         1.45649
           71468         1.53805
           71469         1.46895
           71470         1.50630
           71471         1.49782
           71472         1.21556
           71473         5.66696
           71474         5.71511
           71475         1.41784
           71476         1.45063
           71477         1.37707
           71478         6.88766
           71479         6.72542
           71480         6.72544
           71481         6.99900
           71482         6.88698
           71483         1.32876
           71484         1.34977
           71485         1.22153
           71486         1.17108
           71487         1.24876
           71488         8.19580
           71489         8.12608
           71490         8.30773
           71491         8.30727
           71492         8.08078
           71493         8.01156
           71494         8.12641
           71495         6.15167
           71496         6.04130
           71497         1.23542
           71498         5.44482
           71499         5.43939
           71500         5.18108
           71501         5.04422
           71502         4.98510
           71503         5.21827
           71504         5.44860
           71505         5.37646
           71506         5.39446
           71507         5.38990
           71508         5.18951
           71509         5.18496
           71510         5.22024
           71511         5.22520
           71512         4.93209
           71513         5.07691
           71514         5.70785
           71515         5.68977
           71516         5.89446
           71517         4.66957
           71518         4.71752
           71519         5.24911
           71520         5.10407
           71521         5.22329
           71522         5.24207
           71523         5.26696
           71524         7.06711
           71525         5.44116
           71526         5.42502
           71527         5.45975
           71528         5.46124
           71529         5.45693
           71530         5.47733
           71531         5.42700
           71532         5.48024
           71533         5.47047
           71534         5.46477
           71535         5.40552
           71536         5.38788
           71537         1.49821
           71538         1.41358
           71539         1.45543
           71540         1.71900
           71541         1.71753
           71542         1.72536
           71543         5.68122
           71544         5.79071
           71545         1.72382
           71546         1.71918
           71547         1.43457
           71548         1.37033
           71549         8.07013
           71550         8.18930
           71551         7.39672
           71552         7.20647
           71553         1.72905
           71554         5.68243
           71555         5.66756
           71556         7.82936
           71557         5.65881
           71558         5.69364
           71559         2.83951
           71560         2.90746
           71561         2.90595
           71562         2.93665
           71563         2.86845
           71564         2.94994
           71565         2.98882
           71566         3.09222
           71567         3.00089
           71568         2.71375
           71569         2.64801
           71570         2.73869
           71571         2.71375
           71572         2.74339
           71573         2.77611
           71574         2.80604
           71575         2.77640
           71576         2.10575
           71577         2.09107
           71578         2.03148
           71579         1.76543
           71580         2.13930
           71581         2.15564
           71582         2.09173
           71583         2.19275
           71584         2.19614
           71585         2.19216
           71586         4.89147
           71587         4.97907
           71588         5.44888
           71589         5.46205
           71590         5.33622
           71591         5.29043
           71592         7.32950
           71593         7.15127
           71594         7.78086
           71595         5.54645
           71596         5.70034
           71597         5.50928
           71598         5.60953
           71599         5.64893
           71600         5.44847
           71601         5.70983
           71602         5.70743
           71603         5.74502
           71604         5.73874
           71605         5.71215
           71606         5.72154
           71607         5.70325
           71608         5.71803
           71609         5.74695
           71610         7.82878
           71611         5.69060
           71612         5.68813
           71613         5.71802
           71614         5.69045
           71615         8.24696
           71616         8.31976
           71617         8.62273
           71618         8.44783
           71619         8.70673
           71620         8.57055
           71621         8.02036
           71622         8.03246
           71623         8.02068
           71624         8.23851
           71625         7.67403
           71626         5.58295
           71627         5.58272
           71628         5.56787
           71629         7.22359
           71630         7.08904
           71631         5.49187
           71632         5.41395
           71633         5.44124
           71634         5.44180
           71635         6.16728
           71636         6.08227
           71637         6.12433
           71638         6.20796
           71639         6.29226
           71640         5.63168
           71641         5.60967
           71642         7.11498
           71643         6.89089
           71644         5.44703
           71645     707.301E-03
           71646     674.205E-03
           71647     726.815E-03
           71648     703.046E-03
           71649     729.274E-03
           71650     708.754E-03
           71651     786.276E-03
           71652     854.362E-03
           71653     790.610E-03
           71654         2.83443
           71655         2.86414
           71656         2.86982
           71657         2.79947
           71658         2.84114
           71659         6.36792
           71660         6.34746
           71661         6.48050
           71662         6.38921
           71663         6.36687
           71664         6.24098
           71665         5.98671
           71666         6.12317
           71667         6.11764
           71668         6.25595
           71669         6.11614
           71670         6.43661
           71671         6.44144
           71672         6.33314
           71673         7.19093
           71674         6.38994
           71675         6.20003
           71676         6.36868
           71677         6.05605
           71678         6.14644
           71679         6.05602
           71680         6.04991
           71681         6.04912
           71682         6.29891
           71683         6.45268
           71684         6.40293
           71685         6.55794
           71686         6.45351
           71687         2.65751
           71688         2.66004
           71689         2.65694
           71690         2.65696
           71691         3.64269
           71692         3.73731
           71693         2.65942
           71694         2.65731
           71695         2.65620
           71696         2.65924
           71697         2.65685
           71698         2.65640
           71699         2.61807
           71700         2.63511
           71701         2.57702
           71702         2.78383
           71703         2.62629
           71704         6.66615
           71705         6.48177
           71706         6.66656
           71707         5.42740
           71708         5.19290
           71709         5.09538
           71710         5.04124
           71711         5.14961
           71712         2.91584
           71713         2.90632
           71714         2.90278
           71715         2.90070
           71716         2.92389
           71717         2.86860
           71718         5.85889
           71719         5.91647
           71720         6.05902
           71721         5.86582
           71722         2.47018
           71723         2.46105
           71724         2.47812
           71725         2.46247
           71726         2.47610
           71727         2.46777
           71728         6.66678
           71729         2.46773
           71730         2.44075
           71731         2.41004
           71732         6.29896
           71733         6.43319
           71734         6.32597
           71735         6.24382
           71736         2.38732
           71737         5.94379
           71738         6.05798
           71739         6.10192
           71740         6.13904
           71741         5.70573
           71742         5.78366
           71743         5.90666
           71744         5.81517
           71745         5.73809
           71746         5.61680
           71747         5.77417
           71748         6.15466
           71749         6.03706
           71750         6.05632
           71751         6.17336
           71752         5.34478
           71753         5.31107
           71754         5.37763
           71755         5.38139
           71756         5.40657
           71757         5.29968
           71758         4.12307
           71759         4.02019
           71760         4.13289
           71761         4.08420
           71762         4.18870
           71763         4.07438
           71764         6.88715
           71765         2.63168
           71766         2.63373
           71767         2.62932
           71768         2.62539
           71769         2.65003
           71770         2.65111
           71771         2.65323
           71772         2.65676
           71773         2.65115
           71774         2.65464
           71775         2.65106
           71776         2.65668
           71777         2.64852
           71778         2.65133
           71779         2.65376
           71780         2.65092
           71781         2.65109
           71782         5.27558
           71783         5.27678
           71784         5.33123
           71785         4.06927
           71786         4.06635
           71787         3.99458
           71788         3.99664
           71789         4.10351
           71790         2.65681
           71791         2.65477
           71792         2.65657
           71793         2.64601
           71794         2.64626
           71795         2.64312
           71796         2.64526
           71797         2.63976
           71798         2.67151
           71799         2.64819
           71800         2.67263
           71801         2.64045
           71802         2.66586
           71803         2.68136
           71804         2.70523
           71805         2.57821
           71806         2.52266
           71807         2.54240
           71808         2.50064
           71809         2.51633
           71810         2.54261
           71811         1.00182
           71812         1.03048
           71813     919.660E-03
           71814     878.818E-03
           71815         1.11327
           71816         1.16343
           71817         1.06784
           71818         1.08863
           71819         1.11079
           71820         1.01600
           71821         1.12067
           71822         1.16949
           71823         1.03470
           71824     869.679E-03
           71825         6.15502
           71826         6.24791
           71827         6.24725
           71828         6.15493
           71829         6.34810
           71830         2.62308
           71831         2.62638
           71832         2.61213
           71833         3.55008
           71834         3.56047
           71835         3.19667
           71836         3.17239
           71837         3.11695
           71838         3.41803
           71839         3.40283
           71840         3.46370
           71841         3.32342
           71842         3.33255
           71843         5.10356
           71844         5.39352
           71845         6.41837
           71846         6.22403
           71847         6.18596
           71848         4.98551
           71849         4.92581
           71850         4.94245
           71851         5.70013
           71852         5.45846
           71853         5.32183
           71854         5.27456
           71855         5.33893
           71856         5.94066
           71857         5.03957
           71858         5.09615
           71859         5.78393
           71860         6.05610
           71861         5.96290
           71862         6.07007
           71863         5.89196
           71864         5.42093
           71865         5.32741
           71866         5.41766
           71867         5.28244
           71868         5.63335
           71869         5.53464
           71870         5.69887
           71871         5.65116
           71872         5.79950
           71873         5.29700
           71874         5.15542
           71875         5.28877
           71876         5.20860
           71877         5.40668
           71878         5.28291
           71879         5.74413
           71880         5.65148
           71881         5.60234
           71882         2.60987
           71883         2.63040
           71884         2.62242
           71885         2.61874
           71886         2.62584
           71887         2.62271
           71888         5.26405
           71889         5.24710
           71890         2.61908
           71891         2.61099
           71892         2.61948
           71893         2.61132
           71894         2.61437
           71895         2.61554
           71896         2.61419
           71897         2.60918
           71898         5.92118
           71899         3.99053
           71900         3.87282
           71901         4.30964
           71902         5.84478
           71903         5.92732
           71904         5.91328
           71905         4.49974
           71906         4.27382
           71907         4.26050
           71908         4.37589
           71909         4.22380
           71910         5.73230
           71911         5.73679
           71912         5.79069
           71913         5.72227
           71914         5.13983
           71915         5.17584
           71916         5.03336
           71917         5.09701
           71918         5.69240
           71919         5.64091
           71920         5.68817
           71921         5.85913
           71922         5.85826
           71923         2.62116
           71924         2.61439
           71925         2.60476
           71926         2.61116
           71927         2.59184
           71928         2.59501
           71929         2.60457
           71930         2.60779
           71931         2.60461
           71932         2.59494
           71933         4.59561
           71934         4.51303
           71935         4.54698
           71936         2.61427
           71937         2.61460
           71938         5.11512
           71939         4.98405
           71940         5.44680
           71941         4.91510
           71942         3.98562
           71943         4.07952
           71944         4.03701
           71945         4.01159
           71946         4.43772
           71947         4.49049
           71948         4.43634
           71949         4.39176
           71950         4.33978
           71951         5.91168
           71952         1.01976
           71953     831.702E-03
           71954     920.684E-03
           71955     887.859E-03
           71956     884.579E-03
           71957     797.369E-03
           71958     828.139E-03
           71959     715.934E-03
           71960     687.210E-03
           71961     733.331E-03
           71962     561.933E-03
           71963         4.34168
           71964         4.33487
           71965         4.41281
           71966         4.92248
           71967         4.96493
           71968         4.96363
           71969         4.83386
           71970         4.51315
           71971         4.27451
           71972         4.73035
           71973         4.61638
           71974         4.61642
           71975         4.73034
           71976         3.57317
           71977         4.45674
           71978         4.55726
           71979         4.27030
           71980         4.36654
           71981         4.37746
           71982         4.38365
           71983         4.43933
           71984         4.51779
           71985         4.38379
           71986         1.89103
           71987         5.99921
           71988         6.07979
           71989         5.37259
           71990         5.49738
           71991         1.90172
           71992         1.98099
           71993         1.99833
           71994         1.96401
           71995         4.82303
           71996         4.65409
           71997         1.92461
           71998         1.90262
           71999         1.93308
           72000         3.69183
           72001         3.67145
           72002         4.21931
           72003         4.13743
           72004         4.23313
           72005         4.13176
           72006         4.09204
           72007         4.13578
           72008         4.14426
           72009         4.20429
           72010         4.06419
           72011         4.19719
           72012         3.94413
           72013         3.99994
           72014         4.11123
           72015         4.12668
           72016         5.67449
           72017         5.54360
           72018         5.67506
           72019         5.38892
           72020         5.35928
           72021         5.42932
           72022         5.51380
           72023         4.27134
           72024         3.97433
           72025         4.10582
           72026         2.35523
           72027         2.35130
           72028         2.37024
           72029         2.32839
           72030         2.36639
           72031         2.40842
           72032         2.39622
           72033         2.38462
           72034         2.37061
           72035         2.54432
           72036         2.44062
           72037         2.52656
           72038         2.52714
           72039         2.58351
           72040         2.49608
           72041         2.38939
           72042         2.46864
           72043         2.41335
           72044         2.31891
           72045         2.36634
           72046         4.57536
           72047         4.60902
           72048         4.53506
           72049         4.46168
           72050         5.74407
           72051         5.68591
           72052         5.62421
           72053         5.33600
           72054         6.78956
           72055         5.75764
           72056         4.97235
           72057         4.66646
           72058         4.89759
           72059         2.66191
           72060         2.66100
           72061         2.66300
           72062         2.66190
           72063         2.66290
           72064         2.66099
           72065         4.78623
           72066         4.73373
           72067         2.66116
           72068         2.66106
           72069         2.66283
           72070         2.66192
           72071         2.66236
           72072         2.66405
           72073         2.66430
           72074         2.66168
           72075         5.80086
           72076         5.71947
           72077         4.94697
           72078         5.03698
           72079     236.027E-03
           72080     194.749E-03
           72081     215.610E-03
           72082     232.043E-03
           72083     274.302E-03
           72084     253.148E-03
           72085     273.846E-03
           72086     303.701E-03
           72087     309.635E-03
           72088     314.592E-03
           72089     222.531E-03
           72090     202.862E-03
           72091     199.468E-03
           72092         5.13923
           72093         5.12672
           72094         5.15987
           72095         5.11063
           72096         5.11157
           72097         5.36435
           72098         5.43065
           72099         5.77616
           72100         6.06350
           72101         6.01936
           72102         5.95309
           72103         5.72833
           72104         5.59963
           72105     147.050E-03
           72106     174.569E-03
           72107     123.790E-03
           72108         4.73008
           72109         4.73020
           72110     242.312E-03
           72111     64.6649E-03
           72112     75.5862E-03
           72113     99.6975E-03
           72114     88.1019E-03
           72115     45.4230E-03
           72116         5.55311
           72117     44.0326E-03
           72118     52.6847E-03
           72119     36.6440E-03
           72120     1.35177E-03
           72121     44.4048E-03
           72122     51.9466E-03
           72123     112.818E-03
           72124     88.5465E-03
           72125     112.916E-03
           72126     101.624E-03
           72127         3.51400
           72128         3.47860
           72129         3.54594
           72130         3.52920
           72131         3.56957
           72132         3.43766
           72133         3.47143
           72134         3.51754
           72135         3.49477
           72136         3.43759
           72137         3.49100
           72138         3.53027
           72139         3.49542
           72140         1.69970
           72141         1.70888
           72142         1.74289
           72143         1.56868
           72144         1.68981
           72145         1.71800
           72146         1.71129
           72147         1.73271
           72148         1.70447
           72149         1.71307
           72150         1.75225
           72151         1.77282
           72152         1.78038
           72153         1.58473
           72154         1.61797
           72155         2.45242
           72156         2.48262
           72157         2.49856
           72158         3.77009
           72159         2.53907
           72160         2.47354
           72161         2.46829
           72162         3.89082
           72163         3.98605
           72164         2.54316
           72165         4.93183
           72166         4.98882
           72167         4.99599
           72168         5.67741
           72169     547.660E-03
           72170     531.036E-03
           72171     327.327E-03
           72172     265.442E-03
           72173     271.909E-03
           72174     333.458E-03
           72175     272.248E-03
           72176     271.384E-03
           72177     336.615E-03
           72178     531.233E-03
           72179     507.015E-03
           72180     629.547E-03
           72181     543.067E-03
           72182     336.006E-03
           72183         5.47482
           72184         5.55055
           72185         5.54634
           72186         6.14305
           72187         6.00643
           72188         6.11949
           72189         5.75508
           72190         4.27572
           72191         4.32832
           72192         4.27876
           72193         4.22833
           72194         4.28777
           72195         3.98349
           72196         3.99961
           72197         4.45278
           72198         4.30558
           72199         4.33314
           72200         4.34419
           72201         4.42018
           72202         4.53086
           72203         4.83789
           72204         4.69786
           72205         4.83756
           72206         2.59592
           72207         2.63292
           72208         2.58129
           72209         2.59598
           72210         2.55758
           72211         2.61028
           72212         5.59086
           72213         4.13313
           72214         4.25539
           72215         4.35343
           72216         2.60707
           72217         2.58723
           72218         2.48615
           72219         2.48067
           72220         2.37590
           72221         2.52814
           72222         2.63773
           72223         2.57896
           72224         2.61866
           72225         2.76898
           72226         2.74418
           72227         2.74608
           72228         2.68539
           72229         2.65727
           72230         2.69145
           72231         2.67830
           72232         2.65422
           72233         2.69688
           72234         2.70876
           72235         6.67898
           72236         6.49684
           72237         6.70631
           72238         6.77456
           72239         6.79704
           72240         6.58500
           72241         6.27136
           72242         6.28429
           72243         6.12561
           72244         6.26979
           72245         6.18438
           72246         3.80583
           72247         3.94390
           72248         3.94412
           72249         5.60761
           72250         5.56517
           72251         4.60625
           72252         4.53072
           72253         2.89268
           72254         2.88398
           72255         2.86700
           72256         2.86108
           72257         2.86802
           72258         2.88522
           72259         2.84451
           72260         2.83836
           72261         2.85177
           72262         2.83060
           72263         2.86574
           72264         2.87424
           72265         2.88235
           72266         5.46152
           72267         2.51119
           72268         2.61394
           72269         1.82017
           72270         2.00650
           72271         1.88164
           72272         1.79556
           72273         2.22874
           72274         2.13688
           72275         2.12107
           72276         2.13037
           72277         2.08066
           72278         2.12634
           72279         2.12371
           72280         2.17234
           72281         2.12806
           72282         2.19009
           72283         2.15794
           72284         2.14108
           72285         2.14209
           72286         2.17504
           72287         2.19179
           72288         2.09704
           72289         2.13153
           72290         2.20494
           72291         2.24666
           72292         2.21514
           72293         2.21443
           72294         2.20373
           72295         2.77150
           72296         2.60087
           72297         2.78480
           72298         2.71799
           72299         2.69711
           72300         2.53323
           72301         2.42842
           72302         2.51802
           72303         2.41456
           72304         2.51794
           72305         2.43247
           72306         2.49546
           72307         2.60107
           72308         2.50818
           72309         2.53237
           72310         2.42736
           72311         2.89998
           72312         2.81095
           72313         2.49509
           72314         2.50833
           72315         1.60803
           72316         1.67605
           72317         1.62893
           72318         1.59261
           72319         1.69124
           72320         1.65169
           72321         1.70084
           72322         1.72712
           72323         1.76627
           72324         5.71984
           72325         5.73204
           72326         5.78774
           72327         5.82559
           72328         5.85160
           72329         5.75103
           72330         5.76818
           72331         5.67870
           72332         5.73360
           72333         5.79205
           72334         5.79453
           72335         5.88111
           72336         5.84234
           72337         5.78561
           72338         5.84922
           72339     880.184E-03
           72340     920.261E-03
           72341     860.271E-03
           72342     862.040E-03
           72343     782.984E-03
           72344     850.201E-03
           72345     956.079E-03
           72346     871.683E-03
           72347     990.631E-03
           72348         1.09793
           72349     995.593E-03
           72350         1.06218
           72351     955.923E-03
           72352         1.05727
           72353         1.04895
           72354     942.739E-03
           72355         1.00816
           72356     980.292E-03
           72357     909.398E-03
           72358         1.02177
           72359         3.11048
           72360         3.09202
           72361         3.07002
           72362         3.08008
           72363         3.89120
           72364         3.03726
           72365         3.08296
           72366         3.06549
           72367         3.10151
           72368         3.08529
           72369         3.10561
           72370         3.06923
           72371         3.09287
           72372         2.79209
           72373         2.79447
           72374         2.78617
           72375         2.77705
           72376         2.78446
           72377         4.08816
           72378         2.76758
           72379         2.76650
           72380         2.77763
           72381         2.75999
           72382         3.77129
           72383         3.41471
           72384         3.45586
           72385         3.42578
           72386         3.38174
           72387         3.34304
           72388         3.37134
           72389         2.77382
           72390         2.78050
           72391         2.76148
           72392         2.76520
           72393         2.75894
           72394         2.79416
           72395         2.79197
           72396         2.78463
           72397         3.98590
           72398         4.07812
           72399         3.94471
           72400         3.65504
           72401         4.03159
           72402         4.11936
           72403         4.11492
           72404         4.04688
           72405         4.64603
           72406         4.76388
           72407         4.79337
           72408         4.70556
           72409         4.67146
           72410         4.89460
           72411         4.88342
           72412         4.76474
           72413         4.86669
           72414         4.85613
           72415         4.76612
           72416         4.88355
           72417         6.05581
           72418         6.32675
           72419         6.32695
           72420         6.32882
           72421         3.12609
           72422         4.30720
           72423         4.23421
           72424         6.14170
           72425         6.07193
           72426         6.17661
           72427         6.04324
           72428         3.26060
           72429         3.33872
           72430         4.16092
           72431         4.08832
           72432         4.28621
           72433         3.89321
           72434         6.21151
           72435         6.20255
           72436         6.24736
           72437         6.68121
           72438         6.66212
           72439         6.97101
           72440         6.94507
           72441         7.02750
           72442         7.26992
           72443         6.79338
           72444         6.98539
           72445         2.70155
           72446         2.70152
           72447         2.68928
           72448         6.84725
           72449         2.66389
           72450         2.66055
           72451         2.67277
           72452         2.65423
           72453         1.35486
           72454         1.22268
           72455         1.33177
           72456         3.25805
           72457         3.18635
           72458         1.54837
           72459         1.56845
           72460         1.57135
           72461         1.63951
           72462         1.66599
           72463         1.57195
           72464         1.54684
           72465         1.45943
           72466     256.277E-03
           72467     314.121E-03
           72468         3.80050
           72469     623.581E-03
           72470     788.457E-03
           72471     803.700E-03
           72472     719.910E-03
           72473     423.865E-03
           72474     439.385E-03
           72475     352.542E-03
           72476         6.51811
           72477         6.12868
           72478         6.20164
           72479         6.33276
           72480         6.55616
           72481         6.57682
           72482         6.44231
           72483         6.44033
           72484         6.17411
           72485         6.04878
           72486         5.64185
           72487         5.59299
           72488         5.42292
           72489         5.48559
           72490         5.51322
           72491         5.51376
           72492         5.51410
           72493         2.60183
           72494         5.38972
           72495         5.39636
           72496         5.42750
           72497         5.35524
           72498         5.49551
           72499         5.50070
           72500         5.48498
           72501         5.47263
           72502         5.48274
           72503         5.50682
           72504         5.50239
           72505         3.76905
           72506         5.51868
           72507         6.71969
           72508         6.61439
           72509         6.59731
           72510         7.06344
           72511         6.83106
           72512         7.08276
           72513         7.20150
           72514         2.72701
           72515         2.71804
           72516         2.69095
           72517         2.69966
           72518         2.69992
           72519         2.70582
           72520         2.69542
           72521         3.87220
           72522         3.80068
           72523         3.05029
           72524         3.01834
           72525         3.01851
           72526         2.70740
           72527         2.71653
           72528         2.71461
           72529         6.83716
           72530         2.70138
           72531         2.70461
           72532         2.69608
           72533         2.69413
           72534         2.69828
           72535         2.68954
           72536         2.69672
           72537         2.69473
           72538         3.10827
           72539         3.07759
           72540         3.05303
           72541         2.70893
           72542         2.71422
           72543         2.70715
           72544         2.70554
           72545         2.71232
           72546         2.70556
           72547         2.70883
           72548         2.71647
           72549         2.70703
           72550         2.70624
           72551         1.18436
           72552         1.16956
           72553         1.08192
           72554         3.65795
           72555         3.65792
           72556         1.35373
           72557         1.54930
           72558         1.44882
           72559         1.46703
           72560         1.37015
           72561         1.49967
           72562         1.69769
           72563         1.49645
           72564         1.30445
           72565         1.26533
           72566         1.36919
           72567         1.08520
           72568         1.17227
           72569         1.08410
           72570         2.65908
           72571         2.63694
           72572         2.63407
           72573         2.67257
           72574         2.66980
           72575         2.68688
           72576         2.68757
           72577         2.70683
           72578         2.68936
           72579         2.72531
           72580         3.55808
           72581         2.72206
           72582         2.75751
           72583         3.76975
           72584         2.64243
           72585         2.65344
           72586         2.65748
           72587         2.75264
           72588         5.07240
           72589         3.03421
           72590         5.21560
           72591         5.17259
           72592         3.58660
           72593         3.51572
           72594         3.51571
           72595         5.26013
           72596         5.15108
           72597         5.80013
           72598         5.78083
           72599         3.79911
           72600         3.44451
           72601         5.25665
           72602         5.32558
           72603         5.01025
           72604         5.07657
           72605         5.15891
           72606         4.95081
           72607         4.67303
           72608         5.26236
           72609         4.72794
           72610         4.47834
           72611         5.80870
           72612         4.62835
           72613     680.030E-03
           72614     595.731E-03
           72615         3.41858
           72616         5.95670
           72617         5.83515
           72618         5.88691
           72619         5.91512
           72620     750.467E-03
           72621     699.799E-03
           72622     673.675E-03
           72623     654.649E-03
           72624         4.75747
           72625         4.63193
           72626         4.61359
           72627         4.70414
           72628         4.78263
           72629         4.83534
           72630         4.82021
           72631         4.85119
           72632         4.66875
           72633         4.68564
           72634         4.74975
           72635         3.32764
           72636         3.31603
           72637         3.12710
           72638         3.23165
           72639         3.19778
           72640         3.30257
           72641         3.19771
           72642         3.23160
           72643     83.6301E-03
           72644     122.419E-03
           72645     109.521E-03
           72646     69.4506E-03
           72647     70.3707E-03
           72648     45.5034E-03
           72649     55.1005E-03
           72650     27.7069E-03
           72651     15.4770E-03
           72652     15.9751E-03
           72653     17.3098E-03
           72654     40.4382E-03
           72655         3.37366
           72656         3.28690
           72657         3.37368
           72658     241.271E-03
           72659     303.773E-03
           72660     314.727E-03
           72661     337.187E-03
           72662     275.057E-03
           72663     264.022E-03
           72664     224.611E-03
           72665     178.509E-03
           72666     206.500E-03
           72667     212.972E-03
           72668     208.244E-03
           72669     236.689E-03
           72670     209.629E-03
           72671     226.195E-03
           72672     197.898E-03
           72673     289.976E-03
           72674     268.275E-03
           72675     257.714E-03
           72676     230.862E-03
           72677     180.398E-03
           72678     204.942E-03
           72679     282.342E-03
           72680     304.124E-03
           72681     297.388E-03
           72682         3.53714
           72683         3.69604
           72684         3.60752
           72685         3.43161
           72686         3.51569
           72687         3.75854
           72688         3.86425
           72689         3.80778
           72690         3.76616
           72691         3.91853
           72692         3.83674
           72693         3.90296
           72694         3.95547
           72695         3.92861
           72696         3.96812
           72697         3.83812
           72698         3.64876
           72699         2.19851
           72700         2.16632
           72701         2.36776
           72702         2.19399
           72703         2.23205
           72704         2.22460
           72705         2.39490
           72706         2.36271
           72707         2.36282
           72708         2.36249
           72709         2.39042
           72710         2.38595
           72711         2.36366
           72712         5.32197
           72713         5.34900
           72714         5.33828
           72715         2.49444
           72716         2.48856
           72717         2.46596
           72718         2.51461
           72719         2.49274
           72720         2.51022
           72721         2.48790
           72722         2.55330
           72723         2.54329
           72724         2.47763
           72725         2.48271
           72726         3.21267
           72727         3.19239
           72728         3.22814
           72729         3.19722
           72730         3.17509
           72731         3.28498
           72732         3.16743
           72733         3.18684
           72734         2.73577
           72735         2.73243
           72736         2.73941
           72737         2.72446
           72738         2.71295
           72739         2.72293
           72740         2.70895
           72741         2.71104
           72742         2.70666
           72743         2.71017
           72744         2.91857
           72745         2.94640
           72746         2.84772
           72747         2.94651
           72748         2.91871
           72749         3.01792
           72750         2.73150
           72751         2.73004
           72752         2.71700
           72753         2.72789
           72754         3.21852
           72755         3.12102
           72756         3.08837
           72757         3.18984
           72758         3.21476
           72759         3.21124
           72760         3.32126
           72761         3.31212
           72762         3.01723
           72763         3.05720
           72764         3.29100
           72765         3.08292
           72766         7.33200
           72767         7.48762
           72768         7.77399
           72769         7.59964
           72770         7.45142
           72771         7.17682
           72772         7.53674
           72773         7.80019
           72774         7.62930
           72775         3.04386
           72776         3.07375
           72777         2.86933
           72778         2.82592
           72779         7.18916
           72780         3.21233
           72781         7.14120
           72782         6.96411
           72783         7.28917
           72784         3.34804
           72785         3.31355
           72786         3.41715
           72787         2.65883
           72788         2.87477
           72789         2.84789
           72790         2.94640
           72791         3.34058
           72792         3.34263
           72793         3.31474
           72794         3.28276
           72795         3.31345
           72796         3.37663
           72797         3.44719
           72798         3.41291
           72799         3.49359
           72800         6.07378
           72801         6.01751
           72802         2.85864
           72803         6.08039
           72804         2.80324
           72805         2.80320
           72806         2.29306
           72807         5.69801
           72808         5.63793
           72809         5.60138
           72810         5.91514
           72811         5.81593
           72812         6.07216
           72813         6.30156
           72814         6.13649
           72815         6.17341
           72816         6.11119
           72817         1.60597
           72818         1.75435
           72819         1.80254
           72820         1.81026
           72821         1.65358
           72822         1.94529
           72823         1.84040
           72824         1.84901
           72825         2.03287
           72826         1.95964
           72827         2.04688
           72828         1.72172
           72829         1.52229
           72830         1.71694
           72831         2.79184
           72832         1.99399
           72833     133.358E-03
           72834     102.590E-03
           72835     117.697E-03
           72836     84.0048E-03
           72837     99.9002E-03
           72838     52.0347E-03
           72839     64.6695E-03
           72840     35.5938E-03
           72841     41.0089E-03
           72842     16.5331E-03
           72843     42.3919E-03
           72844     74.9713E-03
           72845     35.7039E-03
           72846     54.6478E-03
           72847         2.67616
           72848         1.94916
           72849         1.47141
           72850         1.23476
           72851         1.06688
           72852     913.544E-03
           72853         1.08143
           72854     941.142E-03
           72855         1.15018
           72856     943.617E-03
           72857     894.828E-03
           72858         1.53473
           72859         2.73176
           72860         2.65876
           72861         2.49097
           72862         6.29510
           72863         5.84882
           72864         5.96160
           72865         6.05459
           72866         5.93909
           72867         5.85404
           72868         6.25164
           72869         1.96512
           72870         1.90958
           72871         1.93344
           72872         1.94622
           72873         1.87336
           72874         1.92296
           72875         1.92293
           72876         1.70609
           72877         2.01951
           72878         2.07306
           72879         1.68065
           72880         1.60907
           72881         1.62593
           72882         1.69770
           72883         1.65845
           72884         1.74067
           72885         1.76215
           72886         7.33156
           72887         6.98869
           72888         7.06010
           72889         6.40313
           72890         7.00853
           72891         1.83098
           72892         3.83307
           72893         3.72604
           72894         4.01169
           72895         3.93069
           72896         3.81305
           72897         4.75327
           72898         4.43670
           72899         4.75940
           72900         4.67672
           72901         3.53859
           72902         3.60792
           72903         3.66916
           72904         3.61509
           72905         4.28230
           72906         3.95062
           72907         2.53317
           72908         2.52458
           72909         2.52867
           72910         2.50936
           72911         2.50556
           72912         2.51449
           72913         2.51891
           72914         2.52144
           72915         2.51264
           72916         2.51540
           72917         2.50639
           72918         2.52589
           72919         2.53471
           72920         2.53121
           72921         2.52835
           72922         2.52243
           72923         2.77723
           72924         2.75478
           72925         2.75127
           72926         2.73298
           72927         2.76459
           72928         5.26818
           72929         5.25875
           72930         5.32432
           72931         2.75012
           72932         2.72420
           72933         2.76470
           72934         2.75274
           72935         2.78505
           72936         2.78428
           72937         2.22046
           72938         1.94939
           72939         3.97541
           72940         3.97955
           72941         3.87309
           72942         4.00510
           72943         4.24522
           72944         4.12748
           72945         4.25948
           72946         4.26295
           72947         4.28387
           72948         4.14369
           72949         4.08270
           72950         4.20263
           72951     257.628E-03
           72952     247.290E-03
           72953         6.06891
           72954         5.92829
           72955     972.935E-03
           72956     757.962E-03
           72957         2.64498
           72958         2.28340
           72959         2.21168
           72960         2.58440
           72961         2.59437
           72962         2.59463
           72963         2.59155
           72964         2.58592
           72965         2.58600
           72966         2.58352
           72967         2.58197
           72968         2.57426
           72969         2.21779
           72970         2.56791
           72971         2.57843
           72972         2.57868
           72973         5.72862
           72974         5.83190
           72975         5.85292
           72976         6.01124
           72977         6.10795
           72978         5.89772
           72979         5.96356
           72980         1.63203
           72981         1.93349
           72982         1.57112
           72983         2.63211
           72984         2.62686
           72985         2.64962
           72986         2.64335
           72987         2.64650
           72988         2.65543
           72989         1.35279
           72990         2.07220
           72991         1.48566
           72992         1.50873
           72993         1.32374
           72994         1.37006
           72995         1.52046
           72996         1.83647
           72997         1.87838
           72998         1.90405
           72999         2.67886
           73000         2.67058
           73001         2.67325
           73002         2.67360
           73003         2.52584
           73004         2.49513
           73005         2.09956
           73006         2.07579
           73007         1.84844
           73008         2.49693
           73009         2.51301
           73010         2.52594
           73011         2.53788
           73012         2.55467
           73013         1.80885
           73014         1.77279
           73015         1.77284
           73016         2.81745
           73017         2.79507
           73018         2.79427
           73019         2.79117
           73020         2.81333
           73021         2.81421
           73022         2.77462
           73023         2.79214
           73024         2.81443
           73025         2.79163
           73026         2.83740
           73027         2.84904
           73028         2.85003
           73029         2.83805
           73030         2.82570
           73031         2.83557
           73032         1.21776
           73033         1.17337
           73034         1.23898
           73035         1.23022
           73036         2.86314
           73037         2.85196
           73038         2.83810
           73039         2.82525
           73040         2.80621
           73041     774.600E-03
           73042     770.117E-03
           73043     681.130E-03
           73044     704.872E-03
           73045     836.169E-03
           73046     848.027E-03
           73047     866.890E-03
           73048     854.165E-03
           73049     650.792E-03
           73050         5.76503
           73051     892.678E-03
           73052     812.810E-03
           73053     886.219E-03
           73054     829.892E-03
           73055     910.097E-03
           73056     842.220E-03
           73057     804.914E-03
           73058     733.086E-03
           73059     824.048E-03
           73060     843.026E-03
           73061         2.31369
           73062         2.31024
           73063         2.34241
           73064         2.33891
           73065         1.92687
           73066         1.88456
           73067         1.85291
           73068         2.67530
           73069         2.68668
           73070         2.68976
           73071         2.67576
           73072         2.67909
           73073         2.68547
           73074         2.68783
           73075         2.68062
           73076         3.43721
           73077         3.68568
           73078         3.72465
           73079         3.74482
           73080         3.70833
           73081         3.56380
           73082         3.51146
           73083         3.47836
           73084         2.91965
           73085         2.96277
           73086         2.94342
           73087         2.95730
           73088         2.93362
           73089         1.78046
           73090         2.89579
           73091         2.93440
           73092         2.92061
           73093         2.89389
           73094         1.78242
           73095         1.77297
           73096         3.34800
           73097         3.28913
           73098         3.34454
           73099         3.34540
           73100         2.02289
           73101         3.44241
           73102         3.47700
           73103         3.40234
           73104         3.44570
           73105         3.37063
           73106         2.67497
           73107         2.68842
           73108         2.67721
           73109         2.68073
           73110         2.67033
           73111         2.62228
           73112         2.62683
           73113         2.63597
           73114         2.61897
           73115         2.65477
           73116         5.59958
           73117         5.55215
           73118         2.66653
           73119         2.64415
           73120         2.66070
           73121         2.59790
           73122         2.59553
           73123         2.58728
           73124         2.59001
           73125         2.59425
           73126         2.60192
           73127         1.70251
           73128         1.67575
           73129         2.58296
           73130         2.59101
           73131         2.58542
           73132         2.58126
           73133     411.490E-03
           73134     284.309E-03
           73135     565.671E-03
           73136     408.813E-03
           73137     877.916E-03
           73138     703.664E-03
           73139     280.098E-03
           73140         6.19135
           73141         6.33148
           73142         1.31702
           73143     503.289E-03
           73144     385.515E-03
           73145         2.53711
           73146         2.54223
           73147         2.60571
           73148         2.69290
           73149         2.68541
           73150         2.65215
           73151         2.59369
           73152         2.57619
           73153         2.57621
           73154         2.63744
           73155         2.54606
           73156         2.54483
           73157         2.60400
           73158         2.55603
           73159         2.56014
           73160         2.61960
           73161         2.59900
           73162         2.61212
           73163         1.01626
           73164         1.07636
           73165         1.05878
           73166         1.17815
           73167         1.14512
           73168         8.54915
           73169         8.26269
           73170         8.16812
           73171         8.30939
           73172         8.31886
           73173         8.17286
           73174         8.37328
           73175         7.55924
           73176         2.90996
           73177         2.96404
           73178         2.95604
           73179         2.92938
           73180         2.84877
           73181         2.88183
           73182         2.84230
           73183         1.50002
           73184         1.47153
           73185         1.47161
           73186         2.98256
           73187         3.00372
           73188         5.81428
           73189         5.76933
           73190         5.74279
           73191         2.99145
           73192         3.03903
           73193         2.97391
           73194     18.9506E-03
           73195     8.06196E-03
           73196     18.4006E-03
           73197     34.7472E-03
           73198     45.9527E-03
           73199     18.1472E-03
           73200     35.1511E-03
           73201     49.0174E-03
           73202     37.4505E-03
           73203     38.7811E-03
           73204     9.80303E-03
           73205     14.3366E-03
           73206     13.2124E-03
           73207         1.19231
           73208         1.14066
           73209         4.56661
           73210         4.45474
           73211         4.64052
           73212         4.48603
           73213         4.46552
           73214         4.53765
           73215         4.77046
           73216         4.51363
           73217         4.77295
           73218         4.48195
           73219     35.0695E-03
           73220     36.4716E-03
           73221     28.5204E-03
           73222     48.5597E-03
           73223     113.372E-03
           73224     71.2404E-03
           73225     35.1371E-03
           73226     5.04131E-03
           73227     3.66389E-03
           73228         2.68364
           73229         2.66170
           73230         2.65593
           73231         2.63143
           73232         2.57390
           73233         2.61739
           73234         2.57565
           73235         2.61120
           73236         2.61830
           73237         2.54557
           73238         2.58003
           73239         2.59465
           73240         2.63275
           73241         2.61455
           73242         1.02554
           73243         1.09732
           73244         1.09897
           73245         5.49934
           73246         5.47346
           73247         5.52111
           73248         5.49750
           73249     744.218E-03
           73250     720.341E-03
           73251         5.47988
           73252         5.48686
           73253         5.53562
           73254         5.50947
           73255         5.73108
           73256         5.59702
           73257         5.65404
           73258         5.61359
           73259         5.59254
           73260         5.57393
           73261         5.55088
           73262         5.57396
           73263         5.57055
           73264         5.75642
           73265         5.72727
           73266         5.63697
           73267         5.60092
           73268         5.61821
           73269         1.17210
           73270         1.14296
           73271         5.55247
           73272         5.53872
           73273         5.52683
           73274         5.50897
           73275         5.65875
           73276         5.66630
           73277         5.65318
           73278         5.65927
           73279         1.02606
           73280         2.26001
           73281         2.34234
           73282         2.30792
           73283     882.146E-03
           73284         2.30404
           73285         2.30521
           73286         2.60838
           73287     970.363E-03
           73288         2.60484
           73289         2.60148
           73290         2.59409
           73291         2.60753
           73292         2.60554
           73293         2.59576
           73294         2.60054
           73295         2.59345
           73296         2.60787
           73297         2.60268
           73298         2.60278
           73299         2.60782
           73300         2.65722
           73301         2.65811
           73302         2.65793
           73303         2.66054
           73304         2.66129
           73305     834.611E-03
           73306     877.702E-03
           73307         2.65374
           73308         2.65804
           73309         2.65991
           73310         2.66130
           73311         2.65880
           73312         2.66458
           73313         2.66059
           73314         2.66115
           73315         1.06493
           73316         4.34421
           73317         4.27342
           73318         4.23237
           73319         4.70777
           73320         4.59145
           73321         4.54029
           73322         4.65711
           73323         4.60733
           73324         1.19595
           73325         1.23517
           73326         4.40144
           73327         4.09157
           73328         4.19895
           73329         4.09975
           73330         4.95658
           73331         4.91907
           73332         4.81129
           73333     763.423E-03
           73334         4.54502
           73335     73.2923E-03
           73336         4.50226
           73337         1.94943
           73338         1.94269
           73339         1.99926
           73340         1.99702
           73341         2.02248
           73342         1.99716
           73343         1.94161
           73344         1.98701
           73345         1.96972
           73346         2.01562
           73347         1.99221
           73348         1.99053
           73349     135.508E-03
           73350     105.517E-03
           73351         1.95809
           73352         1.96132
           73353         1.98059
           73354         1.97040
           73355         1.98755
           73356         1.96908
           73357         1.95367
           73358     743.483E-03
           73359     618.172E-03
           73360         2.74958
           73361         3.21869
           73362         2.98053
           73363         3.03748
           73364         2.80893
           73365         2.62864
           73366         2.75965
           73367         2.84835
           73368         2.59629
           73369         2.35600
           73370         2.51508
           73371     611.232E-03
           73372     676.184E-03
           73373         1.14966
           73374     620.489E-03
           73375     175.691E-03
           73376         6.15721
           73377         6.20517
           73378         5.98414
           73379         1.45609
           73380         1.18841
           73381         1.14037
           73382         1.18403
           73383         1.10902
           73384         1.20656
           73385         1.14820
           73386         1.12666
           73387         1.28690
           73388         1.31284
           73389         1.25633
           73390         1.18167
           73391         1.21231
           73392         1.26239
           73393         5.91065
           73394         5.86565
           73395         5.98472
           73396         5.98606
           73397     795.756E-03
           73398         5.86465
           73399         5.85658
           73400     956.994E-03
           73401         5.81470
           73402         5.92915
           73403         5.92755
           73404         1.04756
           73405         1.74045
           73406         1.81166
           73407         1.76913
           73408     577.851E-03
           73409     548.712E-03
           73410         1.82620
           73411         1.84057
           73412         1.86845
           73413         1.82575
           73414         1.70781
           73415         1.66356
           73416         1.71078
           73417         1.74456
           73418         4.41053
           73419         4.26536
           73420         4.38892
           73421         4.53976
           73422         4.59802
           73423         4.54357
           73424         4.69166
           73425         4.51441
           73426         4.42995
           73427         4.29812
           73428         1.57374
           73429         1.50481
           73430         1.47522
           73431         1.55057
           73432         1.54399
           73433         1.60151
           73434         1.63027
           73435         1.61773
           73436     891.322E-03
           73437         1.52397
           73438         1.49504
           73439     611.943E-03
           73440     598.627E-03
           73441         1.59835
           73442         1.63052
           73443     372.382E-03
           73444     428.388E-03
           73445         1.82164
           73446         1.88723
           73447         1.95176
           73448         1.73383
           73449         1.69063
           73450         1.79391
           73451         5.92004
           73452         6.13084
           73453         6.24284
           73454         6.26929
           73455         6.28687
           73456         6.16076
           73457         6.08364
           73458         2.73643
           73459         2.71425
           73460         2.73546
           73461         2.65424
           73462         2.66195
           73463         2.65239
           73464         2.65904
           73465         2.66964
           73466         2.67603
           73467         2.67749
           73468         2.66633
           73469         2.69135
           73470         2.66633
           73471         2.67589
           73472         2.67453
           73473     269.752E-03
           73474     271.018E-03
           73475         3.49637
           73476         3.39828
           73477         3.40975
           73478         3.26271
           73479         3.50691
           73480         1.11431
           73481         1.14530
           73482         1.14871
           73483         1.06616
           73484         1.11723
           73485         2.82478
           73486         2.77667
           73487         3.15279
           73488         3.29251
           73489         3.18369
           73490         3.30196
           73491         3.12364
           73492         3.15707
           73493         3.16504
           73494         3.05003
           73495         4.88056
           73496         3.63350
           73497         3.09952
           73498         3.13837
           73499     168.274E-03
           73500         2.62877
           73501     222.913E-03
           73502         5.86663
           73503         5.84553
           73504         5.96352
           73505         4.24517
           73506         4.36385
           73507         4.17813
           73508         4.04559
           73509         3.93594
           73510         3.84143
           73511         4.06356
           73512         4.12458
           73513         4.07163
           73514         3.92330
           73515         3.88193
           73516         4.38286
           73517         4.32957
           73518         4.39326
           73519         4.42049
           73520         4.51949
           73521         4.45440
           73522         4.42632
           73523         4.50272
           73524         4.59072
           73525         4.44215
           73526         4.54142
           73527         4.33923
           73528         4.42376
           73529         4.50708
           73530         4.37541
           73531         4.39351
           73532     407.752E-03
           73533         4.48469
           73534         4.59900
           73535         2.09258
           73536         5.75491
           73537         2.25401
           73538         2.38814
           73539         2.33934
           73540         2.30616
           73541         2.09015
           73542         2.08402
           73543         2.23778
           73544     637.703E-03
           73545     541.103E-03
           73546         5.33766
           73547     31.5459E-03
           73548     30.3153E-03
           73549     660.246E-03
           73550     711.523E-03
           73551     428.324E-03
           73552     371.385E-03
           73553     874.160E-03
           73554     627.424E-03
           73555     49.5767E-03
           73556     30.3478E-03
           73557     29.3101E-03
           73558     47.5214E-03
           73559     50.3617E-03
           73560         1.65431
           73561         1.50447
           73562         1.89911
           73563         1.66158
           73564     920.222E-03
           73565         1.24380
           73566     297.552E-03
           73567         5.22710
           73568         5.30273
           73569         5.34687
           73570         4.96331
           73571     106.634E-03
           73572     84.5213E-03
           73573         5.21005
           73574         5.20504
           73575         5.23784
           73576         5.19650
           73577         3.11702
           73578         2.84223
           73579         2.78748
           73580         2.75946
           73581         2.81285
           73582         3.09897
           73583         3.21999
           73584     461.302E-03
           73585     407.700E-03
           73586         3.12465
           73587         2.92154
           73588         3.26435
           73589         3.29296
           73590     193.702E-03
           73591     243.108E-03
           73592     620.477E-03
           73593     676.717E-03
           73594     614.544E-03
           73595     561.103E-03
           73596     601.130E-03
           73597     687.407E-03
           73598     729.691E-03
           73599     674.748E-03
           73600     589.587E-03
           73601     547.352E-03
           73602     600.033E-03
           73603     467.755E-03
           73604     521.599E-03
           73605     449.563E-03
           73606     455.469E-03
           73607         6.34546
           73608         6.33802
           73609     556.553E-03
           73610     606.762E-03
           73611     167.570E-03
           73612     134.336E-03
           73613         2.54157
           73614         2.55556
           73615         2.55205
           73616         2.55615
           73617         2.56664
           73618         2.56556
           73619     19.7858E-03
           73620     1.70077E-03
           73621         5.29162
           73622         5.35513
           73623         1.27051
           73624         1.30851
           73625         1.27173
           73626         1.23010
           73627         1.19530
           73628         1.16393
           73629     704.971E-03
           73630         1.14974
           73631         1.08385
           73632         1.17223
           73633         1.12486
           73634         1.14271
           73635         1.09590
           73636         1.16006
           73637         1.20631
           73638         1.17960
           73639         3.26582
           73640         3.24834
           73641         3.28207
           73642         3.30014
           73643         3.30043
           73644         5.72675
           73645         3.31859
           73646         5.43147
           73647         3.27579
           73648         3.20270
           73649         3.36446
           73650         3.37138
           73651         3.45442
           73652         3.40962
           73653         3.33842
           73654         3.37107
           73655         3.32980
           73656         3.35949
           73657         3.34617
           73658         3.33871
           73659         3.42947
           73660         4.22107
           73661         4.18179
           73662         4.10005
           73663         4.18388
           73664         4.05942
           73665         4.17871
           73666     76.9124E-03
           73667     85.0648E-03
           73668     72.8120E-03
           73669     52.9273E-03
           73670         4.30454
           73671     207.802E-03
           73672     180.139E-03
           73673     181.209E-03
           73674     108.763E-03
           73675         4.04471
           73676         4.11665
           73677     19.3696E-03
           73678     18.8743E-03
           73679     18.7334E-03
           73680     19.7190E-03
           73681         4.25887
           73682         6.57167
           73683         2.91652
           73684         7.19177
           73685         3.03395
           73686         2.91809
           73687         2.88411
           73688         2.86438
           73689         2.82585
           73690         2.85336
           73691         2.85433
           73692         2.92870
           73693         3.09709
           73694         3.24010
           73695         3.12167
           73696         3.15912
           73697         3.14811
           73698         4.14899
           73699         4.21848
           73700         4.28233
           73701         4.22614
           73702         4.38977
           73703         4.31334
           73704     280.140E-03
           73705         4.51140
           73706         4.45386
           73707         4.53000
           73708         4.50889
           73709         4.50815
           73710         4.13610
           73711         4.23336
           73712         5.45169
           73713         5.49710
           73714         5.31565
           73715         5.38256
           73716         5.49099
           73717         5.35972
           73718         5.37382
           73719         5.42457
           73720         1.38377
           73721         1.43443
           73722         1.48307
           73723         1.25790
           73724         1.34479
           73725         1.20771
           73726         1.12307
           73727         5.39232
           73728         5.39645
           73729         1.32045
           73730         3.50985
           73731         3.23059
           73732         3.20152
           73733         3.26343
           73734         3.21473
           73735     49.4527E-03
           73736     30.0981E-03
           73737     49.9301E-03
           73738         3.23184
           73739         3.37528
           73740     32.4216E-03
           73741     47.7837E-03
           73742     46.6668E-03
           73743     20.3180E-03
           73744     23.6357E-03
           73745         5.56658
           73746         7.34929
           73747         7.48452
           73748         7.34336
           73749         7.33424
           73750         7.38094
           73751         2.07514
           73752         1.96832
           73753         1.96328
           73754         2.00731
           73755         2.03581
           73756         2.03447
           73757     329.402E-03
           73758     725.210E-03
           73759     712.408E-03
           73760     597.494E-03
           73761     663.948E-03
           73762     394.766E-03
           73763     343.469E-03
           73764     462.728E-03
           73765     444.207E-03
           73766         5.76833
           73767         5.69506
           73768         5.74675
           73769         5.79033
           73770     501.683E-03
           73771         1.92036
           73772         1.92605
           73773         1.90232
           73774         1.96441
           73775         1.93288
           73776         1.95261
           73777         1.89793
           73778         1.92601
           73779         1.92689
           73780         5.15134
           73781     29.1658E-03
           73782         5.16016
           73783         5.09912
           73784         5.08802
           73785         5.02683
           73786         5.25870
           73787         5.21758
           73788         5.19636
           73789         5.24552
           73790         5.30788
           73791         5.18186
           73792         23.3605
           73793         5.12388
           73794         2.44953
           73795         2.46256
           73796         2.45273
           73797         2.40687
           73798         2.41540
           73799         2.43094
           73800         2.44095
           73801         2.43236
           73802         6.69553
           73803         2.36704
           73804         2.35461
           73805     32.9994E-03
           73806     42.9471E-03
           73807     43.4406E-03
           73808         2.34959
           73809         2.39063
           73810         2.35024
           73811         2.41299
           73812         2.38980
           73813     97.7793E-03
           73814         5.63378
           73815         5.67072
           73816         5.57284
           73817         5.90204
           73818         5.83769
           73819         5.69935
           73820         5.61426
           73821         5.88533
           73822         5.73037
           73823         5.77138
           73824         2.15532
           73825         2.14050
           73826         2.10093
           73827         2.03805
           73828         2.09726
           73829         2.08258
           73830         2.14335
           73831         2.08601
           73832         2.14265
           73833         2.18074
           73834         2.16182
           73835         2.09850
           73836         2.06980
           73837         2.09098
           73838     7.76725E-03
           73839     11.7338E-03
           73840     19.4694E-03
           73841     12.0138E-03
           73842     29.8600E-03
           73843     42.5406E-03
           73844     25.2596E-03
           73845         1.99217
           73846         2.02863
           73847         5.48955
           73848         2.12408
           73849         2.17030
           73850         2.13227
           73851         2.15037
           73852     28.7764E-03
           73853     28.8736E-03
           73854     29.7038E-03
           73855         2.66818
           73856         2.66709
           73857         2.66832
           73858     13.7936E-03
           73859     19.3166E-03
           73860         2.64851
           73861         2.65810
           73862         2.66124
           73863         2.66097
           73864         2.66099
           73865         2.65938
           73866         2.66044
           73867         2.66055
           73868         6.42394
           73869         6.44760
           73870         6.61293
           73871         6.48813
           73872         6.29294
           73873         6.22937
           73874         6.56325
           73875         6.42242
           73876         6.44092
           73877     3.45965E-03
           73878     924.710E-06
           73879     7.69603E-03
           73880     4.19617E-03
           73881     1.77023E-03
           73882         6.27468
           73883         6.62023
           73884         6.72634
           73885         6.74089
           73886         6.63189
           73887         6.79590
           73888         5.74349
           73889         6.74605
           73890         6.74733
           73891         6.43305
           73892         6.45006
           73893         6.66913
           73894         6.02602
           73895         6.01734
           73896     28.7419E-03
           73897     19.1251E-03
           73898         6.62251
           73899         6.74464
           73900     3.97556E-03
           73901     7.09553E-03
           73902     10.9718E-03
           73903     14.7111E-03
           73904     11.4198E-03
           73905         2.53292
           73906         2.47687
           73907         2.68053
           73908         2.64384
           73909         2.73117
           73910         2.75001
           73911         2.66096
           73912         2.70283
           73913         2.63417
           73914         2.58340
           73915         2.64090
           73916         2.54336
           73917         5.78475
           73918         5.77167
           73919         5.90605
           73920         5.69178
           73921         5.77321
           73922         5.72915
           73923         5.49452
           73924         5.60391
           73925         1.97698
           73926         1.96434
           73927     11.7851E-03
           73928     11.9788E-03
           73929         1.92134
           73930         1.95603
           73931         1.95895
           73932     654.772E-03
           73933     630.244E-03
           73934     689.704E-03
           73935     952.872E-03
           73936     854.510E-03
           73937     878.033E-03
           73938     796.345E-03
           73939     768.405E-03
           73940     866.113E-03
           73941     780.099E-03
           73942     716.443E-03
           73943     678.670E-03
           73944     621.152E-03
           73945     1.98984E-03
           73946     3.73489E-03
           73947     1.64008E-03
           73948     708.692E-03
           73949         1.24150
           73950         1.32971
           73951         1.32599
           73952         1.24569
           73953     460.727E-03
           73954     2.89565E-03
           73955     919.891E-03
           73956     947.809E-03
           73957         1.09084
           73958     895.810E-03
           73959         1.03884
           73960         1.30181
           73961         1.13942
           73962         1.21665
           73963     784.141E-03
           73964     916.661E-03
           73965         4.64235
           73966         1.25975
           73967         1.02544
           73968         1.18627
           73969         2.62082
           73970         3.67414
           73971         3.22816
           73972         3.51266
           73973         3.36775
           73974         2.62449
           73975         6.30329
           73976         2.58991
           73977         2.59783
           73978         2.59276
           73979         5.84902
           73980         5.80802
           73981         3.85993
           73982         4.40048
           73983         2.59477
           73984         2.59834
           73985         2.60509
           73986         7.73369
           73987         2.60274
           73988         7.57775
           73989         7.69542
           73990         8.01959
           73991         7.75796
           73992         6.49440
           73993         1.42811
           73994         2.92291
           73995         3.09697
           73996         2.82282
           73997         2.91976
           73998         1.98386
           73999         1.91870
           74000         1.84389
           74001         1.91333
           74002         6.40513
           74003         2.77977
           74004         9.74562
           74005         7.78735
           74006         2.80430
           74007         2.78387
           74008         2.80565
           74009         2.82307
           74010         2.80640
           74011         2.81975
           74012         2.81772
           74013         3.63937
           74014         4.48326
           74015         2.85909
           74016         2.88126
           74017         2.67017
           74018         2.58544
           74019         3.36427
           74020         3.47801
           74021         2.81512
           74022         2.89911
           74023         6.62664
           74024         2.55560
           74025         2.13930
           74026         1.86948
           74027         2.07988
           74028         2.44490
           74029         2.82872
           74030         2.99575
           74031         3.01894
           74032         3.03523
           74033         2.91284
           74034         2.71691
           74035         2.56743
           74036         5.20705
           74037         2.47925
           74038         3.27552
           74039         3.39963
           74040         3.41367
           74041         3.50334
           74042         2.53208
           74043         2.49424
           74044         2.50521
           74045         2.49600
           74046     767.309E-03
           74047     745.719E-03
           74048     989.858E-03
           74049     875.769E-03
           74050     876.397E-03
           74051     988.838E-03
           74052         2.16095
           74053         2.18172
           74054         2.20431
           74055         2.15347
           74056         2.13163
           74057         2.10702
           74058     518.493E-03
           74059     475.188E-03
           74060     491.165E-03
           74061         1.04129
           74062     923.690E-03
           74063         1.12392
           74064         1.01884
           74065         1.02652
           74066         1.05082
           74067         1.04342
           74068         1.79228
           74069         1.86794
           74070         5.43911
           74071         2.42058
           74072         3.04210
           74073         3.10618
           74074         3.08205
           74075         3.14084
           74076         3.10196
           74077     140.367E-03
           74078     152.918E-03
           74079         1.33822
           74080         1.32636
           74081         1.29442
           74082         1.25616
           74083         2.43762
           74084         2.38459
           74085         2.17727
           74086     437.225E-03
           74087     474.737E-03
           74088     425.493E-03
           74089     554.367E-03
           74090         2.69893
           74091         2.70367
           74092         5.50145
           74093         5.45011
           74094         2.06277
           74095         2.06153
           74096         2.12055
           74097         2.10057
           74098         2.10279
           74099         1.79043
           74100         1.74590
           74101         1.71340
           74102     345.507E-03
           74103     349.612E-03
           74104     453.121E-03
           74105     420.134E-03
           74106     417.567E-03
           74107     253.815E-03
           74108         2.64617
           74109         2.63846
           74110         1.97551
           74111         1.92213
           74112         2.64616
           74113         2.65454
           74114         2.65248
           74115         2.65186
           74116         1.94789
           74117     332.165E-03
           74118     452.875E-03
           74119     369.572E-03
           74120         2.14684
           74121         2.19832
           74122     754.929E-03
           74123     707.964E-03
           74124         2.36165
           74125         2.27026
           74126         2.23593
           74127         6.09510
           74128         3.01668
           74129         2.96647
           74130         2.96338
           74131         2.96914
           74132         2.36580
           74133         2.25335
           74134         2.25241
           74135         2.24194
           74136         2.21726
           74137         2.34193
           74138         2.33249
           74139         2.33918
           74140         2.35288
           74141         2.37313
           74142         1.92289
           74143         1.85532
           74144         1.92186
           74145         1.90829
           74146         2.03211
           74147         2.03332
           74148         2.00407
           74149         2.06939
           74150         2.57940
           74151         2.56034
           74152         1.62684
           74153         1.64283
           74154         1.03447
           74155     970.531E-03
           74156         2.30873
           74157         2.30640
           74158         2.61371
           74159         2.60960
           74160         2.61168
           74161         1.72617
           74162         1.66869
           74163         1.66740
           74164         1.65536
           74165         1.71546
           74166         1.71442
           74167         2.60747
           74168         2.60967
           74169         2.60615
           74170         2.59556
           74171         2.59845
           74172         2.60701
           74173         5.63108
           74174         2.02212
           74175         6.82661
           74176         2.65502
           74177         2.71358
           74178         2.38639
           74179         2.34077
           74180         1.95097
           74181         2.23200
           74182         2.28408
           74183         2.16137
           74184         5.54151
           74185         5.45841
           74186         5.42190
           74187         4.44826
           74188         4.32324
           74189         2.19460
           74190         2.22864
           74191         2.23798
           74192         2.32848
           74193         2.31874
           74194         2.32601
           74195         2.35471
           74196         3.01647
           74197     164.130E-03
           74198     136.475E-03
           74199     164.045E-03
           74200     103.024E-03
           74201     129.880E-03
           74202     785.918E-03
           74203         4.26842
           74204         4.41736
           74205     665.480E-03
           74206     707.734E-03
           74207     726.751E-03
           74208     722.999E-03
           74209         4.53782
           74210         4.59859
           74211         2.37878
           74212         2.39616
           74213         2.42321
           74214         2.42680
           74215         2.41140
           74216         4.54206
           74217         4.59384
           74218         4.65934
           74219         4.63177
           74220         4.54994
           74221         4.52277
           74222         4.52706
           74223         2.68297
           74224         2.68334
           74225         2.73227
           74226         2.72454
           74227         2.74196
           74228         2.72218
           74229         2.69790
           74230         2.67520
           74231         2.67978
           74232         2.70247
           74233         2.69487
           74234         2.72095
           74235         2.69395
           74236         1.65783
           74237         2.05379
           74238         2.07096
           74239         2.72337
           74240         2.71706
           74241         2.71898
           74242         2.72135
           74243         2.39379
           74244         2.40588
           74245         2.38618
           74246         1.44664
           74247         1.13475
           74248         1.83480
           74249         1.94064
           74250         2.31696
           74251         2.24650
           74252         2.30709
           74253         1.64822
           74254         1.52436
           74255         1.00609
           74256     925.548E-03
           74257     836.794E-03
           74258         6.69360
           74259         6.69883
           74260         6.90191
           74261         7.21740
           74262         7.27397
           74263         7.17493
           74264         7.20107
           74265         6.63968
           74266         6.66385
           74267         6.68124
           74268         6.69674
           74269         2.49816
           74270         2.14706
           74271         7.11194
           74272         7.11186
           74273         4.13901
           74274         4.19616
           74275         4.18274
           74276         4.21904
           74277         4.09538
           74278         4.05605
           74279         4.27259
           74280         4.36646
           74281         4.31361
           74282         4.22033
           74283         4.46431
           74284         4.34267
           74285         4.47388
           74286         1.49528
           74287         1.55839
           74288         1.51560
           74289         1.48029
           74290         2.29503
           74291         2.35846
           74292         2.51541
           74293         2.53281
           74294         2.56451
           74295         2.49192
           74296         5.18949
           74297         5.09613
           74298         5.13082
           74299         5.12507
           74300         5.19599
           74301         2.34788
           74302         5.11193
           74303         5.16746
           74304         5.47901
           74305         5.37307
           74306         5.35169
           74307         5.46963
           74308         10.5250
           74309         10.4609
           74310         12.6122
           74311         1.63696
           74312         2.25924
           74313         2.73268
           74314         10.9390
           74315         11.3204
           74316         11.6936
           74317         24.4986
           74318         6.88601
           74319         2.68191
           74320         2.75245
           74321         2.71986
           74322         2.69568
           74323         2.68538
           74324         2.68255
           74325         2.71884
           74326         2.70283
           74327         2.73874
           74328         2.76532
           74329         2.74725
           74330         2.13274
           74331         2.18262
           74332         2.62313
           74333         2.62602
           74334         2.63516
           74335         2.63705
           74336         2.77701
           74337         2.80124
           74338         2.72233
           74339         2.71623
           74340         2.62886
           74341         2.61003
           74342         2.62114
           74343         2.60789
           74344         5.52581
           74345         2.94346
           74346         1.92366
           74347         3.19404
           74348         3.17232
           74349         3.19815
           74350         2.15212
           74351         3.37564
           74352         3.36555
           74353         3.30396
           74354         1.75260
           74355         1.99267
           74356         2.68154
           74357         2.70967
           74358         2.87747
           74359         2.85741
           74360         2.88680
           74361         1.89759
           74362         2.96415
           74363         3.07278
           74364         3.09853
           74365         3.13313
           74366         3.13832
           74367         3.13271
           74368         3.12735
           74369         2.99037
           74370         2.99750
           74371         2.94799
           74372         4.02136
           74373         4.12167
           74374         4.19083
           74375         4.12824
           74376         4.05116
           74377         3.92657
           74378         4.46234
           74379         4.23307
           74380         5.59008
           74381         2.96316
           74382         2.88686
           74383         3.40184
           74384         3.31395
           74385         3.25387
           74386         4.25764
           74387         4.26648
           74388         4.97872
           74389         4.72887
           74390         4.50252
           74391         4.63576
           74392         4.54492
           74393         3.73209
           74394         3.70089
           74395         5.58980
           74396         5.51305
           74397         5.39994
           74398         5.52199
           74399         5.53007
           74400         5.67740
           74401         3.19283
           74402         5.18546
           74403         5.19477
           74404         5.21092
           74405         5.33440
           74406         5.63956
           74407         2.82057
           74408         2.85487
           74409         3.45752
           74410         3.54973
           74411         3.54998
           74412         3.47731
           74413         3.69924
           74414         3.60284
           74415         2.70822
           74416         2.70934
           74417         2.70015
           74418         2.69783
           74419         2.70278
           74420         2.70068
           74421         2.70291
           74422         2.69819
           74423         2.70346
           74424         2.69822
           74425         2.69839
           74426         2.70297
           74427         2.70105
           74428         2.70556
           74429         2.70362
           74430         1.69012
           74431         1.60109
           74432         1.53613
           74433         1.89285
           74434         1.80594
           74435         1.76275
           74436         1.75884
           74437         1.84905
           74438         1.66093
           74439         3.59083
           74440         3.56199
           74441         3.64813
           74442         4.59862
           74443         4.90003
           74444         4.95857
           74445         3.96831
           74446         4.71345
           74447         4.83123
           74448         2.63104
           74449         2.62764
           74450         2.62756
           74451         3.92564
           74452         2.63546
           74453         2.63263
           74454         2.63490
           74455         2.64028
           74456         2.63732
           74457         2.63776
           74458         5.38394
           74459         3.99861
           74460         2.97842
           74461         3.02730
           74462         5.27675
           74463         3.05079
           74464         3.09086
           74465         3.11278
           74466         3.02973
           74467         3.15816
           74468         3.16913
           74469         3.08663
           74470         3.03190
           74471         3.13447
           74472         5.47872
           74473         5.43385
           74474         2.87606
           74475         5.49790
           74476         5.65777
           74477         5.58788
           74478         5.64437
           74479         5.56228
           74480         5.65436
           74481         5.58116
           74482         9.85868
           74483         9.63843
           74484         8.94372
           74485         9.15019
           74486         9.17853
           74487         7.97939
           74488         7.91290
           74489         8.79268
           74490         9.43618
           74491         4.41541
           74492         4.30614
           74493         4.29969
           74494         8.38406
           74495         4.01594
           74496         4.12074
           74497         8.41903
           74498         5.64936
           74499         5.64808
           74500         5.66231
           74501         5.65356
           74502         5.66632
           74503         5.62098
           74504         5.60461
           74505         5.66575
           74506         5.62734
           74507         5.67818
           74508         5.65650
           74509         5.69445
           74510         5.67864
           74511         4.23280
           74512         4.26051
           74513         4.19732
           74514         2.33253
           74515         2.41177
           74516         2.43288
           74517         2.39525
           74518         2.32466
           74519         2.33839
           74520         2.29816
           74521         4.19446
           74522         4.31371
           74523         4.25999
           74524         4.30740
           74525         4.18718
           74526         2.25841
           74527         1.11707
           74528         1.13690
           74529         1.08440
           74530         1.12392
           74531         1.17262
           74532         3.33397
           74533         3.40601
           74534         3.40569
           74535         3.25492
           74536         3.26769
           74537         3.30194
           74538         3.49101
           74539         3.52635
           74540         3.27231
           74541         5.94171
           74542         4.49343
           74543         4.41534
           74544         4.30607
           74545         4.41528
           74546         2.34770
           74547         6.09420
           74548         5.70558
           74549         5.76268
           74550         5.83247
           74551         5.48214
           74552         5.54823
           74553         5.55527
           74554         4.42848
           74555         2.99716
           74556         2.98399
           74557         4.38681
           74558         4.28931
           74559         4.47766
           74560         4.52713
           74561         3.72550
           74562         5.85406
           74563         3.00866
           74564         3.04528
           74565         3.04053
           74566         3.92298
           74567         3.99421
           74568         4.59566
           74569         2.91447
           74570         2.96761
           74571         2.97026
           74572         2.97035
           74573         2.95777
           74574         2.96002
           74575         2.93230
           74576         2.86778
           74577         2.87656
           74578         2.86836
           74579         3.00282
           74580         3.04225
           74581         3.90323
           74582         3.96123
           74583         3.96852
           74584         3.97874
           74585         4.04226
           74586         3.95083
           74587         3.61445
           74588         3.60092
           74589         3.69468
           74590         3.66147
           74591         3.77662
           74592         3.72828
           74593         3.49970
           74594         3.45296
           74595         6.59095
           74596         3.59676
           74597         3.55378
           74598         3.53597
           74599         2.69216
           74600         3.61970
           74601         3.57544
           74602         3.85742
           74603         1.81934
           74604         2.03722
           74605         1.99187
           74606         3.55128
           74607         2.13946
           74608         2.01858
           74609         3.48403
           74610         3.36105
           74611         3.41795
           74612         3.37151
           74613         2.05981
           74614         2.36452
           74615         2.34988
           74616         2.34095
           74617         2.74906
           74618         2.69770
           74619         2.73667
           74620         3.31436
           74621         2.71161
           74622         2.72840
           74623         2.73532
           74624         2.73530
           74625         2.71944
           74626         2.71310
           74627         3.12483
           74628         3.14262
           74629         3.18593
           74630         2.75227
           74631         2.75376
           74632         2.77113
           74633         2.73706
           74634         3.39646
           74635         3.45693
           74636         3.40555
           74637         3.35368
           74638         3.43210
           74639         3.20503
           74640         3.25682
           74641         3.28255
           74642         3.24693
           74643         4.97886
           74644         2.97758
           74645         2.96544
           74646         2.74431
           74647         2.76375
           74648         3.14783
           74649         2.74465
           74650         2.75599
           74651         2.73961
           74652         2.69632
           74653         2.72866
           74654         2.69969
           74655         2.68793
           74656         2.65899
           74657         2.65892
           74658         2.66176
           74659         2.66379
           74660         2.66700
           74661         3.11365
           74662         2.65641
           74663         3.13377
           74664         3.07701
           74665         2.99516
           74666         2.91568
           74667         2.88632
           74668         2.92046
           74669         2.93091
           74670         2.96348
           74671         2.92575
           74672         2.72674
           74673         2.63495
           74674         2.64115
           74675         3.10501
           74676         3.14296
           74677         2.77789
           74678         2.77408
           74679         2.85168
           74680         2.82798
           74681         2.83751
           74682         2.86214
           74683         2.85385
           74684         2.55936
           74685         2.56565
           74686         2.55093
           74687         2.88163
           74688         2.85173
           74689         3.26037
           74690         3.29421
           74691         3.23454
           74692         3.18584
           74693         2.65399
           74694         6.10757
           74695         5.92805
           74696         6.02186
           74697         5.58196
           74698         2.91484
           74699         2.88887
           74700         2.91696
           74701         2.90871
           74702         2.91597
           74703         5.54022
           74704         3.15072
           74705         2.92886
           74706         2.95022
           74707         2.93672
           74708         5.95524
           74709         2.59861
           74710         6.29850
           74711         6.29795
           74712         6.29850
           74713         2.69478
           74714         2.69249
           74715         2.71838
           74716         2.95084
           74717     61.4895E-03
           74718     60.2306E-03
           74719     78.4304E-03
           74720         2.86897
           74721     454.749E-03
           74722         5.54724
           74723         2.55002
           74724         2.73532
           74725         2.71185
           74726     261.151E-03
           74727         2.60363
           74728         2.57351
           74729         2.58645
           74730         2.58403
           74731         3.98707
           74732         4.00291
           74733         2.74190
           74734         2.70169
           74735         2.71427
           74736         2.70360
           74737         3.68547
           74738         3.94877
           74739         4.07049
           74740         2.55056
           74741         2.55983
           74742         2.55954
           74743         2.55099
           74744         2.53657
           74745         3.89046
           74746         3.99469
           74747         3.83463
           74748         2.97186
           74749         2.94805
           74750         2.60714
           74751         2.87554
           74752         2.89587
           74753         2.92855
           74754         2.63495
           74755         2.62356
           74756         2.56425
           74757         2.57029
           74758         2.56989
           74759         2.57100
           74760         3.02442
           74761         3.08074
           74762         3.05087
           74763         3.10614
           74764         3.03976
           74765         2.98371
           74766         2.97859
           74767         2.64854
           74768     56.7524E-03
           74769     58.5761E-03
           74770     45.2892E-03
           74771     47.1892E-03
           74772     60.7243E-03
           74773     37.0945E-03
           74774     19.3741E-03
           74775     35.0932E-03
           74776     40.7716E-03
           74777     44.9545E-03
           74778     36.2445E-03
           74779         6.22150
           74780         5.20897
           74781         6.36120
           74782         6.41975
           74783         5.20806
           74784         5.40938
           74785         5.59733
           74786         2.35028
           74787         2.31330
           74788         2.32108
           74789         2.54108
           74790         5.57191
           74791         2.53741
           74792         2.53732
           74793         2.58521
           74794         2.58994
           74795         2.57952
           74796         2.57768
           74797         2.57481
           74798         2.58825
           74799         5.19514
           74800         2.51821
           74801         2.47712
           74802         2.50509
           74803         2.48591
           74804         2.51297
           74805         2.50766
           74806         2.40760
           74807         2.40564
           74808         2.42142
           74809         2.42327
           74810         2.40970
           74811         2.57225
           74812         2.53768
           74813         2.46632
           74814         2.45060
           74815         2.45017
           74816         2.41432
           74817         2.46591
           74818         2.44047
           74819         2.57181
           74820         2.56846
           74821         2.56832
           74822         2.55652
           74823         2.54737
           74824         2.55999
           74825         5.21283
           74826         5.16074
           74827         5.20033
           74828         2.54889
           74829         2.55117
           74830         2.54829
           74831         2.50149
           74832         2.51134
           74833         2.50824
           74834         2.81094
           74835         2.73842
           74836         3.08243
           74837         2.98283
           74838         2.85244
           74839         2.75854
           74840         2.79325
           74841         2.69320
           74842         2.67242
           74843         2.82056
           74844         2.73349
           74845         2.64572
           74846         2.61435
           74847         2.61479
           74848         2.61423
           74849         2.61078
           74850         2.61024
           74851         2.61074
           74852         2.61657
           74853         2.57570
           74854         2.60809
           74855         2.60485
           74856         2.60631
           74857         2.57186
           74858         2.60453
           74859         2.60404
           74860         2.60897
           74861         2.60928
           74862         2.61232
           74863         2.60698
           74864         2.78007
           74865         2.80758
           74866         2.65994
           74867         2.67109
           74868         2.66871
           74869         2.46264
           74870         2.72333
           74871         3.00072
           74872         3.01981
           74873         2.58268
           74874         2.59096
           74875         2.73049
           74876         2.72413
           74877         2.71780
           74878         2.71476
           74879         2.69799
           74880         2.70611
           74881         2.65404
           74882         2.74479
           74883         2.77605
           74884         2.75959
           74885         2.79453
           74886         2.80677
           74887         2.76339
           74888         2.78345
           74889         2.61834
           74890         2.52878
           74891         2.85472
           74892         2.61270
           74893         2.59366
           74894         2.59826
           74895         2.69568
           74896         2.53743
           74897         2.57611
           74898         1.79202
           74899         2.22321
           74900         2.12449
           74901         2.92936
           74902         2.95309
           74903         2.38178
           74904         2.00118
           74905         2.25916
           74906         2.24498
           74907         2.19275
           74908         5.46159
           74909         5.45124
           74910         4.39630
           74911         4.30151
           74912         4.59100
           74913         3.12660
           74914         3.12033
           74915         3.07088
           74916         3.09726
           74917         5.21144
           74918         4.68873
           74919         4.19321
           74920         4.40398
           74921         4.29737
           74922         4.31442
           74923         4.76226
           74924         3.62783
           74925         3.29277
           74926         3.06172
           74927         3.01870
           74928         3.03580
           74929         2.88192
           74930     11.6359E-03
           74931     24.8571E-03
           74932         5.46582
           74933     49.5042E-03
           74934     21.1042E-03
           74935     22.2191E-03
           74936     41.9352E-03
           74937     16.1795E-03
           74938     16.6101E-03
           74939     25.2073E-03
           74940     14.9333E-03
           74941         3.15371
           74942         3.20647
           74943         3.21181
           74944         3.13995
           74945         3.16917
           74946     24.4101E-03
           74947         3.33816
           74948     79.2102E-03
           74949     55.0902E-03
           74950         6.83804
           74951         6.73917
           74952         6.92015
           74953         3.88792
           74954         3.99302
           74955         6.82486
           74956         6.86269
           74957         3.34088
           74958         3.56548
           74959         6.54431
           74960         6.63242
           74961         6.20231
           74962         6.33725
           74963         6.27048
           74964         3.33906
           74965         6.07710
           74966         6.44064
           74967         6.11093
           74968         5.92606
           74969         5.96833
           74970         3.56825
           74971         6.35858
           74972         6.31551
           74973         5.97495
           74974         5.82250
           74975         5.95819
           74976         6.06147
           74977         6.09290
           74978         4.70371
           74979         4.83803
           74980         6.00378
           74981         6.04179
           74982         6.12608
           74983         3.63104
           74984         6.03935
           74985         5.93463
           74986         5.99044
           74987         5.99533
           74988         6.10234
           74989         5.85758
           74990         5.81191
           74991         6.12090
           74992         3.47821
           74993         3.52085
           74994         3.92329
           74995         4.68266
           74996         4.68283
           74997         5.50977
           74998         5.50164
           74999         2.43798
           75000         4.17421
           75001         2.44410
           75002         4.23242
           75003         4.15500
           75004         2.35849
           75005         2.46607
           75006         2.45527
           75007         4.07377
           75008         3.97266
           75009         2.43716
           75010         2.43624
           75011         2.46948
           75012         2.44218
           75013         2.43738
           75014         2.43621
           75015         2.44165
           75016         4.38151
           75017         4.55054
           75018         2.44283
           75019         2.40201
           75020         4.91648
           75021         2.45579
           75022         2.43190
           75023         2.43528
           75024         2.44552
           75025         3.39961
           75026         2.42677
           75027         2.41648
           75028         4.99560
           75029         1.56926
           75030         4.43586
           75031         4.41259
           75032         4.49535
           75033         4.44512
           75034         4.28399
           75035         4.23379
           75036         5.04993
           75037         4.50416
           75038         4.06642
           75039         3.98823
           75040         4.12156
           75041         4.18469
           75042         2.99232
           75043         3.02231
           75044         5.23989
           75045         5.31407
           75046         5.20778
           75047         5.44574
           75048         5.40109
           75049         5.37100
           75050         5.34338
           75051         5.37421
           75052         3.89102
           75053         5.41130
           75054         5.57489
           75055         5.54395
           75056         3.35790
           75057         3.38617
           75058         3.40969
           75059         3.35055
           75060         3.32269
           75061         5.41265
           75062         3.32259
           75063         3.66522
           75064         5.49867
           75065         5.48704
           75066         5.73442
           75067         6.14859
           75068         6.40938
           75069         6.53021
           75070         3.54313
           75071         6.06490
           75072         5.69968
           75073         5.80922
           75074         5.59331
           75075         6.32215
           75076         6.07445
           75077         6.59538
           75078         6.27093
           75079         5.82666
           75080         5.46067
           75081         2.97482
           75082         2.94159
           75083         3.39296
           75084         2.69079
           75085         2.69055
           75086         2.69137
           75087         2.69373
           75088         2.68183
           75089         3.67350
           75090         3.63190
           75091         2.68950
           75092         2.68870
           75093         2.68369
           75094         3.10352
           75095         6.84453
           75096         2.84208
           75097         2.87198
           75098         7.23867
           75099         7.11334
           75100         2.73876
           75101         2.73086
           75102         2.74170
           75103     64.7677E-03
           75104     35.2908E-03
           75105     64.0785E-03
           75106     70.1906E-03
           75107     105.779E-03
           75108         2.71359
           75109     44.8477E-03
           75110     38.8157E-03
           75111     37.5277E-03
           75112     15.4200E-03
           75113         2.90680
           75114         2.92729
           75115         2.85409
           75116         2.66972
           75117         2.77123
           75118     40.6535E-03
           75119     53.2206E-03
           75120     22.8900E-03
           75121         8.24202
           75122         2.67066
           75123         2.65124
           75124         8.31014
           75125         8.10833
           75126         8.21606
           75127         8.32911
           75128         2.65461
           75129         2.67550
           75130         8.99760
           75131         8.58985
           75132         8.51134
           75133         2.68734
           75134         2.69676
           75135         2.68036
           75136         2.69211
           75137         1.37117
           75138         1.41422
           75139         1.36080
           75140         1.43429
           75141         1.38652
           75142         2.71107
           75143         2.68762
           75144         2.68905
           75145         2.75753
           75146         2.72334
           75147         2.80145
           75148         2.67740
           75149         2.67142
           75150         2.66210
           75151         1.29477
           75152         2.63298
           75153         2.62605
           75154         1.42015
           75155         1.43818
           75156         1.39843
           75157         2.66002
           75158         1.12838
           75159         1.09933
           75160         1.14793
           75161         1.37092
           75162         1.29641
           75163         2.54531
           75164         1.53468
           75165         1.45215
           75166         1.48258
           75167         1.41802
           75168         2.62528
           75169         2.61554
           75170         1.63913
           75171         1.65850
           75172         1.63532
           75173         1.57590
           75174         1.65881
           75175         2.57114
           75176         2.57277
           75177         2.56414
           75178         2.56481
           75179         2.57694
           75180         2.57170
           75181         2.56471
           75182         2.57221
           75183         1.73872
           75184         1.67396
           75185         2.57893
           75186         1.52273
           75187         3.09300
           75188         3.05727
           75189         3.05720
           75190         3.04255
           75191         3.07813
           75192         3.07792
           75193         3.12763
           75194         3.10238
           75195         3.14913
           75196         5.72257
           75197         3.01920
           75198         3.06223
           75199         3.05378
           75200         2.61477
           75201         2.59007
           75202         2.55775
           75203         2.56273
           75204         2.56044
           75205         2.57992
           75206         2.58761
           75207         2.58624
           75208         2.58008
           75209         2.57757
           75210         6.35992
           75211         6.45085
           75212         6.40740
           75213         6.40925
           75214         6.59016
           75215         6.52535
           75216         6.47868
           75217         2.57140
           75218         2.57105
           75219         2.56806
           75220         2.58634
           75221         2.57884
           75222         2.68537
           75223         6.55911
           75224         6.63358
           75225         6.52520
           75226         6.52631
           75227         6.55603
           75228         2.61633
           75229         2.60530
           75230         2.64338
           75231         2.63698
           75232         2.62480
           75233         2.66981
           75234         2.67157
           75235         2.67222
           75236         2.69093
           75237         2.67756
           75238         6.17953
           75239         6.27363
           75240         2.72164
           75241         2.65926
           75242         2.65837
           75243         2.65655
           75244         2.64723
           75245         2.63720
           75246         2.64244
           75247         2.70371
           75248         6.47978
           75249         2.67059
           75250         2.60695
           75251         2.60879
           75252         2.58669
           75253         5.52958
           75254         6.32227
           75255         6.42106
           75256         2.76533
           75257         2.77444
           75258         2.78339
           75259         6.31767
           75260         2.72894
           75261         2.55891
           75262         2.55138
           75263         2.55988
           75264         2.81231
           75265         2.82933
           75266         2.82570
           75267         2.66713
           75268         2.66835
           75269         2.66452
           75270         2.71334
           75271         2.73853
           75272         2.69788
           75273         2.69283
           75274         2.69660
           75275         2.69792
           75276         2.69963
           75277         2.68238
           75278         5.46631
           75279         2.73498
           75280         2.71276
           75281         2.82482
           75282         2.83494
           75283         2.67265
           75284         2.69114
           75285         2.69307
           75286         9.19856
           75287         11.1390
           75288         11.3885
           75289         3.69912
           75290         3.75381
           75291         3.73692
           75292         3.68256
           75293         2.74314
           75294         2.88265
           75295         2.88191
           75296         2.86503
           75297         2.88247
           75298         2.90138
           75299         3.85351
           75300         3.87078
           75301         2.89617
           75302         2.91104
           75303         2.88320
           75304         3.02326
           75305         2.98285
           75306         3.97440
           75307         3.98789
           75308         4.22112
           75309         4.15987
           75310         3.82508
           75311         3.84816
           75312         3.05897
           75313         3.05537
           75314         3.68808
           75315         3.76324
           75316         3.74233
           75317         3.77669
           75318         3.78120
           75319         3.80391
           75320         2.57535
           75321         1.39394
           75322         1.27238
           75323         2.95824
           75324         2.95459
           75325         3.00449
           75326         2.98650
           75327         3.33785
           75328         3.32473
           75329         3.11603
           75330         3.12899
           75331         2.97225
           75332         3.19059
           75333         1.70598
           75334         3.12303
           75335         2.12079
           75336         3.05687
           75337         3.03563
           75338         3.04469
           75339         3.21762
           75340         3.21143
           75341         3.17606
           75342         3.15367
           75343         3.18157
           75344         3.15090
           75345         2.69368
           75346         2.69926
           75347         2.69218
           75348         2.69226
           75349         2.69377
           75350         2.69662
           75351         2.69415
           75352         2.69576
           75353         2.70076
           75354         3.13422
           75355         3.45570
           75356         3.49011
           75357         3.43519
           75358         3.20071
           75359         3.20609
           75360         3.10810
           75361         2.70057
           75362         2.69540
           75363         2.69180
           75364         2.49528
           75365         2.51520
           75366         2.52755
           75367         2.52064
           75368         2.52497
           75369         2.51924
           75370         2.52774
           75371         2.51780
           75372         2.51753
           75373         2.51051
           75374         2.52282
           75375         3.54812
           75376         3.52792
           75377         3.48421
           75378         3.24390
           75379         3.22172
           75380         2.83985
           75381         2.80873
           75382         2.86302
           75383         3.36058
           75384         3.41005
           75385         3.45498
           75386         3.42874
           75387         3.89636
           75388         3.94700
           75389         2.87101
           75390         2.89815
           75391         2.83984
           75392         2.84344
           75393         3.63216
           75394         3.49932
           75395         3.57732
           75396         3.21029
           75397         3.85973
           75398         3.91236
           75399         3.92430
           75400         3.87042
           75401         3.81966
           75402         2.98797
           75403         2.91583
           75404         2.92412
           75405         5.01646
           75406         5.00650
           75407         5.14382
           75408         5.08935
           75409         3.78759
           75410         5.01207
           75411         4.99460
           75412         5.06011
           75413         4.88200
           75414         4.76816
           75415         4.58896
           75416         5.09738
           75417         5.16876
           75418         4.95452
           75419         4.86868
           75420         4.83730
           75421         6.09657
           75422         6.17770
           75423         6.35726
           75424         6.31958
           75425         6.13838
           75426         6.40009
           75427         6.41592
           75428         6.39035
           75429         6.44413
           75430         4.07250
           75431         4.12137
           75432         6.07446
           75433         6.04938
           75434         1.42924
           75435         2.39566
           75436         4.60594
           75437     987.913E-03
           75438         2.76453
           75439         2.77997
           75440         2.76057
           75441         2.77564
           75442         2.76067
           75443         2.78285
           75444         2.77846
           75445         2.80038
           75446         2.79856
           75447     919.026E-03
           75448     719.026E-03
           75449     726.015E-03
           75450         1.09124
           75451     998.942E-03
           75452     999.278E-03
           75453         2.74785
           75454         2.73488
           75455     770.402E-03
           75456     805.229E-03
           75457         1.09382
           75458         2.77349
           75459         2.77479
           75460         2.77035
           75461         2.75268
           75462         2.76372
           75463         2.42306
           75464         2.44757
           75465         2.45463
           75466     813.374E-03
           75467         2.77284
           75468         2.83907
           75469         2.81502
           75470     818.657E-03
           75471     793.446E-03
           75472     790.925E-03
           75473     719.334E-03
           75474     720.970E-03
           75475     873.931E-03
           75476     779.345E-03
           75477     805.464E-03
           75478         2.75936
           75479         2.76081
           75480         2.77700
           75481         6.73169
           75482         6.49187
           75483         6.58481
           75484         6.68889
           75485         1.14636
           75486         1.03231
           75487         6.33697
           75488         6.40606
           75489         5.44248
           75490         6.05961
           75491         6.08241
           75492         6.16193
           75493         6.27649
           75494         6.03261
           75495         5.89780
           75496         6.06420
           75497         6.20087
           75498         5.93502
           75499         5.96135
           75500         5.80007
           75501         6.48967
           75502         6.62962
           75503     742.725E-03
           75504     647.072E-03
           75505         6.56398
           75506         6.37269
           75507         6.46574
           75508     778.596E-03
           75509         6.13073
           75510         6.27155
           75511         2.63232
           75512         2.61166
           75513         2.64666
           75514         2.63095
           75515         2.65119
           75516         2.68740
           75517         2.66639
           75518         2.68707
           75519         2.68768
           75520         2.70872
           75521         2.65298
           75522         2.67043
           75523         2.70666
           75524         2.72889
           75525         2.72925
           75526     164.016E-03
           75527     120.054E-03
           75528     177.951E-03
           75529     167.126E-03
           75530         2.55014
           75531         2.53511
           75532         2.54045
           75533         2.55564
           75534     850.996E-03
           75535     853.823E-03
           75536     840.471E-03
           75537     983.352E-03
           75538     974.263E-03
           75539     995.870E-03
           75540         3.47266
           75541         3.59059
           75542         3.68522
           75543         3.63562
           75544         3.69958
           75545         3.65513
           75546         1.27289
           75547     989.660E-03
           75548         1.15148
           75549         1.28905
           75550     969.580E-03
           75551         3.69799
           75552         3.60422
           75553         3.65954
           75554         3.39856
           75555         3.53883
           75556         3.55427
           75557         3.51026
           75558         3.55452
           75559         3.53929
           75560         3.58395
           75561         3.39687
           75562         3.37986
           75563         3.47469
           75564         3.34544
           75565         3.50085
           75566         3.55597
           75567         3.51246
           75568         3.45770
           75569         3.41280
           75570         3.31793
           75571     878.037E-03
           75572         2.61933
           75573         2.62850
           75574         2.64949
           75575         2.64144
           75576         2.61760
           75577         2.63415
           75578         7.23564
           75579         7.74849
           75580         1.21814
           75581         7.32831
           75582         7.06945
           75583         7.58007
           75584         6.63081
           75585         6.82992
           75586     780.088E-03
           75587     692.797E-03
           75588         5.31999
           75589         5.37229
           75590     771.937E-03
           75591     441.625E-03
           75592         6.97555
           75593         1.06784
           75594         1.04272
           75595         1.00844
           75596         1.30601
           75597         1.00273
           75598         1.02467
           75599         1.02940
           75600         1.07358
           75601         1.02833
           75602         1.12642
           75603     959.870E-03
           75604     909.739E-03
           75605     764.841E-03
           75606     920.842E-03
           75607     868.726E-03
           75608     863.447E-03
           75609     915.419E-03
           75610     872.786E-03
           75611         1.07173
           75612         1.01932
           75613     952.051E-03
           75614         1.00463
           75615     723.599E-03
           75616     706.514E-03
           75617         1.74392
           75618         1.56667
           75619     945.930E-03
           75620     889.818E-03
           75621     906.007E-03
           75622     857.588E-03
           75623     897.781E-03
           75624     990.077E-03
           75625         1.06902
           75626         6.50965
           75627         6.64743
           75628         6.60010
           75629         6.77532
           75630         1.86269
           75631         2.29890
           75632         2.32792
           75633         7.57322
           75634         7.26848
           75635         6.23854
           75636         6.70885
           75637         6.70637
           75638         2.11724
           75639         6.57494
           75640         1.72525
           75641         1.87669
           75642         1.54438
           75643         1.74749
           75644         1.51897
           75645         1.66579
           75646         1.74030
           75647         3.31817
           75648         2.39483
           75649         2.76139
           75650         2.53660
           75651         1.12780
           75652         3.59350
           75653         2.47209
           75654         1.34943
           75655         1.36106
           75656         1.29053
           75657         1.27815
           75658         1.53991
           75659         1.40873
           75660         1.43043
           75661         1.68019
           75662         1.32016
           75663         2.18475
           75664         2.20457
           75665         2.28893
           75666         2.16213
           75667         2.27142
           75668         1.23259
           75669         5.52593
           75670         5.62463
           75671         5.76511
           75672         5.80361
           75673         1.52905
           75674         1.72356
           75675         2.59708
           75676         2.46850
           75677         1.85070
           75678         1.88223
           75679         1.64205
           75680     877.719E-03
           75681     731.638E-03
           75682         1.93702
           75683         1.18198
           75684         1.35882
           75685     353.734E-03
           75686     420.394E-03
           75687         1.24469
           75688         1.11835
           75689     604.899E-03
           75690     542.684E-03
           75691         5.64437
           75692         5.63363
           75693         1.93755
           75694         1.87541
           75695         1.10406
           75696     971.434E-03
           75697     452.242E-03
           75698     398.353E-03
           75699     359.179E-03
           75700         1.79979
           75701         1.68856
           75702         5.49930
           75703         1.01731
           75704         1.05320
           75705     878.908E-03
           75706         5.52903
           75707         4.22652
           75708         4.28171
           75709         4.17690
           75710         4.30208
           75711         4.18704
           75712         4.19549
           75713         4.43297
           75714         4.49527
           75715         4.38491
           75716     609.495E-03
           75717     600.587E-03
           75718         4.40547
           75719         4.32421
           75720         4.26308
           75721         5.61959
           75722         5.55282
           75723         5.58160
           75724         5.73153
           75725         5.69617
           75726         5.64618
           75727         5.71417
           75728         5.57644
           75729         5.66599
           75730         5.84965
           75731         5.48200
           75732         5.50361
           75733         1.03155
           75734     873.961E-03
           75735         5.50382
           75736         3.00451
           75737         3.05395
           75738         3.03419
           75739         3.18396
           75740         3.22120
           75741         3.25399
           75742         3.19625
           75743         3.21626
           75744     393.117E-03
           75745     476.659E-03
           75746         3.15430
           75747         3.16680
           75748         3.18548
           75749         3.22489
           75750         3.20061
           75751     292.949E-03
           75752     474.462E-03
           75753     543.896E-03
           75754         4.06285
           75755         3.99449
           75756         5.49413
           75757         5.50947
           75758     147.251E-03
           75759     117.373E-03
           75760     402.417E-03
           75761     200.962E-03
           75762         3.90145
           75763     34.4519E-03
           75764     36.4026E-03
           75765         3.36290
           75766         3.19683
           75767         3.11989
           75768         3.96364
           75769         3.67816
           75770         4.61892
           75771         4.73194
           75772         4.68954
           75773     238.604E-03
           75774     253.536E-03
           75775     229.668E-03
           75776     208.211E-03
           75777     267.548E-03
           75778     65.8397E-03
           75779     45.3561E-03
           75780     63.6626E-03
           75781     181.042E-03
           75782     194.858E-03
           75783         4.86603
           75784     10.6903E-03
           75785     26.5919E-03
           75786     33.1836E-03
           75787     272.371E-03
           75788     254.333E-03
           75789     90.2678E-03
           75790         3.47265
           75791         3.43656
           75792         3.48933
           75793     29.6505E-03
           75794     25.4887E-03
           75795     23.8896E-03
           75796     24.9151E-03
           75797     27.3661E-03
           75798     893.598E-03
           75799         3.62832
           75800         3.58280
           75801     86.1307E-03
           75802         3.62531
           75803         3.50177
           75804     28.2117E-03
           75805         3.62837
           75806         3.62043
           75807         3.71663
           75808         3.69449
           75809     64.2799E-03
           75810     43.9213E-03
           75811     45.4171E-03
           75812     1.35096E-03
           75813     20.3825E-03
           75814         4.01049
           75815         6.31252
           75816         6.29914
           75817         6.27420
           75818         6.28727
           75819         6.11606
           75820         6.30054
           75821         6.24608
           75822         6.77973
           75823         6.59744
           75824         6.49546
           75825         6.56944
           75826         6.53505
           75827     28.3859E-03
           75828         6.35586
           75829         6.51764
           75830     800.590E-03
           75831     836.155E-03
           75832     32.5209E-03
           75833     159.342E-03
           75834     19.0113E-03
           75835     657.574E-03
           75836     620.356E-03
           75837     690.227E-03
           75838     13.5366E-03
           75839     655.089E-03
           75840     713.852E-03
           75841     667.481E-03
           75842         5.94649
           75843     81.3897E-03
           75844     25.3548E-03
           75845     294.122E-03
           75846     281.959E-03
           75847     233.978E-03
           75848     54.2556E-03
           75849     19.3722E-03
           75850     27.2743E-03
           75851     25.5439E-03
           75852     24.1255E-03
           75853     18.7024E-03
           75854     50.8886E-03
           75855         5.80215
           75856     18.0444E-03
           75857     19.8312E-03
           75858     19.3064E-03
           75859         5.72194
           75860         5.70612
           75861     14.8158E-03
           75862     15.5644E-03
           75863     18.2891E-03
           75864     17.8225E-03
           75865     14.6189E-03
           75866         5.74631
           75867         5.76679
           75868         5.81255
           75869         5.78197
           75870         5.83423
           75871         5.83440
           75872         5.79257
           75873         5.81280
           75874     14.8620E-03
           75875     12.0381E-03
           75876     13.2797E-03
           75877     17.5328E-03
           75878         4.08928
           75879         3.70891
           75880     47.0554E-03
           75881     30.0116E-03
           75882     28.2954E-03
           75883     29.5711E-03
           75884     10.0212E-03
           75885     148.189E-03
           75886     128.921E-03
           75887         3.70885
           75888         3.20140
           75889         2.97474
           75890         3.22438
           75891         3.46864
           75892         2.97637
           75893         3.42163
           75894         3.46876
           75895     27.4679E-03
           75896     35.7970E-03
           75897     20.0420E-03
           75898     149.183E-03
           75899     160.135E-03
           75900     198.218E-03
           75901     190.001E-03
           75902     148.670E-03
           75903     185.596E-03
           75904     716.404E-03
           75905     130.730E-03
           75906     93.7687E-03
           75907     81.9266E-03
           75908     151.296E-03
           75909     142.393E-03
           75910     167.671E-03
           75911     184.311E-03
           75912     15.9038E-03
           75913     15.1802E-03
           75914     4.99854E-03
           75915     14.1209E-03
           75916     9.45995E-03
           75917     14.6612E-03
           75918     10.5225E-03
           75919     352.099E-03
           75920     198.562E-03
           75921     268.336E-03
           75922     53.6737E-03
           75923     86.1391E-03
           75924     53.9356E-03
           75925     74.1614E-03
           75926     49.4093E-03
           75927     73.3377E-03
           75928     52.6213E-03
           75929     582.095E-03
           75930     509.960E-03
           75931     468.377E-03
           75932     524.810E-03
           75933     713.548E-03
           75934     110.510E-03
           75935     48.4697E-03
           75936     71.2187E-03
           75937     48.4937E-03
           75938     51.1186E-03
           75939         5.46209
           75940         5.61157
           75941         5.45590
           75942         5.54762
           75943         5.52280
           75944         5.69446
           75945         5.45878
           75946     439.329E-03
           75947     394.487E-03
           75948     445.673E-03
           75949         5.37582
           75950         5.40295
           75951         5.36111
           75952         5.33536
           75953         5.28023
           75954         5.46856
           75955         5.43897
           75956     737.200E-03
           75957         5.36924
           75958         5.34444
           75959         6.71675
           75960         6.73622
           75961         6.73379
           75962         6.64756
           75963         6.80714
           75964         6.92919
           75965         7.11327
           75966     612.542E-03
           75967         6.50456
           75968         6.91412
           75969         6.80310
           75970     266.947E-03
           75971     615.353E-03
           75972     789.168E-03
           75973         2.61091
           75974         2.60318
           75975         2.60898
           75976         2.60552
           75977         5.88494
           75978         2.64371
           75979     398.496E-03
           75980         5.64784
           75981     373.551E-03
           75982     646.550E-03
           75983     670.415E-03
           75984         3.28320
           75985         3.38265
           75986         3.27676
           75987         3.32228
           75988         3.22573
           75989         3.32720
           75990         3.01618
           75991         3.17574
           75992         3.27628
           75993         3.24843
           75994         3.27040
           75995         3.22518
           75996         1.79600
           75997         1.78588
           75998         2.13248
           75999         2.12558
           76000         1.68498
           76001         1.41151
           76002         2.12810
           76003         2.13159
           76004         1.48945
           76005         2.14575
           76006         2.14800
           76007         2.19447
           76008         2.08833
           76009         2.10829
           76010         5.44092
           76011         2.24529
           76012         2.20467
           76013         2.19333
           76014         7.43015
           76015         8.37981
           76016         8.71523
           76017         7.99415
           76018         7.73965
           76019         3.70784
           76020         6.30583
           76021         8.59700
           76022         4.92493
           76023         4.10250
           76024         3.10900
           76025         7.75350
           76026         3.44265
           76027         3.44429
           76028         3.45101
           76029         3.08048
           76030         3.28795
           76031         3.35986
           76032         3.37577
           76033         3.43332
           76034         2.78682
           76035         2.04754
           76036         2.15698
           76037         3.26802
           76038         2.90296
           76039         2.95665
           76040         3.69234
           76041         3.72457
           76042         2.56044
           76043         2.56478
           76044         1.54184
           76045         1.74672
           76046         2.71118
           76047         2.65770
           76048         2.53863
           76049         5.53354
           76050         5.48520
           76051         2.64065
           76052         5.58876
           76053     880.337E-03
           76054         5.71922
           76055         5.74901
           76056         5.61404
           76057         5.49085
           76058         2.25160
           76059         2.00893
           76060         5.59153
           76061         5.56959
           76062         5.58353
           76063         5.59711
           76064         5.58326
           76065         5.59947
           76066     703.554E-03
           76067         5.50878
           76068         5.51246
           76069         5.47293
           76070         5.38643
           76071         1.58675
           76072         1.56364
           76073         8.67107
           76074         8.48373
           76075         8.48736
           76076         8.83270
           76077         9.03565
           76078         9.02264
           76079         8.32614
           76080         8.18461
           76081         8.15206
           76082         1.63068
           76083         1.57355
           76084         1.55160
           76085         1.33053
           76086         1.27760
           76087         8.94465
           76088         9.13113
           76089         9.13165
           76090     685.636E-03
           76091     806.742E-03
           76092         8.02402
           76093         8.34003
           76094         8.17909
           76095         8.14492
           76096         2.86979
           76097         2.89939
           76098         2.89415
           76099         2.88004
           76100         2.89311
           76101         2.86991
           76102         2.89901
           76103         1.34706
           76104         1.45621
           76105         1.32813
           76106         1.44483
           76107         1.80159
           76108         1.81533
           76109     719.726E-03
           76110     156.294E-03
           76111         1.58448
           76112         1.06493
           76113     884.446E-03
           76114         1.86431
           76115         1.85614
           76116         1.88334
           76117         1.82411
           76118         1.92929
           76119         1.98433
           76120         4.89724
           76121         5.04065
           76122         4.96537
           76123         4.95955
           76124     201.419E-03
           76125     215.565E-03
           76126     230.229E-03
           76127     267.663E-03
           76128         5.08412
           76129         4.77868
           76130     587.423E-03
           76131     581.221E-03
           76132         5.06983
           76133         5.01397
           76134         5.04840
           76135         5.19013
           76136         5.21425
           76137         5.25885
           76138         5.19481
           76139         5.16865
           76140     245.581E-03
           76141     257.529E-03
           76142     299.135E-03
           76143         5.29656
           76144         5.26303
           76145         5.29734
           76146         5.26421
           76147         5.29624
           76148         5.26019
           76149         5.24288
           76150         5.21403
           76151     223.173E-03
           76152     174.882E-03
           76153     65.0714E-03
           76154     37.7919E-03
           76155     501.485E-03
           76156     541.002E-03
           76157     181.413E-03
           76158     227.302E-03
           76159     283.053E-03
           76160     260.967E-03
           76161     220.095E-03
           76162         2.61600
           76163         2.61929
           76164         2.61755
           76165         2.61837
           76166         2.62483
           76167         2.62621
           76168         2.62391
           76169     64.5632E-03
           76170         2.61952
           76171         2.62957
           76172         2.62393
           76173         2.62538
           76174         2.62418
           76175         2.62139
           76176     990.829E-03
           76177     179.655E-03
           76178         1.01496
           76179         1.10549
           76180         1.04458
           76181         1.04172
           76182         1.01891
           76183         3.70379
           76184         1.02603
           76185         1.18324
           76186         1.10619
           76187         1.11044
           76188         1.19097
           76189         1.03389
           76190         3.13678
           76191         3.15335
           76192         3.70833
           76193         3.40731
           76194         3.39566
           76195         3.69905
           76196         3.60474
           76197         3.61558
           76198         3.40059
           76199         2.26885
           76200         7.25151
           76201         5.20026
           76202         5.16677
           76203         5.00012
           76204         5.03234
           76205         5.05094
           76206         2.78679
           76207         2.79990
           76208         3.18931
           76209         9.78767
           76210         4.77646
           76211         2.86737
           76212         5.01375
           76213         5.47116
           76214         5.67444
           76215         3.79498
           76216         3.90919
           76217         3.70765
           76218         3.71708
           76219         5.33435
           76220         5.48967
           76221         4.89262
           76222         4.12971
           76223         4.20107
           76224         4.27606
           76225         4.40637
           76226         5.39616
           76227         2.87849
           76228         5.25294
           76229         3.68033
           76230         3.99892
           76231         3.95214
           76232         5.26501
           76233         5.27565
           76234     16.3347E-03
           76235     19.7367E-03
           76236     16.5397E-03
           76237     11.7879E-03
           76238     11.0641E-03
           76239     11.0678E-03
           76240         3.31310
           76241     18.3471E-03
           76242     19.3775E-03
           76243     16.5350E-03
           76244         2.58412
           76245         2.57607
           76246         2.57974
           76247         2.57007
           76248         2.56714
           76249         2.57961
           76250         2.83378
           76251         2.81288
           76252         3.10714
           76253         2.56141
           76254         2.58730
           76255         2.57408
           76256         2.61429
           76257         2.61894
           76258         2.61371
           76259         2.59905
           76260         2.60720
           76261         2.61134
           76262         2.61780
           76263         2.73406
           76264         2.84068
           76265         2.85308
           76266         2.59527
           76267         2.59996
           76268         2.57479
           76269         2.57908
           76270         2.54849
           76271         2.56112
           76272         2.62954
           76273         2.63070
           76274         2.67175
           76275         2.62319
           76276         2.98938
           76277         3.03992
           76278         3.05789
           76279         3.03627
           76280         2.98734
           76281         2.72257
           76282         2.68056
           76283         2.68777
           76284         2.74645
           76285         2.91680
           76286         2.94236
           76287         2.96069
           76288         2.97219
           76289         2.94557
           76290         2.48050
           76291         2.48374
           76292         2.49676
           76293         2.97636
           76294         3.02635
           76295         3.00539
           76296         3.00994
           76297         2.98661
           76298         2.97548
           76299         3.01086
           76300         2.98698
           76301         2.91279
           76302         2.94365
           76303         2.91739
           76304         2.95480
           76305         2.98769
           76306         2.96571
           76307         2.36733
           76308         5.22081
           76309         5.13811
           76310         5.03342
           76311         7.43631
           76312         2.07006
           76313         5.72723
           76314         5.92683
           76315         5.99670
           76316         1.95286
           76317         2.27415
           76318         2.25452
           76319         2.26443
           76320         2.55218
           76321         2.53264
           76322         6.05563
           76323         6.24566
           76324         5.97344
           76325         5.95274
           76326         6.35391
           76327         6.25317
           76328         6.51799
           76329         2.01973
           76330         2.04507
           76331         6.42140
           76332         6.76487
           76333         2.29855
           76334         2.33635
           76335         6.90817
           76336         1.98510
           76337         1.95118
           76338         6.03808
           76339         6.24181
           76340         2.09241
           76341         2.14365
           76342         2.14967
           76343         2.15213
           76344         4.87335
           76345         2.27217
           76346         2.22504
           76347         5.09176
           76348         2.21270
           76349         2.21980
           76350         4.82918
           76351         2.33279
           76352         2.29973
           76353         2.32639
           76354         2.32961
           76355         2.36210
           76356         5.19327
           76357         5.12839
           76358         5.15442
           76359         5.35333
           76360         2.16245
           76361         2.19051
           76362         2.14044
           76363         2.19962
           76364         2.17004
           76365         5.35281
           76366         5.20588
           76367         5.39497
           76368         5.49315
           76369         2.21454
           76370         2.24705
           76371         4.85812
           76372         4.68354
           76373         5.04859
           76374         2.23319
           76375         5.31294
           76376         5.28288
           76377         2.12331
           76378         2.20247
           76379         2.16978
           76380         2.17344
           76381         2.43662
           76382         2.49731
           76383         2.23040
           76384         2.17035
           76385         2.24561
           76386         2.29239
           76387         2.26582
           76388         5.63145
           76389         5.65320
           76390         5.71414
           76391         5.71088
           76392         5.65163
           76393         5.67336
           76394         5.75206
           76395         5.81797
           76396         5.81734
           76397         5.83895
           76398         5.77499
           76399         5.80476
           76400         5.87254
           76401         5.82726
           76402         5.81575
           76403         2.15888
           76404         5.82139
           76405         5.75540
           76406         2.61595
           76407         2.65948
           76408         2.45651
           76409         2.42577
           76410         2.43591
           76411         2.44847
           76412         2.76047
           76413         2.75846
           76414         2.74733
           76415         2.80611
           76416         8.06653
           76417         7.77915
           76418         2.24565
           76419         2.44295
           76420         2.41152
           76421         4.88964
           76422         2.29263
           76423         2.29838
           76424         2.50991
           76425         2.59174
           76426         2.63200
           76427         2.59322
           76428         2.60506
           76429         2.65594
           76430         2.28705
           76431         2.31956
           76432         2.40832
           76433         2.38603
           76434         2.39479
           76435         2.55568
           76436         2.76691
           76437         2.72874
           76438         2.80572
           76439         2.54664
           76440         2.54907
           76441         2.55897
           76442         5.06340
           76443         5.14444
           76444         5.12803
           76445         5.15402
           76446         2.49283
           76447         2.53492
           76448         2.53098
           76449         6.26174
           76450         6.05250
           76451         3.13539
           76452         3.11324
           76453         8.37618
           76454         8.26823
           76455         8.43703
           76456         2.62399
           76457         7.98715
           76458         8.03072
           76459         2.72064
           76460         2.94725
           76461         2.41433
           76462         2.43783
           76463         8.84026
           76464         3.57286
           76465         3.44763
           76466         3.54995
           76467         3.80117
           76468         3.72479
           76469         3.80107
           76470         8.18932
           76471         8.36760
           76472         2.80833
           76473         2.79058
           76474         8.70239
           76475         8.70885
           76476         8.63011
           76477         8.36069
           76478         2.57186
           76479         2.56542
           76480         2.57155
           76481         2.56807
           76482         2.57780
           76483         2.56770
           76484         2.55927
           76485         2.54899
           76486         2.53979
           76487         2.52898
           76488         2.52771
           76489         3.10521
           76490         2.47245
           76491         2.45794
           76492         2.47002
           76493         2.65867
           76494         2.66187
           76495         2.65954
           76496         5.67271
           76497         5.74617
           76498         5.51612
           76499         5.47087
           76500         2.57544
           76501         2.50874
           76502         2.55247
           76503         2.46769
           76504         2.43901
           76505         3.47827
           76506     915.134E-03
           76507     549.098E-03
           76508     727.628E-03
           76509     537.284E-03
           76510         5.23570
           76511     899.823E-03
           76512         1.63495
           76513         4.33018
           76514         2.71439
           76515         2.69813
           76516         2.66606
           76517         2.71342
           76518         2.73257
           76519         2.66584
           76520         2.71479
           76521         2.69646
           76522         4.64120
           76523         4.48830
           76524         5.13732
           76525         1.83528
           76526         1.56385
           76527         1.97948
           76528         2.69291
           76529         2.74614
           76530         5.21582
           76531         2.64719
           76532         2.70042
           76533         2.64564
           76534         2.59489
           76535         2.62938
           76536         2.50852
           76537         2.56324
           76538         2.55379
           76539         2.52453
           76540         2.08562
           76541         2.74868
           76542         2.76932
           76543         2.48697
           76544         2.51376
           76545     723.671E-03
           76546     698.423E-03
           76547     703.655E-03
           76548     759.643E-03
           76549     667.367E-03
           76550     558.328E-03
           76551     543.222E-03
           76552     617.402E-03
           76553     586.321E-03
           76554         1.65187
           76555     705.120E-03
           76556     707.466E-03
           76557     622.933E-03
           76558     591.799E-03
           76559     656.425E-03
           76560         2.94277
           76561         6.92221
           76562         6.53545
           76563         7.57533
           76564         8.42943
           76565         8.09419
           76566         2.83551
           76567         2.54127
           76568         2.62213
           76569         2.54133
           76570         2.66064
           76571     391.279E-03
           76572         1.27712
           76573         5.22387
           76574         1.54799
           76575     935.124E-03
           76576         2.89405
           76577         2.86306
           76578         2.24089
           76579         3.26169
           76580         2.85428
           76581         4.61965
           76582         4.71828
           76583         4.75532
           76584         4.74403
           76585         4.71437
           76586         4.64765
           76587         1.02630
           76588         1.18211
           76589         1.38022
           76590         5.13176
           76591         4.58009
           76592         4.51195
           76593         4.61140
           76594         4.56492
           76595         1.40060
           76596         4.31365
           76597         1.28566
           76598         1.44296
           76599         1.39111
           76600         4.45296
           76601         4.47540
           76602         4.58693
           76603         2.02204
           76604         2.05327
           76605         1.92674
           76606         2.07900
           76607         4.53181
           76608         4.80408
           76609         4.77781
           76610     954.480E-03
           76611     331.277E-03
           76612         17.3353
           76613         4.70010
           76614         1.08708
           76615         1.06477
           76616         1.07678
           76617         5.42533
           76618         1.05265
           76619         1.36195
           76620         1.47996
           76621         5.65798
           76622         5.63286
           76623         5.68072
           76624         5.70773
           76625     965.308E-03
           76626         5.62879
           76627         5.59718
           76628         5.57789
           76629         5.60603
           76630         2.75694
           76631         2.76375
           76632         1.52666
           76633         1.59135
           76634         1.68914
           76635         1.79944
           76636         1.26665
           76637         5.63004
           76638         4.59109
           76639         4.75556
           76640         2.67408
           76641         2.67932
           76642         2.61966
           76643         2.64515
           76644         2.64004
           76645     377.287E-03
           76646     348.749E-03
           76647     296.730E-03
           76648     174.430E-03
           76649         10.8763
           76650         11.8221
           76651         10.5927
           76652         10.1094
           76653         10.3602
           76654         2.64784
           76655         2.65430
           76656         2.62619
           76657         4.67844
           76658         4.84206
           76659         3.82757
           76660         1.67183
           76661         1.18247
           76662     969.609E-03
           76663     932.522E-03
           76664     962.577E-03
           76665         1.15306
           76666         1.11621
           76667         1.08477
           76668         1.11298
           76669         1.86802
           76670         1.20504
           76671         1.17125
           76672         1.14741
           76673     218.141E-03
           76674         1.04838
           76675         1.08499
           76676         1.26988
           76677         1.23964
           76678         1.27105
           76679         1.10239
           76680         1.16535
           76681         1.75490
           76682         6.77552
           76683         3.64673
           76684         5.30427
           76685         5.28492
           76686         3.79059
           76687         3.57209
           76688         3.54120
           76689         3.51100
           76690         2.61460
           76691         2.55714
           76692         2.35723
           76693     658.977E-03
           76694         1.59998
           76695         1.78704
           76696         1.84425
           76697         1.70455
           76698         1.58511
           76699         1.57283
           76700         1.44077
           76701         2.68263
           76702         2.67450
           76703     246.266E-03
           76704     229.435E-03
           76705     286.327E-03
           76706         2.29447
           76707         2.26339
           76708         2.63615
           76709         2.43755
           76710         3.91284
           76711         1.22652
           76712         1.25108
           76713     960.047E-03
           76714         2.65749
           76715         2.66429
           76716         2.66421
           76717         2.65147
           76718     964.142E-03
           76719         2.67961
           76720         2.68543
           76721         2.67476
           76722         2.69677
           76723         2.67918
           76724         2.37396
           76725         2.68959
           76726         2.37543
           76727         2.36173
           76728         2.37741
           76729         2.50737
           76730         2.38774
           76731         2.23702
           76732         2.67881
           76733         2.65496
           76734         2.37748
           76735         2.41439
           76736         2.39931
           76737         3.49998
           76738         3.60349
           76739         2.28239
           76740         2.33665
           76741         2.21934
           76742         2.24362
           76743         2.18387
           76744         3.80270
           76745         2.34748
           76746         2.03057
           76747         1.79440
           76748         4.05140
           76749         3.88463
           76750         2.29594
           76751         2.33504
           76752         2.33652
           76753         2.35716
           76754         2.31936
           76755         2.36269
           76756         2.29635
           76757         2.18967
           76758         3.45301
           76759     148.988E-03
           76760     185.781E-03
           76761     144.034E-03
           76762     144.059E-03
           76763     109.189E-03
           76764         3.28311
           76765     200.743E-03
           76766     190.017E-03
           76767     174.882E-03
           76768     204.560E-03
           76769     146.277E-03
           76770     156.709E-03
           76771     145.353E-03
           76772     134.740E-03
           76773         3.14335
           76774         2.94762
           76775     171.997E-03
           76776     165.996E-03
           76777         2.87234
           76778         2.98657
           76779         5.77032
           76780         5.76542
           76781         5.74262
           76782         5.71846
           76783         5.74426
           76784         5.77040
           76785         5.74690
           76786         5.76767
           76787         5.76695
           76788         5.79591
           76789         5.74619
           76790         4.57366
           76791         5.74939
           76792         5.73588
           76793         5.73357
           76794         5.76462
           76795         5.78767
           76796         5.80900
           76797         3.42918
           76798         3.60233
           76799         3.51716
           76800         3.57442
           76801         3.54501
           76802         2.82542
           76803         3.57201
           76804         3.57644
           76805         5.12757
           76806         5.05100
           76807         5.09519
           76808         3.47215
           76809         3.36969
           76810         3.42172
           76811         3.45133
           76812         3.54389
           76813         4.76052
           76814         4.36335
           76815         4.67704
           76816         4.12770
           76817         4.24996
           76818         2.49505
           76819         2.48139
           76820         7.41958
           76821         7.46172
           76822         7.72407
           76823         3.26566
           76824         3.41635
           76825         2.52746
           76826         2.52062
           76827         4.04267
           76828         4.11718
           76829         2.49100
           76830         2.49568
           76831         2.50328
           76832         2.51078
           76833         2.49823
           76834         2.51774
           76835         4.60059
           76836         4.64246
           76837         3.53419
           76838         4.47995
           76839         4.45132
           76840         4.41407
           76841         3.97223
           76842         2.50406
           76843         2.50007
           76844         1.05444
           76845         1.13705
           76846         1.20726
           76847         1.15677
           76848         4.20391
           76849         1.10775
           76850         1.13428
           76851         1.15790
           76852         4.27542
           76853         4.33747
           76854         4.16873
           76855         1.08577
           76856         1.11004
           76857         1.00305
           76858         2.46349
           76859         2.50125
           76860         2.45793
           76861         2.48560
           76862         2.44594
           76863         2.47690
           76864         2.41698
           76865         5.11659
           76866         2.39538
           76867         2.44504
           76868         4.55164
           76869         2.48328
           76870         2.78558
           76871         2.75738
           76872         2.76492
           76873         2.74437
           76874         2.77101
           76875         2.76348
           76876         2.84982
           76877         2.83709
           76878         2.80901
           76879         2.82561
           76880         2.83774
           76881         2.77299
           76882         2.77710
           76883         2.75867
           76884         2.78140
           76885         2.79654
           76886         5.35042
           76887         5.41395
           76888         4.48064
           76889         4.43576
           76890         4.44542
           76891         4.54501
           76892         5.15205
           76893         4.80227
           76894         5.37052
           76895         5.39129
           76896         2.75063
           76897         2.75620
           76898         4.99490
           76899         5.04056
           76900         2.75155
           76901         2.65671
           76902         2.65127
           76903         2.62729
           76904         2.62428
           76905         2.63613
           76906         2.63849
           76907         2.64713
           76908         5.13622
           76909         5.21772
           76910         5.18473
           76911         5.18577
           76912         5.09788
           76913         5.17395
           76914         5.31825
           76915         5.36315
           76916         5.34564
           76917         2.64316
           76918         2.64956
           76919         2.64786
           76920         3.43509
           76921         3.49001
           76922         3.45346
           76923         3.41959
           76924         3.50755
           76925         3.56591
           76926         3.33102
           76927         3.54482
           76928         3.56314
           76929         2.66961
           76930         2.67156
           76931         2.67183
           76932         2.67078
           76933         2.66817
           76934         2.66810
           76935         5.15278
           76936         5.32835
           76937         2.66729
           76938         2.66318
           76939         2.66988
           76940         5.52024
           76941         5.55278
           76942         5.53494
           76943         2.67027
           76944         2.67378
           76945         5.35935
           76946         5.75458
           76947         2.67535
           76948         2.66848
           76949         2.66504
           76950         2.66656
           76951         5.43388
           76952         5.44164
           76953         5.05892
           76954         4.95593
           76955         4.84902
           76956         4.78108
           76957         4.87778
           76958         5.49675
           76959         5.48594
           76960         5.47038
           76961         5.72762
           76962         5.65779
           76963         5.01512
           76964         5.04657
           76965         4.98928
           76966         4.99651
           76967         5.03571
           76968         5.08748
           76969         5.05984
           76970     209.722E-03
           76971         5.65950
           76972         5.63290
           76973         5.65280
           76974         5.69419
           76975         4.34359
           76976         5.50983
           76977         5.50991
           76978         2.41911
           76979         5.47065
           76980         5.44140
           76981         2.41085
           76982         5.54470
           76983         5.44881
           76984         9.95150
           76985         11.0782
           76986         5.18911
           76987         5.48328
           76988         6.79182
           76989         7.15217
           76990         5.38378
           76991         5.40390
           76992         5.42158
           76993         5.40217
           76994         5.37828
           76995         2.46251
           76996         2.45083
           76997         2.46724
           76998         4.53907
           76999         2.43700
           77000         2.43959
           77001         5.48212
           77002         5.47255
           77003         5.26199
           77004         5.22187
           77005         2.69348
           77006         5.38890
           77007         5.37214
           77008         5.36371
           77009         5.35418
           77010         5.33304
           77011         5.32829
           77012         5.34608
           77013         5.31365
           77014         5.35051
           77015         5.34082
           77016         5.38177
           77017         2.73559
           77018         5.25701
           77019         5.17981
           77020         5.13397
           77021         5.11802
           77022         2.71917
           77023         2.70309
           77024         5.17251
           77025         5.21712
           77026         5.17789
           77027         2.57446
           77028         2.56541
           77029         2.57374
           77030         2.56192
           77031         2.56502
           77032         2.54067
           77033         2.55320
           77034         5.14423
           77035         5.09732
           77036         5.10368
           77037         5.48452
           77038         2.53974
           77039         2.54161
           77040         2.54447
           77041         5.17150
           77042         5.22891
           77043         2.54927
           77044         2.55545
           77045         2.55128
           77046         2.54974
           77047         2.54458
           77048         5.22807
           77049         5.25798
           77050         2.69689
           77051         2.69353
           77052         2.69742
           77053         2.69651
           77054         2.69330
           77055         2.69487
           77056         2.69391
           77057         2.68589
           77058         2.69069
           77059         5.59410
           77060         5.52248
           77061         5.57327
           77062         2.69553
           77063         5.70562
           77064         5.69593
           77065         5.73163
           77066         5.73596
           77067         5.72545
           77068         5.69109
           77069         5.63053
           77070         2.68540
           77071         2.68635
           77072         3.04256
           77073         3.07956
           77074         3.07894
           77075         3.14420
           77076         3.10611
           77077         3.09698
           77078         3.18008
           77079         3.33285
           77080         2.98767
           77081         6.37522
           77082         5.64936
           77083         5.61882
           77084         3.05462
           77085         2.99877
           77086         3.02781
           77087         3.10142
           77088         5.53383
           77089         5.57742
           77090         6.18074
           77091         5.61187
           77092         5.64847
           77093         5.82070
           77094         5.80164
           77095         5.79479
           77096         5.64624
           77097         5.64276
           77098         5.71638
           77099         5.62566
           77100         5.64499
           77101         5.61049
           77102         3.16948
           77103         5.64185
           77104         5.63211
           77105         5.66729
           77106         5.67213
           77107         4.17647
           77108         5.29682
           77109         2.81588
           77110         5.56129
           77111         5.59659
           77112         5.59787
           77113         2.34044
           77114         2.30612
           77115         2.33120
           77116         2.32157
           77117         2.25983
           77118         2.28161
           77119         2.27356
           77120         2.31593
           77121         2.29567
           77122         2.45634
           77123         6.43847
           77124         2.45363
           77125         2.45304
           77126         2.43729
           77127         2.46103
           77128         7.31909
           77129         5.77514
           77130         5.79009
           77131         5.75038
           77132         2.46010
           77133         2.47005
           77134         2.46110
           77135         2.42642
           77136         4.75102
           77137         4.86993
           77138         5.73839
           77139         5.74539
           77140         5.72169
           77141         2.47335
           77142         5.61673
           77143         5.66973
           77144         5.61776
           77145         5.63491
           77146         2.24648
           77147         5.75949
           77148         5.71798
           77149         5.63487
           77150         5.68395
           77151         2.28339
           77152         2.32258
           77153         2.30827
           77154         2.29235
           77155         2.30988
           77156         2.28320
           77157         2.30226
           77158         5.58711
           77159         5.64346
           77160         5.64818
           77161         5.07352
           77162         4.97348
           77163         2.35648
           77164         2.33420
           77165         2.35045
           77166         2.36515
           77167         2.37312
           77168         2.30922
           77169         2.27422
           77170     191.012E-03
           77171     209.035E-03
           77172         5.81852
           77173     152.112E-03
           77174     140.869E-03
           77175         5.38535
           77176     201.760E-03
           77177     234.197E-03
           77178         5.69423
           77179         5.54523
           77180     128.888E-03
           77181         5.41796
           77182         5.41479
           77183         7.07389
           77184         6.77568
           77185         7.22903
           77186     755.435E-03
           77187         5.54722
           77188         5.58871
           77189     683.148E-03
           77190     629.608E-03
           77191     637.235E-03
           77192     611.340E-03
           77193     737.702E-03
           77194     768.450E-03
           77195         5.16721
           77196         5.35060
           77197     729.047E-03
           77198     662.212E-03
           77199         6.14951
           77200         6.27839
           77201         4.52045
           77202         4.55892
           77203         4.44204
           77204         4.54219
           77205         4.62085
           77206         4.98675
           77207         5.02378
           77208         4.93624
           77209         4.97732
           77210         4.84707
           77211         8.88730
           77212         9.23416
           77213         8.54241
           77214         5.45776
           77215         5.44436
           77216         8.55778
           77217         5.06954
           77218         5.15248
           77219         5.11403
           77220         4.28873
           77221         4.35273
           77222         7.54285
           77223         5.20426
           77224         4.60621
           77225         4.67167
           77226         4.72043
           77227         3.84992
           77228         3.73284
           77229         4.71859
           77230         4.61805
           77231         5.38724
           77232         5.33635
           77233         5.32977
           77234         5.33679
           77235         5.39480
           77236         5.46479
           77237         5.44582
           77238         5.36770
           77239         5.48388
           77240         5.37807
           77241         5.30082
           77242         5.40046
           77243         5.36747
           77244         5.26245
           77245         5.29141
           77246         5.18243
           77247         5.19606
           77248         5.25768
           77249         4.25208
           77250         4.24433
           77251         4.05483
           77252         4.21172
           77253         4.49528
           77254         4.59198
           77255         4.62008
           77256         4.69620
           77257         5.64121
           77258         3.45001
           77259         3.44877
           77260         3.52767
           77261         3.54408
           77262         4.56088
           77263         4.53261
           77264         3.41037
           77265         3.36381
           77266         3.27306
           77267         3.34114
           77268         3.29708
           77269         3.39288
           77270         3.45638
           77271         3.42976
           77272     754.893E-03
           77273     719.753E-03
           77274     535.111E-03
           77275     553.670E-03
           77276     569.273E-03
           77277     492.845E-03
           77278         6.61379
           77279         6.76719
           77280     605.985E-03
           77281     617.445E-03
           77282     688.348E-03
           77283     524.873E-03
           77284         6.25155
           77285         6.18057
           77286         6.38258
           77287         5.33238
           77288         6.39362
           77289         4.57021
           77290         4.68157
           77291         4.58552
           77292         4.99096
           77293         4.93914
           77294         4.97301
           77295         2.17664
           77296         2.18388
           77297         6.05007
           77298         5.86747
           77299         2.37489
           77300         2.36012
           77301         6.41752
           77302         5.53300
           77303         5.43608
           77304         5.61559
           77305         2.13231
           77306         2.18975
           77307         4.37218
           77308         4.44046
           77309         2.25214
           77310         4.96795
           77311         7.82442
           77312         4.78279
           77313         7.53252
           77314         8.23108
           77315         7.95818
           77316         2.52673
           77317         5.46167
           77318         5.37029
           77319         5.32378
           77320         2.57020
           77321         8.30814
           77322         7.78669
           77323         4.68595
           77324         2.61272
           77325         2.61283
           77326         2.61478
           77327         2.61262
           77328         2.61451
           77329         2.61267
           77330         2.60985
           77331         2.61115
           77332         2.61155
           77333         2.61102
           77334         2.61121
           77335         5.05232
           77336         6.95415
           77337         2.60918
           77338         4.03299
           77339         4.03051
           77340         3.91067
           77341         6.18037
           77342         4.56125
           77343         4.16409
           77344         4.25466
           77345         4.34671
           77346         4.23391
           77347         4.16001
           77348         4.28270
           77349         4.26128
           77350         4.13802
           77351         2.79774
           77352         2.82662
           77353         2.79315
           77354         2.78900
           77355         2.76130
           77356         2.79503
           77357         2.84668
           77358         2.81245
           77359         2.83994
           77360         2.77375
           77361         2.76896
           77362         2.72054
           77363         3.99674
           77364         3.95232
           77365         2.42012
           77366         2.38443
           77367         2.40927
           77368         3.92737
           77369         4.03464
           77370         4.95763
           77371         4.95426
           77372         2.40145
           77373         4.75416
           77374         4.68279
           77375         3.24445
           77376         3.38672
           77377         3.43769
           77378         3.48219
           77379         3.33935
           77380         3.29081
           77381         2.38131
           77382         2.48297
           77383         2.43716
           77384         2.59115
           77385         4.47647
           77386         2.57697
           77387         2.58216
           77388         4.42730
           77389         4.32020
           77390         2.48983
           77391         2.45980
           77392         2.44618
           77393         2.46872
           77394         2.42283
           77395         2.39030
           77396         3.74852
           77397         3.36012
           77398         5.72612
           77399         5.22332
           77400         5.26203
           77401         5.58872
           77402         5.46493
           77403         5.50447
           77404         5.43514
           77405         5.39140
           77406         5.74329
           77407         2.79808
           77408         5.43227
           77409         5.34436
           77410         5.38752
           77411         5.46270
           77412         5.42227
           77413         2.77357
           77414         2.76405
           77415         2.76871
           77416         2.79079
           77417         2.77536
           77418         4.97120
           77419         4.90543
           77420         4.96169
           77421         5.33374
           77422         5.23772
           77423         2.78588
           77424         5.42105
           77425         5.44310
           77426         4.76708
           77427         5.50752
           77428         5.51773
           77429         5.78656
           77430         5.82246
           77431         5.50371
           77432         3.44397
           77433         3.64751
           77434         5.50503
           77435         5.59832
           77436         5.64702
           77437         5.63011
           77438         5.34979
           77439         5.61449
           77440         5.75445
           77441         5.73284
           77442         5.75331
           77443         7.54982
           77444         5.69397
           77445         5.66790
           77446         5.70343
           77447         8.07402
           77448         5.51000
           77449         5.48025
           77450         5.54468
           77451         5.55317
           77452         5.48934
           77453         5.34336
           77454         5.41606
           77455         6.15837
           77456         6.14212
           77457         5.46374
           77458         5.48139
           77459         6.74387
           77460         6.90049
           77461         6.85713
           77462         5.53077
           77463         5.56607
           77464         5.51877
           77465         5.24923
           77466         5.31611
           77467         5.30796
           77468         5.16233
           77469         2.63701
           77470         2.63990
           77471         5.58846
           77472         4.98105
           77473         2.63788
           77474         2.64011
           77475         2.63165
           77476         2.62362
           77477         5.25074
           77478         5.29717
           77479         5.24260
           77480         7.22584
           77481         7.29661
           77482         7.42094
           77483         5.92953
           77484         6.75594
           77485         6.54494
           77486         7.32521
           77487         7.21205
           77488         7.55890
           77489         6.86723
           77490         6.59127
           77491         6.89773
           77492         6.73317
           77493         5.31526
           77494         2.68434
           77495         2.65869
           77496         2.64210
           77497         2.65353
           77498         2.66112
           77499         6.86855
           77500         7.18770
           77501         7.23253
           77502         2.68852
           77503         5.29134
           77504         2.68702
           77505         3.89721
           77506         4.01221
           77507         5.37344
           77508         5.38544
           77509         3.91871
           77510         5.38980
           77511         5.57888
           77512         3.92728
           77513         5.52016
           77514         5.49624
           77515         4.04505
           77516         4.15764
           77517         3.89982
           77518         3.90932
           77519         5.48243
           77520         5.44194
           77521         5.45091
           77522     29.0768E-03
           77523     32.7563E-03
           77524     54.4341E-03
           77525         5.54196
           77526         5.61367
           77527     5.93991E-03
           77528         6.34614
           77529         6.74938
           77530         6.89933
           77531         6.72712
           77532         7.29537
           77533         4.99105
           77534         4.98513
           77535         7.10094
           77536         7.00042
           77537         7.04105
           77538         4.81950
           77539         4.95877
           77540         6.75829
           77541         6.92029
           77542         5.43569
           77543         5.45679
           77544         5.42782
           77545         3.61207
           77546         3.37153
           77547         2.59175
           77548         2.59692
           77549         5.25987
           77550         5.28516
           77551         2.60071
           77552         2.59873
           77553         2.60576
           77554         2.60727
           77555         2.60420
           77556         2.60859
           77557         4.99293
           77558         2.60232
           77559         2.60104
           77560         5.14577
           77561         2.60252
           77562         2.61808
           77563         2.60869
           77564         4.81523
           77565         4.89682
           77566         4.97972
           77567         4.98310
           77568         5.05179
           77569         5.34300
           77570         5.39788
           77571         5.41762
           77572         4.42406
           77573         5.30898
           77574         5.35470
           77575         5.36990
           77576         5.35200
           77577         5.30118
           77578         5.28609
           77579         5.04395
           77580         5.16014
           77581         5.10418
           77582         5.33733
           77583         5.37142
           77584         5.41516
           77585         5.32938
           77586         5.25594
           77587         5.23869
           77588         5.32186
           77589         5.28401
           77590         4.81767
           77591         4.72493
           77592         4.01142
           77593         3.87631
           77594         3.91084
           77595     601.333E-03
           77596     487.014E-03
           77597     295.182E-03
           77598     386.093E-03
           77599         4.32561
           77600         4.43248
           77601         4.33830
           77602         4.22295
           77603         4.07025
           77604     199.157E-03
           77605     259.725E-03
           77606         2.76404
           77607         4.16528
           77608     104.505E-03
           77609         4.36665
           77610     234.382E-03
           77611         4.81633
           77612         4.61489
           77613         4.61365
           77614         4.64637
           77615         3.46846
           77616         3.37227
           77617         3.76987
           77618         3.56742
           77619         2.45231
           77620         2.45782
           77621         2.46697
           77622         2.50295
           77623         2.51452
           77624         2.51471
           77625         2.51053
           77626         2.49828
           77627         2.52173
           77628         3.34322
           77629         3.73007
           77630         2.48819
           77631         2.50825
           77632         2.52037
           77633         2.51611
           77634         2.49323
           77635         2.49821
           77636         4.67975
           77637         4.41826
           77638         4.31422
           77639         8.45900
           77640         8.11871
           77641         1.74996
           77642         1.07236
           77643         1.37630
           77644         1.71694
           77645         12.8017
           77646         1.38977
           77647         5.99737
           77648         5.76196
           77649         5.86321
           77650         5.80158
           77651         5.72158
           77652         6.52858
           77653         4.82118
           77654         5.30474
           77655         2.81731
           77656         3.32000
           77657         2.23581
           77658         31.6950
           77659         8.49852
           77660         4.04040
           77661         4.19482
           77662         2.55718
           77663         2.56297
           77664         9.96958
           77665         5.45984
           77666         9.97653
           77667         9.70741
           77668         6.96877
           77669         9.86694
           77670         7.38735
           77671         14.1915
           77672         4.66554
           77673         4.45298
           77674         9.39940
           77675         6.91778
           77676         6.98157
           77677         7.17654
           77678         6.94911
           77679         4.29817
           77680         6.74026
           77681         6.54797
           77682         5.18579
           77683         5.21880
           77684         4.95722
           77685         4.94602
           77686         4.34824
           77687         4.05453
           77688         5.17967
           77689         7.12557
           77690         7.21064
           77691         7.11040
           77692         7.08323
           77693         5.13103
           77694         4.51102
           77695     180.381E-03
           77696     79.1869E-03
           77697     96.0376E-03
           77698     116.793E-03
           77699         3.19962
           77700         3.08178
           77701         3.52926
           77702     36.6991E-03
           77703     34.8123E-03
           77704         5.04100
           77705         3.95740
           77706     10.1005E-03
           77707     124.139E-03
           77708         4.95340
           77709     35.7940E-03
           77710         4.75293
           77711         4.13553
           77712         4.36892
           77713         1.74413
           77714         1.70287
           77715         1.68827
           77716         1.74556
           77717         1.74718
           77718         1.67730
           77719         1.67352
           77720         1.76354
           77721         1.75360
           77722         1.72331
           77723         1.78324
           77724         2.81687
           77725         3.30356
           77726         2.60902
           77727         2.59353
           77728         2.57364
           77729         2.57445
           77730         2.55192
           77731         2.55135
           77732         2.57636
           77733         5.74385
           77734         3.77855
           77735         3.80467
           77736         2.17195
           77737         2.57477
           77738         2.57117
           77739         2.60075
           77740         3.41899
           77741         3.34044
           77742         3.56446
           77743         2.61819
           77744         2.59723
           77745         2.61825
           77746         8.36279
           77747         8.85072
           77748         4.12728
           77749         5.75710
           77750         5.79857
           77751         3.60997
           77752         3.57606
           77753         4.00642
           77754         3.19878
           77755         8.17672
           77756         8.51349
           77757         8.31674
           77758         8.47486
           77759         7.94017
           77760         8.12561
           77761         7.54746
           77762         7.39656
           77763         7.82434
           77764         7.97937
           77765         6.80289
           77766         7.17059
           77767         7.05837
           77768         1.72784
           77769         1.81979
           77770         3.30423
           77771         2.11151
           77772         2.14907
           77773         5.26575
           77774         5.24494
           77775         6.09129
           77776         5.43148
           77777         5.38229
           77778         5.38706
           77779         2.40718
           77780         5.42227
           77781         3.10997
           77782         3.11342
           77783         3.16377
           77784         2.70561
           77785         3.44802
           77786         3.48035
           77787         3.48559
           77788         3.28475
           77789         3.23018
           77790         3.48742
           77791         3.36372
           77792         3.25084
           77793         3.31985
           77794         3.29018
           77795         11.1007
           77796         7.51248
           77797         6.96812
           77798         8.11681
           77799         6.42338
           77800         6.52131
           77801         4.84069
           77802         4.69021
           77803         4.83753
           77804         4.90908
           77805         8.07893
           77806         6.79275
           77807         6.67730
           77808         9.62439
           77809         7.84992
           77810         7.53046
           77811         10.5606
           77812         3.71500
           77813         9.79901
           77814         11.2216
           77815         6.25899
           77816         2.57271
           77817         2.57813
           77818         2.53780
           77819         2.53115
           77820         2.53460
           77821         6.41570
           77822         2.54286
           77823         2.53677
           77824         8.76971
           77825         4.78553
           77826         2.57184
           77827         2.57138
           77828         2.56923
           77829         2.57793
           77830         7.03141
           77831         7.78256
           77832         8.04590
           77833         5.44974
           77834         6.59112
           77835         6.64200
           77836         6.43958
           77837         6.60791
           77838         6.46935
           77839         5.31258
           77840         5.41753
           77841         5.38786
           77842         5.36826
           77843         6.59544
           77844         6.35102
           77845         6.38205
           77846         6.46313
           77847         6.48844
           77848         6.50854
           77849         5.39094
           77850         6.04228
           77851         5.73842
           77852         1.73490
           77853         1.87480
           77854         1.92849
           77855         1.90092
           77856         2.01384
           77857         2.11662
           77858         2.10276
           77859         2.12090
           77860         2.03551
           77861         2.02988
           77862         2.06557
           77863         5.73619
           77864         2.18600
           77865         2.21172
           77866         2.11722
           77867         1.99656
           77868         2.01715
           77869         2.58945
           77870         2.59201
           77871         5.61716
           77872         5.52094
           77873         5.72229
           77874         5.41349
           77875         13.2975
           77876         13.9279
           77877         2.20293
           77878         2.23549
           77879         2.20286
           77880         2.20270
           77881         2.20487
           77882         2.16906
           77883         2.17132
           77884         2.00449
           77885         5.61067
           77886         5.66531
           77887         5.62674
           77888         5.68256
           77889         5.62081
           77890         5.58173
           77891         5.58730
           77892         2.06083
           77893         2.10327
           77894         2.06879
           77895         2.00296
           77896         2.03377
           77897         2.06577
           77898         3.40579
           77899         3.37225
           77900         5.93700
           77901         5.85081
           77902         5.88344
           77903         3.23618
           77904         7.74915
           77905         6.56054
           77906         6.51180
           77907         3.26475
           77908         3.25187
           77909         3.40956
           77910         3.37960
           77911         3.30393
           77912         3.32357
           77913         3.29972
           77914         5.80105
           77915         5.74260
           77916         5.74907
           77917         7.40670
           77918         3.39486
           77919         3.37655
           77920         3.36520
           77921         6.45827
           77922         6.64256
           77923         6.81867
           77924         4.64884
           77925         4.69004
           77926         4.89843
           77927         4.72833
           77928         4.85120
           77929         4.64240
           77930         6.13838
           77931         6.22608
           77932         8.01845
           77933         6.27985
           77934         4.65942
           77935         7.46896
           77936         7.67067
           77937         6.05249
           77938         8.62954
           77939         8.98640
           77940         8.90826
           77941         8.90357
           77942         8.54536
           77943         2.75624
           77944         2.73476
           77945         7.96962
           77946         7.90854
           77947         2.77529
           77948         2.75197
           77949         8.36583
           77950         8.59547
           77951         7.24964
           77952         7.14459
           77953         2.75588
           77954         2.73438
           77955         2.73258
           77956         2.67911
           77957         2.69202
           77958         2.69406
           77959         2.67484
           77960         6.41810
           77961         2.73378
           77962         2.71284
           77963         1.95926
           77964         1.96844
           77965         1.93623
           77966         1.92920
           77967         1.95571
           77968         7.71478
           77969         7.76399
           77970         1.88452
           77971         1.89356
           77972         1.89901
           77973         1.91764
           77974         1.94581
           77975         1.93649
           77976         1.93174
           77977         2.62032
           77978         2.62095
           77979         2.62060
           77980         2.61636
           77981         2.61799
           77982         8.22159
           77983         7.95042
           77984         7.80679
           77985         7.90266
           77986         2.61647
           77987         2.61409
           77988         2.61680
           77989         2.61912
           77990         2.61508
           77991         2.61397
           77992         2.61242
           77993         2.61236
           77994         2.61550
           77995         2.61379
           77996         2.61180
           77997         2.61700
           77998         2.61699
           77999         8.48233
           78000         8.22050
           78001         3.83527
           78002         7.07827
           78003         5.00678
           78004         5.44714
           78005         5.53755
           78006         5.44891
           78007         7.44768
           78008         7.61279
           78009         7.50815
           78010         5.20819
           78011         5.34465
           78012         5.31060
           78013         5.20358
           78014         5.28906
           78015         5.14945
           78016         2.61101
           78017         2.60039
           78018         2.60095
           78019         3.61203
           78020         3.67393
           78021         3.23167
           78022         8.63521
           78023         8.70183
           78024         7.86111
           78025         3.24738
           78026         3.18213
           78027         6.92736
           78028         4.14040
           78029         5.97646
           78030         5.89028
           78031         8.70735
           78032         8.71265
           78033         7.41156
           78034         6.61484
           78035         6.95151
           78036         6.78308
           78037         6.01237
           78038         5.96544
           78039         6.09028
           78040         5.64772
           78041         5.63272
           78042         5.61369
           78043         7.79342
           78044         7.71710
           78045         7.78816
           78046         7.40715
           78047         7.08425
           78048         7.68538
           78049         7.26101
           78050         7.77149
           78051         5.96562
           78052         5.19843
           78053         5.28238
           78054         5.30140
           78055         5.60319
           78056         5.55827
           78057         5.83560
           78058         7.38005
           78059         7.54109
           78060         7.27396
           78061         7.43186
           78062         7.54092
           78063         7.75740
           78064         5.60592
           78065         7.64778
           78066         7.49407
           78067         7.75702
           78068         5.66485
           78069         5.66504
           78070         5.64761
           78071         5.64537
           78072         5.66402
           78073         5.64706
           78074         5.65985
           78075         5.67504
           78076         5.65278
           78077         7.28771
           78078         7.54093
           78079         4.55783
           78080         4.68965
           78081         4.67647
           78082         4.78506
           78083         4.64956
           78084         4.66231
           78085         4.68896
           78086         4.55720
           78087         4.66158
           78088         4.49326
           78089         4.50453
           78090         4.43983
           78091         4.37777
           78092         4.50514
           78093         4.56921
           78094         5.70197
           78095         5.80133
           78096         5.87119
           78097         5.77046
           78098         5.96253
           78099         4.59292
           78100         4.70471
           78101         4.73487
           78102         4.62205
           78103         5.33188
           78104         5.87552
           78105         5.89642
           78106         5.88590
           78107         5.88139
           78108         6.06041
           78109         6.06628
           78110         5.90884
           78111         7.22609
           78112         7.17358
           78113         8.68101
           78114         8.89241
           78115         7.67942
           78116         5.66163
           78117         5.22187
           78118         5.39689
           78119         5.47035
           78120         2.70746
           78121         2.70920
           78122         2.70162
           78123         2.70395
           78124         7.47969
           78125         8.01444
           78126         8.15148
           78127         7.87126
           78128         2.70739
           78129         2.69363
           78130         7.25682
           78131         7.19183
           78132         2.69274
           78133         2.69432
           78134         2.69900
           78135         2.70226
           78136         2.70077
           78137         2.69899
           78138         5.62424
           78139         8.25026
           78140         8.43920
           78141         6.78629
           78142         8.62283
           78143         3.66699
           78144         3.67887
           78145         3.75012
           78146         12.3007
           78147         12.2861
           78148         3.97415
           78149         3.84273
           78150         3.63658
           78151         11.2194
           78152         7.88750
           78153         9.24068
           78154         3.93471
           78155         4.03255
           78156         8.11395
           78157         7.77527
           78158         8.30814
           78159         7.32929
           78160         7.23270
           78161         6.81672
           78162         6.91855
           78163         5.86513
           78164         5.76944
           78165         5.80745
           78166         3.96808
           78167         2.50736
           78168         2.49104
           78169         6.58422
           78170         7.28163
           78171         7.39172
           78172         8.24989
           78173         9.18474
           78174         10.2058
           78175         7.06895
           78176         6.72902
           78177         6.77147
           78178         2.45096
           78179         2.47042
           78180         2.47458
           78181         5.65639
           78182         5.74888
           78183         5.75569
           78184         2.54107
           78185         2.54107
           78186         6.85535
           78187         11.8153
           78188         6.74806
           78189         6.80246
           78190         7.10587
           78191         6.44068
           78192         6.44631
           78193         6.32558
           78194         6.92430
           78195         7.13067
           78196         7.44716
           78197         6.26617
           78198         6.49575
           78199         6.48290
           78200         6.81345
           78201         5.69679
           78202         5.77992
           78203         5.90892
           78204         5.70163
           78205         9.88047
           78206         3.67544
           78207         3.39681
           78208         8.08881
           78209         7.96134
           78210         3.12750
           78211         3.32240
           78212         8.99164
           78213         7.94828
           78214         7.24446
           78215         2.84986
           78216         2.65962
           78217         6.47954
           78218         6.64758
           78219         6.28067
           78220         6.58360
           78221         9.60554
           78222         8.43332
           78223         6.71802
           78224         6.42487
           78225         6.88890
           78226         6.95665
           78227         2.01655
           78228         1.98495
           78229         1.95510
           78230         1.98415
           78231         1.97524
           78232         2.14591
           78233         2.01179
           78234         2.00064
           78235         2.74598
           78236         2.58353
           78237         1.98061
           78238         1.98964
           78239         2.05167
           78240         2.06134
           78241         2.01278
           78242         2.02486
           78243         2.05492
           78244         2.03739
           78245         2.02234
           78246         3.52345
           78247         3.65133
           78248         3.43788
           78249         2.01202
           78250         1.95817
           78251         1.98529
           78252         1.97889
           78253         5.85609
           78254         2.03472
           78255         2.06837
           78256         6.04004
           78257         5.92541
           78258         6.22835
           78259         6.25602
           78260         6.48179
           78261         6.42658
           78262         4.53904
           78263         5.19211
           78264         3.02669
           78265         2.98830
           78266         6.18264
           78267         6.08171
           78268         5.54275
           78269         5.33970
           78270         5.09809
           78271         5.46409
           78272         5.15177
           78273         3.63740
           78274         5.44387
           78275         4.12490
           78276         4.04712
           78277         4.03814
           78278         7.29925
           78279         6.98517
           78280         6.93574
           78281         3.63055
           78282         5.17214
           78283         5.03492
           78284         3.89103
           78285         3.81164
           78286         3.73903
           78287         3.44525
           78288         2.53942
           78289         5.03775
           78290         5.07285
           78291         2.56218
           78292         5.21999
           78293         5.30528
           78294         5.27462
           78295         4.32614
           78296         4.69441
           78297         4.63598
           78298         4.55542
           78299         4.32495
           78300         5.00505
           78301         5.00687
           78302         5.04654
           78303         5.04797
           78304         4.92959
           78305         5.01484
           78306         4.98676
           78307         2.52108
           78308         5.10179
           78309         5.67308
           78310         5.66384
           78311         4.93185
           78312         5.65872
           78313         5.69645
           78314         5.63819
           78315         2.53371
           78316         5.35961
           78317         4.29321
           78318         4.23720
           78319         4.24825
           78320         4.18019
           78321         4.22202
           78322         4.28850
           78323         4.29242
           78324         4.39881
           78325         5.29481
           78326         5.29337
           78327         5.46491
           78328         4.53350
           78329         4.46822
           78330         4.36076
           78331         4.33639
           78332     283.136E-03
           78333     254.831E-03
           78334     323.442E-03
           78335         5.80194
           78336         5.72477
           78337         5.45831
           78338         5.48012
           78339         5.34337
           78340         5.27880
           78341         5.34195
           78342         6.46955
           78343         6.48016
           78344         6.38891
           78345         6.29957
           78346         6.37997
           78347         6.33445
           78348         6.42667
           78349         6.49654
           78350         6.28438
           78351     216.437E-03
           78352     251.561E-03
           78353     533.655E-03
           78354     305.889E-03
           78355     280.209E-03
           78356     342.941E-03
           78357         6.46249
           78358         6.57837
           78359         6.68027
           78360         6.60098
           78361         2.66392
           78362         2.63909
           78363         7.33473
           78364         2.67154
           78365         2.61207
           78366         2.62360
           78367         7.76859
           78368         7.46255
           78369         8.95533
           78370         8.77435
           78371         8.73356
           78372         9.13390
           78373         5.55821
           78374         5.67861
           78375         2.64949
           78376         1.76575
           78377         1.75498
           78378         1.73375
           78379         1.84205
           78380         9.21669
           78381         8.88149
           78382         1.62365
           78383         1.67936
           78384         1.75674
           78385         1.70626
           78386         3.62930
           78387         3.26586
           78388         3.34113
           78389         3.23066
           78390         3.28928
           78391         3.32586
           78392         3.16879
           78393         3.24224
           78394         8.59797
           78395         2.91309
           78396         3.01020
           78397         2.94367
           78398         3.08492
           78399         3.12029
           78400         3.08389
           78401         3.14814
           78402         3.20600
           78403         3.14058
           78404         3.06632
           78405         3.38132
           78406         3.33341
           78407         2.99888
           78408         7.64403
           78409         7.72397
           78410         3.13759
           78411         3.06116
           78412         2.20450
           78413         2.23651
           78414         2.24548
           78415         2.23613
           78416         2.22892
           78417         2.22921
           78418         2.24207
           78419         2.24201
           78420         2.26626
           78421         9.23071
           78422         8.98415
           78423         8.90990
           78424         2.17772
           78425         2.26093
           78426         2.23513
           78427         2.22769
           78428         2.77617
           78429         2.72787
           78430         2.75604
           78431     31.9511E-03
           78432     31.8086E-03
           78433     26.6269E-03
           78434     56.9670E-03
           78435     55.9871E-03
           78436     31.4279E-03
           78437     55.8833E-03
           78438     35.6003E-03
           78439         6.54474
           78440         6.46956
           78441     67.7429E-03
           78442         4.33163
           78443     66.5218E-03
           78444         3.02176
           78445         4.98033
           78446         5.13029
           78447     33.7834E-03
           78448         4.03740
           78449         3.57465
           78450     41.7953E-03
           78451     65.7767E-03
           78452         3.00938
           78453         2.94202
           78454     92.4206E-03
           78455     97.6061E-03
           78456     106.666E-03
           78457     78.6418E-03
           78458         3.02157
           78459         3.10518
           78460         3.12345
           78461         3.04551
           78462         3.31462
           78463     2.12018E-03
           78464         4.15399
           78465         2.13377
           78466         3.15571
           78467         2.89186
           78468         2.70906
           78469         3.30880
           78470         3.50692
           78471         3.50317
           78472     20.6147E-03
           78473     21.2178E-03
           78474     114.256E-03
           78475     129.357E-03
           78476     153.465E-03
           78477     52.9651E-03
           78478     63.3614E-03
           78479     55.6943E-03
           78480     20.0555E-03
           78481     90.3184E-03
           78482     147.090E-03
           78483         5.99961
           78484         6.12675
           78485         3.28588
           78486         3.42180
           78487         3.85433
           78488         2.30984
           78489         2.16590
           78490         3.11880
           78491         2.86768
           78492         3.31085
           78493         3.22203
           78494         3.23427
           78495         2.56531
           78496         2.62330
           78497         2.73581
           78498         2.67782
           78499         2.47244
           78500         2.00354
           78501         1.92144
           78502         6.20420
           78503         6.19560
           78504         6.51937
           78505         2.00069
           78506         2.03167
           78507         1.99688
           78508         2.79835
           78509         2.89938
           78510         6.60097
           78511         7.08045
           78512         6.88275
           78513         2.50718
           78514         2.36290
           78515         2.57109
           78516         2.15750
           78517         5.50152
           78518         5.49568
           78519         5.48988
           78520         2.34583
           78521         3.45358
           78522         2.63597
           78523         5.47732
           78524         2.07366
           78525         5.45026
           78526         5.46140
           78527         1.92483
           78528         1.95779
           78529         2.41336
           78530         2.40364
           78531         5.51161
           78532         5.48914
           78533         5.48939
           78534         5.47526
           78535         5.45770
           78536         1.99742
           78537         1.96544
           78538         1.93980
           78539         2.28529
           78540         2.33703
           78541         2.28653
           78542         2.58503
           78543         2.61889
           78544         2.35481
           78545         2.30636
           78546         1.89979
           78547         2.61182
           78548         2.65150
           78549         2.10953
           78550         2.15904
           78551         1.91547
           78552         1.95662
           78553         2.59321
           78554         2.77495
           78555         2.78906
           78556         2.69174
           78557         2.61949
           78558         2.27080
           78559         2.86120
           78560         2.59938
           78561         2.74540
           78562         2.09896
           78563         2.07736
           78564         2.08935
           78565         2.05192
           78566         1.97542
           78567         2.25031
           78568         2.25934
           78569         2.18806
           78570         2.26665
           78571         2.84503
           78572         2.76897
           78573         2.85961
           78574         1.94306
           78575         2.98478
           78576         3.10283
           78577         2.72380
           78578         2.72111
           78579         2.64434
           78580         2.68156
           78581     878.044E-03
           78582     939.689E-03
           78583     923.750E-03
           78584     721.706E-03
           78585     788.620E-03
           78586         2.10027
           78587         2.20601
           78588     643.011E-03
           78589     606.156E-03
           78590     664.533E-03
           78591         2.14083
           78592         2.15028
           78593     600.753E-03
           78594     643.307E-03
           78595     543.926E-03
           78596         3.42756
           78597     602.225E-03
           78598         2.73262
           78599         2.73288
           78600         2.06250
           78601         2.04769
           78602         2.05973
           78603         2.77490
           78604         2.13789
           78605         2.66047
           78606         2.63751
           78607         2.57194
           78608         2.57235
           78609         2.56706
           78610         2.59740
           78611         2.63129
           78612         2.55973
           78613         2.90980
           78614         2.89014
           78615         2.58002
           78616         2.60794
           78617         2.61281
           78618         2.11607
           78619         2.04051
           78620         2.05424
           78621         2.27148
           78622         2.28470
           78623         2.22356
           78624         1.96863
           78625         1.92010
           78626         1.97364
           78627         1.98935
           78628         2.07157
           78629         2.03034
           78630         2.00708
           78631         2.01198
           78632         2.26323
           78633         2.25868
           78634         2.83862
           78635         2.83618
           78636         2.84521
           78637         2.24750
           78638         2.23002
           78639         2.21921
           78640         2.22596
           78641         2.33859
           78642         2.31196
           78643         2.71203
           78644         2.34313
           78645         2.66545
           78646         2.49707
           78647         2.49987
           78648         2.76943
           78649         6.61238
           78650         2.36018
           78651         2.81223
           78652         2.37419
           78653         2.55157
           78654         2.86553
           78655         2.90645
           78656         2.85888
           78657         2.51143
           78658         2.21445
           78659         2.31866
           78660         2.16317
           78661         2.16334
           78662         2.56805
           78663         2.55530
           78664         2.56582
           78665         2.07646
           78666         1.98207
           78667         2.06934
           78668         2.47651
           78669         2.24310
           78670         2.08514
           78671         2.18857
           78672         4.14891
           78673         2.46791
           78674         2.45035
           78675         1.91114
           78676         1.93638
           78677         1.96783
           78678         1.83717
           78679         1.80863
           78680         2.57406
           78681         2.57058
           78682         2.57089
           78683         2.56629
           78684         2.58088
           78685         2.58448
           78686         2.53512
           78687         2.51102
           78688         2.52596
           78689         2.57323
           78690         2.57651
           78691         2.57706
           78692         2.57605
           78693         2.57444
           78694         2.58055
           78695         2.58156
           78696     108.921E-03
           78697         2.52856
           78698     56.3865E-03
           78699     48.7759E-03
           78700         2.56773
           78701         2.59981
           78702         2.59100
           78703     66.8804E-03
           78704         2.63628
           78705         2.66350
           78706         2.65495
           78707         2.47434
           78708         1.38316
           78709         1.30146
           78710         1.21110
           78711         1.29275
           78712         1.32255
           78713         2.64646
           78714         2.65879
           78715         2.67523
           78716         2.66159
           78717         2.68994
           78718         1.14100
           78719         2.65174
           78720     834.592E-03
           78721         1.25587
           78722         1.39632
           78723         1.32995
           78724         1.36654
           78725         2.64866
           78726         1.28351
           78727         1.42708
           78728         1.49451
           78729         1.54172
           78730         2.68886
           78731         1.40689
           78732         3.78760
           78733         3.79988
           78734         3.68928
           78735         3.68588
           78736         3.78396
           78737         3.62119
           78738         3.70355
           78739         3.56779
           78740         3.49091
           78741         3.77238
           78742         2.78606
           78743         2.81286
           78744         2.84384
           78745         2.97723
           78746         2.92448
           78747         2.94524
           78748         2.96789
           78749         2.91121
           78750         2.79128
           78751         2.76709
           78752         2.74354
           78753         2.74311
           78754         3.53742
           78755         2.71929
           78756         2.71370
           78757         2.74994
           78758         1.11128
           78759         1.26353
           78760         3.22249
           78761         3.14895
           78762         3.19973
           78763         1.07575
           78764         1.37863
           78765         1.26809
           78766         3.54086
           78767         3.19087
           78768         3.19082
           78769         3.20284
           78770         4.81183
           78771         1.23321
           78772         1.28745
           78773     979.738E-03
           78774         1.08063
           78775         2.96968
           78776         3.00267
           78777         2.96972
           78778         2.93765
           78779         2.90229
           78780         2.81676
           78781         6.19860
           78782         6.00574
           78783         2.92973
           78784         2.90079
           78785         4.03572
           78786         4.00300
           78787         3.10188
           78788         5.53283
           78789         5.66548
           78790         4.37570
           78791         5.68420
           78792     773.632E-03
           78793         3.88592
           78794         3.14151
           78795         3.10011
           78796         3.28316
           78797         3.34856
           78798         3.30795
           78799         3.26762
           78800         3.41791
           78801         3.87506
           78802         3.41301
           78803         5.76541
           78804         3.34822
           78805         5.59225
           78806         5.69529
           78807         3.76681
           78808         3.82624
           78809         5.73014
           78810         3.08857
           78811         2.56954
           78812         2.57515
           78813         2.57937
           78814         4.40722
           78815         2.56372
           78816         3.46739
           78817         3.39863
           78818         3.35511
           78819         3.45507
           78820         2.58582
           78821         2.58536
           78822         2.55482
           78823         3.85535
           78824         2.55519
           78825         2.55785
           78826         4.38765
           78827         4.28573
           78828         4.11132
           78829         4.21372
           78830         3.22175
           78831         4.50805
           78832         4.37638
           78833         4.44222
           78834         4.50048
           78835         2.55279
           78836         2.55575
           78837         2.56448
           78838         2.56096
           78839         3.90127
           78840         7.88095
           78841         6.16478
           78842         5.97657
           78843         2.55902
           78844         2.54628
           78845         5.40632
           78846         5.42627
           78847         5.38235
           78848         5.47082
           78849         5.47733
           78850         4.64006
           78851         4.80021
           78852         5.43398
           78853         5.45999
           78854         5.41339
           78855         5.56218
           78856         5.65067
           78857         3.61283
           78858         3.58949
           78859         5.14318
           78860         5.01540
           78861         4.68544
           78862         4.74564
           78863         4.76612
           78864         4.61600
           78865         5.50992
           78866         6.79159
           78867         3.53060
           78868         5.26492
           78869         5.42658
           78870         5.37002
           78871         5.19942
           78872         3.38462
           78873         3.42617
           78874         3.36643
           78875         3.36203
           78876         3.40121
           78877         5.44171
           78878         5.59016
           78879         3.69014
           78880         3.65426
           78881         3.57083
           78882         3.66505
           78883         3.44406
           78884         3.46870
           78885         3.53337
           78886         4.66821
           78887         5.99056
           78888         3.52773
           78889         3.49225
           78890         3.58350
           78891         6.36820
           78892         8.93378
           78893         7.32226
           78894         5.57523
           78895         5.60170
           78896     44.0316E-03
           78897     56.3694E-03
           78898     54.1332E-03
           78899     58.7730E-03
           78900     85.8188E-03
           78901     106.209E-03
           78902         2.45839
           78903         2.45127
           78904         2.46061
           78905         2.49510
           78906         2.48749
           78907         2.49737
           78908         6.56096
           78909         6.49635
           78910         2.48733
           78911         6.75651
           78912         7.03547
           78913         2.46441
           78914         6.58062
           78915         5.22035
           78916         2.48872
           78917         2.46565
           78918         2.46579
           78919         2.93850
           78920         2.96187
           78921         2.94571
           78922         2.90206
           78923         6.75151
           78924         7.50903
           78925         2.94136
           78926         2.91972
           78927         2.90427
           78928         2.92450
           78929         2.90454
           78930         2.89292
           78931         2.87997
           78932         2.08237
           78933         2.05911
           78934         2.07585
           78935         2.15894
           78936         2.14224
           78937         8.52015
           78938         8.31714
           78939         8.22426
           78940         8.46163
           78941         2.12643
           78942         2.05459
           78943         2.05343
           78944         6.23543
           78945         2.11318
           78946         2.08300
           78947         2.07214
           78948         2.07773
           78949         2.09866
           78950         2.12154
           78951         8.14875
           78952         4.45536
           78953         9.05799
           78954         8.56748
           78955         7.76013
           78956         7.99810
           78957         6.07924
           78958         5.99201
           78959         6.06471
           78960         7.83562
           78961         8.17085
           78962         4.70638
           78963         4.71633
           78964         4.77195
           78965         4.65248
           78966         4.76213
           78967         1.32506
           78968         8.52318
           78969         8.16412
           78970         7.61332
           78971         7.54028
           78972         7.38772
           78973         1.45604
           78974         1.42436
           78975         1.27743
           78976         1.28524
           78977         1.35742
           78978         1.49284
           78979     79.7423E-03
           78980         5.84879
           78981         5.68639
           78982         5.84431
           78983     55.0949E-03
           78984     30.6889E-03
           78985     34.7635E-03
           78986         6.31165
           78987         6.97775
           78988         7.02870
           78989         7.24625
           78990         7.05873
           78991         7.08945
           78992     28.3158E-03
           78993     36.5050E-03
           78994         6.41077
           78995         6.75626
           78996         6.74056
           78997         4.25387
           78998         4.18061
           78999         4.24430
           79000         6.52326
           79001         6.50663
           79002         6.56338
           79003         5.01828
           79004         4.93338
           79005         5.10293
           79006         6.29334
           79007         6.29999
           79008         6.38680
           79009         6.47896
           79010         6.38326
           79011         5.41133
           79012         5.49372
           79013         4.29181
           79014         4.67365
           79015         4.79094
           79016         4.07331
           79017         3.95539
           79018         4.09902
           79019         4.85564
           79020         8.13711
           79021         4.79334
           79022         4.91352
           79023         7.17144
           79024         6.96406
           79025         5.49499
           79026         5.38299
           79027     170.342E-03
           79028     51.1447E-03
           79029         5.24998
           79030         5.30677
           79031     179.819E-03
           79032     158.775E-03
           79033         4.63433
           79034         4.34216
           79035         4.54054
           79036         5.31043
           79037         5.17371
           79038         5.33487
           79039         5.13792
           79040         5.11760
           79041         5.13909
           79042         5.23096
           79043         3.56200
           79044         3.01182
           79045         4.40988
           79046         4.55392
           79047         3.86138
           79048         3.82982
           79049         3.92968
           79050         3.96363
           79051         3.89428
           79052         5.47518
           79053         5.38747
           79054         5.61382
           79055         2.35163
           79056         2.32937
           79057         2.34359
           79058         2.43413
           79059         4.07149
           79060         2.44015
           79061         2.42731
           79062         2.43100
           79063         2.41656
           79064         2.44677
           79065         2.45052
           79066         2.43582
           79067         3.27992
           79068         3.39850
           79069         3.33649
           79070         4.74249
           79071         3.57847
           79072         3.58092
           79073         2.35486
           79074         2.37637
           79075         2.39195
           79076         2.37800
           79077         2.40035
           79078         2.40353
           79079         3.38383
           79080         2.47510
           79081         3.38735
           79082         2.93839
           79083         2.90378
           79084         2.62530
           79085         3.10236
           79086         2.26929
           79087         2.14037
           79088         2.56909
           79089         2.56516
           79090         2.00237
           79091         2.88936
           79092         3.71339
           79093         4.20938
           79094         3.98864
           79095         4.02584
           79096         3.22275
           79097         3.11259
           79098         2.02005
           79099         2.04635
           79100         2.00810
           79101         7.26579
           79102         7.40249
           79103         7.72069
           79104         2.70622
           79105         2.84121
           79106         3.15800
           79107         3.19677
           79108         6.93258
           79109         7.01775
           79110         2.45255
           79111         2.47661
           79112         2.18291
           79113         2.13706
           79114         2.53865
           79115         7.37481
           79116         7.09200
           79117         7.32814
           79118         3.38903
           79119         3.22668
           79120         6.89241
           79121         6.97249
           79122         2.32176
           79123         2.26323
           79124         1.89441
           79125         1.87783
           79126         1.88654
           79127         1.87741
           79128         2.16634
           79129         2.10661
           79130         2.23562
           79131         2.28952
           79132         2.09285
           79133         2.12970
           79134         2.18733
           79135         1.95055
           79136         2.00017
           79137         2.00250
           79138         2.75462
           79139         2.66951
           79140         2.50380
           79141         2.20512
           79142         2.19867
           79143         2.37126
           79144         2.01915
           79145         2.50687
           79146         2.67394
           79147         8.34504
           79148         2.12984
           79149         2.11345
           79150         2.16634
           79151         2.61038
           79152         5.14114
           79153         4.50520
           79154         5.16332
           79155         5.91508
           79156         2.67252
           79157         2.73825
           79158         2.97971
           79159         2.79735
           79160         2.51031
           79161         9.76720
           79162         14.8176
           79163         2.61529
           79164         2.61261
           79165         6.76442
           79166         2.62298
           79167         2.64151
           79168         2.61972
           79169         2.61634
           79170         2.24794
           79171         8.75553
           79172         9.14898
           79173         2.27415
           79174         2.30508
           79175         2.25733
           79176         8.58072
           79177         2.33209
           79178         2.27516
           79179         2.35193
           79180         5.76603
           79181         5.82594
           79182         5.70574
           79183         1.77979
           79184         1.84778
           79185         1.80081
           79186         9.55205
           79187         9.14489
           79188         1.81994
           79189         1.77428
           79190         1.76849
           79191         1.89394
           79192         1.88341
           79193         1.83298
           79194         1.87096
           79195         1.94691
           79196         7.91708
           79197         8.16818
           79198         8.11087
           79199         1.80937
           79200         1.81995
           79201         1.59951
           79202         1.57243
           79203         1.57319
           79204         1.45331
           79205         1.50316
           79206         1.48425
           79207         9.56686
           79208         9.21031
           79209         9.87768
           79210         8.73741
           79211         7.45333
           79212         7.66577
           79213         8.19348
           79214         7.95239
           79215         8.33144
           79216         6.93255
           79217         6.69752
           79218         9.15785
           79219         1.44934
           79220         1.47932
           79221         1.48563
           79222         1.57805
           79223         3.49010
           79224         3.32002
           79225         3.23113
           79226         3.36007
           79227         3.22973
           79228         8.47614
           79229         5.62937
           79230         3.20788
           79231         3.44804
           79232         3.36043
           79233         3.23106
           79234         3.57867
           79235         3.09502
           79236         3.30503
           79237         6.46300
           79238         6.74655
           79239         2.53676
           79240         6.98369
           79241         2.62430
           79242         2.64445
           79243         6.11776
           79244         5.91472
           79245         6.05045
           79246         5.91442
           79247         2.48282
           79248         2.51797
           79249         2.49665
           79250         2.55124
           79251         2.56919
           79252         2.51512
           79253         5.86129
           79254         5.80989
           79255         5.71469
           79256         5.23570
           79257         5.10761
           79258         2.58228
           79259         2.39613
           79260         2.43893
           79261         5.96419
           79262         5.93247
           79263         5.82037
           79264         5.88464
           79265         5.81771
           79266         1.98882
           79267         6.45571
           79268         2.02947
           79269         1.99815
           79270         2.04739
           79271         2.03596
           79272         2.09071
           79273         2.09892
           79274         2.04282
           79275         5.36571
           79276         5.45188
           79277         5.43275
           79278         5.46093
           79279         4.98417
           79280         5.66332
           79281         4.80570
           79282         5.33745
           79283         5.37275
           79284         5.37088
           79285         5.30088
           79286         5.27929
           79287         2.09883
           79288         2.16191
           79289         2.12058
           79290         2.15599
           79291         2.13333
           79292         2.12986
           79293         2.09549
           79294         2.10416
           79295         7.30776
           79296         5.49513
           79297         5.49566
           79298         5.52801
           79299         5.86602
           79300         5.87472
           79301         5.91225
           79302         5.62454
           79303         5.65923
           79304         5.68755
           79305         5.64457
           79306     404.300E-03
           79307     399.806E-03
           79308         5.46195
           79309         5.49186
           79310     413.418E-03
           79311         5.66106
           79312         5.67185
           79313         5.63111
           79314         5.86300
           79315         5.91646
           79316         5.85448
           79317         3.54925
           79318         3.58757
           79319         3.52898
           79320         5.14637
           79321         5.24695
           79322         5.31622
           79323         6.58769
           79324         6.70578
           79325         5.95056
           79326         5.50795
           79327         6.08910
           79328         6.00851
           79329         3.66086
           79330         3.65934
           79331         3.62364
           79332         3.62531
           79333         5.56314
           79334         5.64791
           79335         5.59906
           79336         5.61715
           79337         9.39778
           79338         9.40329
           79339         3.60026
           79340         3.55188
           79341         9.39780
           79342         5.82435
           79343         2.43165
           79344         2.64087
           79345         2.59042
           79346         6.78918
           79347         6.82250
           79348         7.53667
           79349         6.26097
           79350         6.33801
           79351         7.54179
           79352         5.89413
           79353         5.79811
           79354         2.39816
           79355         2.46125
           79356         2.42625
           79357         2.38452
           79358         8.11863
           79359         8.10521
           79360         8.38644
           79361         8.42379
           79362         2.44278
           79363         9.42498
           79364         8.95681
           79365         8.96186
           79366         7.13566
           79367         7.12065
           79368         7.82942
           79369         5.55458
           79370         5.58078
           79371         5.55440
           79372         5.50423
           79373         5.43365
           79374         5.52169
           79375         5.42690
           79376         5.33530
           79377         5.30599
           79378         8.37723
           79379         8.16391
           79380         5.48021
           79381     639.476E-03
           79382     583.924E-03
           79383         9.06697
           79384         7.88239
           79385         7.84537
           79386         7.82830
           79387         6.29245
           79388         6.52383
           79389         1.97979
           79390         1.98137
           79391         1.86028
           79392         1.85164
           79393         1.88932
           79394         1.83551
           79395         1.88409
           79396         9.03648
           79397         2.26698
           79398         8.38867
           79399         7.68272
           79400         7.09039
           79401         2.22129
           79402         8.38953
           79403         8.54534
           79404         8.52392
           79405         8.76997
           79406         6.53549
           79407         6.46570
           79408         2.24265
           79409         7.86218
           79410         2.19949
           79411         7.71134
           79412         7.53675
           79413         7.86705
           79414         7.12924
           79415         7.00814
           79416         8.75809
           79417         8.75296
           79418         8.49485
           79419         5.74869
           79420         5.67497
           79421         2.98057
           79422         2.87753
           79423         6.62981
           79424         6.88915
           79425         6.86052
           79426         6.76129
           79427         6.38130
           79428         6.34818
           79429         6.28400
           79430         6.16609
           79431         6.60696
           79432         2.51825
           79433         2.47805
           79434         2.48130
           79435         2.48992
           79436         2.47361
           79437         2.44269
           79438         2.46244
           79439         2.45687
           79440         6.99827
           79441         5.69566
           79442         3.44589
           79443         3.41523
           79444         3.72037
           79445         4.09984
           79446         3.96603
           79447         3.87478
           79448         3.88535
           79449         3.54164
           79450         3.56673
           79451         5.21296
           79452         6.05444
           79453         6.00746
           79454         5.92867
           79455         5.45502
           79456         5.43437
           79457         4.62621
           79458         1.97752
           79459         5.67736
           79460         5.64094
           79461         5.61867
           79462         4.92103
           79463         2.10518
           79464         5.29037
           79465         2.03574
           79466         2.07962
           79467         3.73615
           79468         3.60549
           79469         2.10221
           79470         2.10105
           79471         2.14313
           79472         2.09710
           79473         2.12161
           79474         2.10555
           79475         2.09359
           79476         5.41025
           79477         5.96861
           79478         5.56206
           79479         5.41881
           79480         5.13418
           79481         5.95250
           79482         5.96866
           79483         5.46916
           79484         5.37765
           79485         5.14411
           79486     314.562E-03
           79487     307.212E-03
           79488         5.19884
           79489         5.13818
           79490         5.12714
           79491         5.59159
           79492         3.08812
           79493     436.995E-03
           79494     346.699E-03
           79495         5.47742
           79496         6.34558
           79497     172.839E-03
           79498     189.881E-03
           79499     178.545E-03
           79500     249.230E-03
           79501         2.37516
           79502     187.988E-03
           79503         5.83653
           79504         7.82721
           79505         8.55835
           79506         8.88688
           79507     193.690E-03
           79508     178.340E-03
           79509     210.621E-03
           79510     129.948E-03
           79511     264.395E-03
           79512         5.03802
           79513         5.07253
           79514         4.83951
           79515         3.86899
           79516         4.00503
           79517         3.93077
           79518         4.13572
           79519         4.09573
           79520         4.14933
           79521         4.05402
           79522         4.00265
           79523         3.85949
           79524         2.49090
           79525         2.59423
           79526         2.67642
           79527         3.99029
           79528         3.79849
           79529         1.68706
           79530         7.85909
           79531         1.54675
           79532         1.52078
           79533         1.56491
           79534         1.50160
           79535         7.09232
           79536         8.16592
           79537         1.57027
           79538         1.57939
           79539         1.60231
           79540         1.55196
           79541         4.23614
           79542         4.20894
           79543         3.49489
           79544         3.75048
           79545         1.62591
           79546         1.60832
           79547         2.87431
           79548         2.52321
           79549         2.52452
           79550         10.0504
           79551         12.6101
           79552         2.62069
           79553         2.63436
           79554         11.4380
           79555         11.1669
           79556         12.0368
           79557         7.52856
           79558         6.55608
           79559         6.35634
           79560         6.51304
           79561         2.86005
           79562         2.86291
           79563         2.82952
           79564         2.71485
           79565         2.73557
           79566         7.07512
           79567         2.91389
           79568         3.10320
           79569         8.19114
           79570         7.59679
           79571         5.68508
           79572         5.70628
           79573         2.62017
           79574         2.63533
           79575         2.61847
           79576         5.49135
           79577         5.52467
           79578         5.44069
           79579         5.36630
           79580         5.52025
           79581         2.63104
           79582         2.64093
           79583         5.41274
           79584         5.47599
           79585         6.20093
           79586         2.63974
           79587         2.66158
           79588         2.66812
           79589         2.67884
           79590         5.92255
           79591         6.41325
           79592         5.22500
           79593         5.24151
           79594         2.69575
           79595         2.71050
           79596         2.68890
           79597         2.70545
           79598         2.69257
           79599         8.42119
           79600         8.21958
           79601         8.29572
           79602         8.28863
           79603         5.96620
           79604         5.85841
           79605         5.91153
           79606         6.15320
           79607         6.02132
           79608         5.84490
           79609         5.79911
           79610         6.52374
           79611         7.88479
           79612         8.37751
           79613         8.60214
           79614         8.55814
           79615         8.34711
           79616         8.15752
           79617         7.80989
           79618         5.89100
           79619         5.75608
           79620         6.82530
           79621         6.61448
           79622         5.83636
           79623         5.70839
           79624         3.73641
           79625         3.86897
           79626         3.59842
           79627         6.23041
           79628         6.27078
           79629         6.31733
           79630         3.42307
           79631         3.48618
           79632         6.01085
           79633         6.11285
           79634         6.09625
           79635         5.91671
           79636         6.05962
           79637         6.22922
           79638         6.24245
           79639         6.28700
           79640         5.96317
           79641         5.89214
           79642         6.38226
           79643         6.22639
           79644         6.40956
           79645         6.29269
           79646         5.92119
           79647         6.22673
           79648         6.25579
           79649         6.46405
           79650         5.68057
           79651         5.82523
           79652         5.89700
           79653         6.78591
           79654         6.24899
           79655         6.22385
           79656         6.20163
           79657         6.27954
           79658         6.35481
           79659         3.02999
           79660         6.39310
           79661         6.37398
           79662         5.51642
           79663         5.49098
           79664         5.94033
           79665         5.80591
           79666         5.83797
           79667         5.80922
           79668         2.89100
           79669         2.92091
           79670         2.90109
           79671         3.01378
           79672         3.02582
           79673         3.01183
           79674         5.75395
           79675         5.76216
           79676         5.74653
           79677         5.56312
           79678         5.63459
           79679         5.75698
           79680         4.23198
           79681         4.22422
           79682         4.36312
           79683         4.37139
           79684         4.29022
           79685         5.38366
           79686         5.47312
           79687         4.33529
           79688         4.21980
           79689         4.25340
           79690         4.20670
           79691         5.03746
           79692         4.36871
           79693         4.36053
           79694         4.28568
           79695         5.09895
           79696         5.15742
           79697         5.62271
           79698         5.82693
           79699         5.26509
           79700         5.12302
           79701         5.73627
           79702         5.62786
           79703         5.74584
           79704         6.07165
           79705         5.72519
           79706         5.74426
           79707         5.20819
           79708         5.37369
           79709         6.30941
           79710         5.38672
           79711         5.47330
           79712         5.52738
           79713         5.05837
           79714         5.22712
           79715         5.28056
           79716         5.44753
           79717         5.24794
           79718         5.79293
           79719         5.88026
           79720         5.78906
           79721         5.68705
           79722         5.59650
           79723         5.08308
           79724         5.02675
           79725         5.00733
           79726         9.79456
           79727         9.72087
           79728         5.03524
           79729         5.04627
           79730         6.88322
           79731         6.94993
           79732         6.58813
           79733         6.74903
           79734         5.06646
           79735         7.07368
           79736         6.44307
           79737         6.62993
           79738         6.84095
           79739         6.93897
           79740         6.60713
           79741         6.75715
           79742         6.57048
           79743         7.11642
           79744         6.72984
           79745         7.12427
           79746         5.05157
           79747         5.03263
           79748         5.01506
           79749         7.62590
           79750         5.44578
           79751         5.50591
           79752         5.18419
           79753         6.27807
           79754         6.45061
           79755         2.71855
           79756         2.71399
           79757         2.73843
           79758         2.67396
           79759         2.69113
           79760         9.42115
           79761         8.70551
           79762         5.03078
           79763         8.00128
           79764         9.05648
           79765         8.88723
           79766         8.87052
           79767         9.29239
           79768         9.50037
           79769         9.95555
           79770         8.80683
           79771         8.95902
           79772         9.10332
           79773         8.59577
           79774         1.41985
           79775         1.26995
           79776         8.49788
           79777         6.04934
           79778         6.07329
           79779         6.16197
           79780         6.08323
           79781         7.14885
           79782         1.63177
           79783         5.90831
           79784         9.06786
           79785         6.07754
           79786         2.12530
           79787         2.23055
           79788         2.27008
           79789         2.24516
           79790         2.24176
           79791         2.26682
           79792         2.19316
           79793         2.12815
           79794         2.17857
           79795         2.22134
           79796         2.20550
           79797         2.17335
           79798         2.23014
           79799         2.62760
           79800         2.60625
           79801         2.30037
           79802         2.40439
           79803         2.40638
           79804         2.26483
           79805         2.28160
           79806         2.43173
           79807         2.19530
           79808     13.1273E-03
           79809     13.8844E-03
           79810     5.08003E-03
           79811         2.26597
           79812         2.05171
           79813         2.20103
           79814         2.30107
           79815         2.08114
           79816         2.15266
           79817         2.91308
           79818         2.87790
           79819         2.85865
           79820         2.93325
           79821         2.95783
           79822         2.99494
           79823     388.264E-03
           79824     400.604E-03
           79825     22.5992E-03
           79826         2.84165
           79827         2.92009
           79828         2.98465
           79829     15.3335E-03
           79830         4.44321
           79831     21.8596E-03
           79832     18.0330E-03
           79833     17.5215E-03
           79834     22.5548E-03
           79835     40.5324E-03
           79836         4.71624
           79837         4.57495
           79838         4.65844
           79839         4.76401
           79840     20.6081E-03
           79841     17.6933E-03
           79842     112.369E-03
           79843     174.938E-03
           79844         4.76263
           79845     55.7645E-03
           79846     139.856E-03
           79847     127.140E-03
           79848     76.2932E-03
           79849     88.9469E-03
           79850     219.849E-03
           79851         5.37992
           79852     72.1599E-03
           79853     98.1752E-03
           79854         2.85905
           79855         2.81676
           79856         2.84747
           79857         2.78384
           79858         2.76437
           79859         2.87078
           79860         2.85515
           79861     748.400E-03
           79862     681.073E-03
           79863     764.777E-03
           79864         2.88739
           79865         2.87940
           79866         2.79277
           79867     134.614E-03
           79868     152.955E-03
           79869     148.857E-03
           79870     59.5347E-03
           79871         2.54211
           79872         2.53230
           79873         2.52423
           79874         2.53402
           79875     82.8361E-03
           79876         2.49274
           79877         2.50771
           79878         2.50445
           79879         2.54410
           79880         2.54070
           79881         2.53589
           79882         2.50792
           79883         2.51400
           79884     450.665E-03
           79885     240.312E-03
           79886     188.174E-03
           79887         5.15319
           79888         5.08466
           79889         5.18964
           79890     163.197E-03
           79891     259.910E-03
           79892     295.833E-03
           79893         5.03923
           79894         5.10420
           79895         5.17270
           79896         5.24156
           79897     419.807E-03
           79898     466.428E-03
           79899         4.98804
           79900     290.761E-03
           79901     309.526E-03
           79902         5.37657
           79903         5.36248
           79904         5.27092
           79905         3.76197
           79906         3.70808
           79907         3.73369
           79908         3.69558
           79909         3.64169
           79910         3.73467
           79911         4.82123
           79912         5.00609
           79913         3.82849
           79914         3.86875
           79915         3.87226
           79916         3.76384
           79917     403.677E-03
           79918         3.78428
           79919         3.99974
           79920         3.89316
           79921         3.95531
           79922         3.86759
           79923         2.44999
           79924         2.68363
           79925     220.823E-03
           79926     177.878E-03
           79927     177.912E-03
           79928     194.817E-03
           79929     235.091E-03
           79930     494.985E-03
           79931     542.067E-03
           79932         2.80765
           79933         3.21759
           79934         3.22023
           79935         2.48759
           79936         3.50405
           79937         3.72520
           79938         3.59802
           79939         3.57422
           79940         3.37330
           79941         3.46959
           79942         3.67790
           79943         2.94524
           79944     902.663E-03
           79945     947.230E-03
           79946         3.10386
           79947     840.158E-03
           79948     924.979E-03
           79949         3.39957
           79950         3.27864
           79951         3.08424
           79952         3.04286
           79953         3.24048
           79954         3.15257
           79955         1.05296
           79956     982.166E-03
           79957         1.19638
           79958         2.84868
           79959         2.96576
           79960         2.79354
           79961         2.89732
           79962         2.68923
           79963         5.64510
           79964         1.40611
           79965         1.01911
           79966         1.34614
           79967         5.04554
           79968         5.07462
           79969         4.62151
           79970         4.39496
           79971     580.501E-03
           79972         4.34855
           79973         4.14436
           79974         4.08148
           79975         3.82629
           79976         4.62627
           79977         4.56154
           79978         1.09619
           79979         1.01784
           79980         1.04151
           79981     877.516E-03
           79982     878.234E-03
           79983         4.49793
           79984         4.53750
           79985         4.29386
           79986         4.34134
           79987         4.16047
           79988         4.23374
           79989         5.90633
           79990         5.83587
           79991         5.92190
           79992         5.97225
           79993         5.94285
           79994         5.85596
           79995         1.74037
           79996         1.68818
           79997         1.51636
           79998         6.00732
           79999         6.04815
           80000         6.02389
           80001         5.94258
           80002         1.18061
           80003         2.04010
           80004         2.00269
           80005         1.62346
           80006         1.58735
           80007         1.60573
           80008         1.63688
           80009         5.89549
           80010         5.82843
           80011         5.85430
           80012         1.44889
           80013         1.41234
           80014         1.49194
           80015         7.52504
           80016         1.48871
           80017         1.76470
           80018         1.72877
           80019         7.51141
           80020         6.93167
           80021         7.29637
           80022         5.20787
           80023         1.34626
           80024         5.50177
           80025         5.45659
           80026         5.52909
           80027         5.31759
           80028         5.26482
           80029         5.14711
           80030         5.20528
           80031         1.95384
           80032         2.02243
           80033         1.72923
           80034         5.44900
           80035         5.27711
           80036         5.20552
           80037         1.86258
           80038         5.20819
           80039         2.18818
           80040         2.19211
           80041         2.14604
           80042         3.87242
           80043         4.86891
           80044         4.23259
           80045         4.36608
           80046         5.83049
           80047         1.72854
           80048         3.36475
           80049         3.76685
           80050         5.82541
           80051         5.84204
           80052         1.89792
           80053         1.84595
           80054         1.33997
           80055         1.27872
           80056         1.27850
           80057         7.13600
           80058         1.80651
           80059     71.2151E-03
           80060     40.7583E-03
           80061     42.2767E-03
           80062     37.4720E-03
           80063     40.9790E-03
           80064     41.0160E-03
           80065     78.7154E-03
           80066     37.2411E-03
           80067         1.45976
           80068         1.50013
           80069         1.47689
           80070         1.44340
           80071         1.41106
           80072         1.36700
           80073     31.2934E-03
           80074         1.06769
           80075     981.497E-03
           80076         3.35965
           80077         3.01344
           80078         1.19217
           80079         1.17201
           80080         1.24991
           80081         3.96619
           80082         1.33473
           80083         1.30926
           80084         1.29108
           80085         3.02851
           80086         3.71194
           80087     456.440E-03
           80088         1.67554
           80089         1.09266
           80090         1.15773
           80091         1.08619
           80092         1.21439
           80093         1.09365
           80094         1.14206
           80095         1.12527
           80096         1.24732
           80097         1.19701
           80098     831.071E-03
           80099         3.50076
           80100         3.66134
           80101         4.33702
           80102     853.099E-03
           80103     858.147E-03
           80104     914.322E-03
           80105         1.20595
           80106         1.25463
           80107     708.180E-03
           80108     789.998E-03
           80109     762.917E-03
           80110     877.455E-03
           80111         1.13941
           80112     685.826E-03
           80113     631.823E-03
           80114         1.38556
           80115     793.613E-03
           80116     799.415E-03
           80117     744.288E-03
           80118     742.813E-03
           80119     772.205E-03
           80120     863.082E-03
           80121     782.824E-03
           80122         5.35537
           80123         5.30502
           80124         5.51387
           80125         5.64963
           80126         5.59054
           80127         5.55116
           80128         1.05753
           80129         5.32926
           80130         5.32666
           80131         5.37540
           80132         5.23416
           80133         1.23947
           80134         1.29929
           80135         1.30507
           80136     683.384E-03
           80137         5.45006
           80138         5.57539
           80139         5.71978
           80140         5.60802
           80141         1.41189
           80142         1.47617
           80143         1.44154
           80144     598.998E-03
           80145     664.848E-03
           80146     635.491E-03
           80147         5.37756
           80148     421.571E-03
           80149     443.072E-03
           80150     488.102E-03
           80151     458.087E-03
           80152     558.620E-03
           80153         5.41484
           80154         5.34930
           80155         5.41936
           80156         5.37559
           80157     255.088E-03
           80158         1.10706
           80159         1.01924
           80160     432.806E-03
           80161     484.532E-03
           80162     499.857E-03
           80163         2.57993
           80164         2.60942
           80165         2.60010
           80166         2.64583
           80167         2.65190
           80168         2.67940
           80169         2.67089
           80170         2.61191
           80171         2.62150
           80172         2.63071
           80173     425.221E-03
           80174         2.67610
           80175         2.64968
           80176         2.64514
           80177         2.64054
           80178         2.64598
           80179         2.63539
           80180         2.62972
           80181         2.62475
           80182         2.62981
           80183     283.492E-03
           80184     332.374E-03
           80185     247.678E-03
           80186     177.961E-03
           80187     31.8408E-03
           80188     51.8806E-03
           80189     52.9588E-03
           80190     138.928E-03
           80191     150.235E-03
           80192     263.742E-03
           80193     661.248E-03
           80194     691.768E-03
           80195     332.474E-03
           80196     403.073E-03
           80197     51.3226E-03
           80198     59.1428E-03
           80199     46.8697E-03
           80200         3.50471
           80201         3.49180
           80202         3.35048
           80203         3.33090
           80204         3.35666
           80205         3.41638
           80206         3.37690
           80207         3.44373
           80208     35.1191E-03
           80209         3.38272
           80210         3.35480
           80211         3.32480
           80212         3.35820
           80213         3.38599
           80214         3.29837
           80215         3.37082
           80216         3.34640
           80217         3.45636
           80218         3.43317
           80219     107.085E-03
           80220     51.5532E-03
           80221         5.63196
           80222         7.38046
           80223     77.8941E-03
           80224         5.80685
           80225         5.78118
           80226         5.71509
           80227         5.56158
           80228         5.56271
           80229         5.77714
           80230         5.54545
           80231         5.56118
           80232     27.5015E-03
           80233     21.2375E-03
           80234         5.39620
           80235         6.37226
           80236         3.78157
           80237     3.43823E-03
           80238     18.1275E-03
           80239     18.4979E-03
           80240     813.346E-03
           80241     926.206E-03
           80242     926.588E-03
           80243         1.09467
           80244     867.458E-03
           80245     696.538E-03
           80246     788.761E-03
           80247     950.957E-03
           80248     997.747E-03
           80249     425.162E-03
           80250     479.082E-03
           80251     11.3591E-03
           80252     7.23249E-03
           80253     13.9165E-03
           80254     21.6797E-03
           80255     22.5140E-03
           80256         4.68041
           80257         4.80301
           80258         4.77533
           80259         4.84048
           80260         4.88975
           80261         4.96465
           80262         4.90204
           80263         4.85285
           80264         4.77915
           80265         4.78981
           80266         4.80204
           80267         4.91215
           80268     20.6613E-03
           80269     14.4523E-03
           80270     14.9281E-03
           80271     8.05824E-03
           80272     25.0379E-03
           80273     97.1124E-03
           80274     376.745E-03
           80275     414.017E-03
           80276     23.1197E-03
           80277     39.4474E-03
           80278     43.5574E-03
           80279     15.2941E-03
           80280     8.35747E-03
           80281     15.1310E-03
           80282     80.8836E-03
           80283     33.2597E-03
           80284     31.1183E-03
           80285         5.62735
           80286         5.72954
           80287     20.1760E-03
           80288         5.72450
           80289         5.71528
           80290         5.07816
           80291         5.02157
           80292     36.9539E-03
           80293     458.741E-03
           80294         2.36441
           80295         2.35668
           80296         2.31258
           80297         2.33579
           80298     109.480E-03
           80299         2.49156
           80300         2.33552
           80301         6.33085
           80302     651.307E-03
           80303     372.090E-03
           80304     165.240E-03
           80305     196.499E-03
           80306     228.326E-03
           80307     225.541E-03
           80308     194.979E-03
           80309         6.03389
           80310         6.28099
           80311         6.19788
           80312         5.86380
           80313         5.82297
           80314         5.77525
           80315         5.98475
           80316         5.81552
           80317         5.72891
           80318         5.59512
           80319         5.64438
           80320         5.91037
           80321         5.85706
           80322         6.02725
           80323         5.37499
           80324         5.32390
           80325         5.43771
           80326         5.39784
           80327         5.50464
           80328         5.52057
           80329         5.61263
           80330         5.54556
           80331         3.48346
           80332         3.54642
           80333         3.44450
           80334         3.54677
           80335         3.59426
           80336     203.797E-03
           80337     178.499E-03
           80338         3.34807
           80339         3.56684
           80340         3.56261
           80341         3.49027
           80342         3.54224
           80343         3.51685
           80344         3.42396
           80345     40.1713E-03
           80346     37.4981E-03
           80347     40.8884E-03
           80348     151.125E-03
           80349     44.1468E-03
           80350     37.1937E-03
           80351         1.22424
           80352         1.37281
           80353         1.14954
           80354         1.05471
           80355         1.07123
           80356     926.811E-03
           80357         1.00108
           80358         1.44864
           80359         1.27614
           80360         1.20667
           80361         1.29931
           80362         1.23828
           80363         1.17995
           80364         1.08506
           80365         1.09726
           80366     992.482E-03
           80367         1.17811
           80368     714.454E-03
           80369         2.81623
           80370         2.81186
           80371     317.654E-03
           80372         2.78719
           80373         2.78350
           80374         2.81092
           80375         2.78392
           80376         2.81178
           80377         2.82205
           80378         2.82534
           80379         2.79851
           80380         2.78419
           80381     167.625E-03
           80382         2.90415
           80383     340.399E-03
           80384     337.802E-03
           80385     268.288E-03
           80386     293.898E-03
           80387         2.88725
           80388         2.78353
           80389         2.24444
           80390         3.07677
           80391         2.68658
           80392         2.76799
           80393         2.66924
           80394         2.59139
           80395         2.93204
           80396         2.89764
           80397         2.79278
           80398         2.93131
           80399         2.89280
           80400         5.50114
           80401         5.42835
           80402         5.46559
           80403         5.47383
           80404         5.47399
           80405         1.23792
           80406         1.27395
           80407         1.30422
           80408         1.15649
           80409         1.21097
           80410         1.22186
           80411         1.15406
           80412     698.247E-03
           80413         1.31584
           80414         1.25668
           80415         1.49835
           80416         1.15983
           80417     499.860E-03
           80418         2.80997
           80419         3.06914
           80420         2.74678
           80421         2.49849
           80422         3.66882
           80423         3.30339
           80424         3.44781
           80425         3.36779
           80426         3.22049
           80427         2.99233
           80428         3.35681
           80429         3.27033
           80430         1.11383
           80431     790.563E-03
           80432         9.32124
           80433         9.65552
           80434         2.42990
           80435     39.4600E-03
           80436     4.03856E-03
           80437         2.42563
           80438     379.466E-03
           80439         5.13546
           80440         2.65611
           80441         2.65655
           80442         5.14244
           80443         2.64413
           80444         2.64838
           80445         2.65839
           80446         6.35458
           80447         6.48050
           80448         6.56819
           80449         6.44386
           80450     77.8113E-03
           80451         6.64638
           80452     847.883E-03
           80453     855.354E-03
           80454     587.996E-03
           80455     538.953E-03
           80456     550.113E-03
           80457     527.551E-03
           80458         3.71188
           80459         3.78614
           80460         3.74145
           80461         3.81202
           80462         3.84070
           80463         3.87701
           80464         3.91060
           80465         3.90664
           80466         1.26277
           80467     925.603E-03
           80468     925.467E-03
           80469         1.78984
           80470         7.12250
           80471         4.52327
           80472         4.27560
           80473         4.16724
           80474         4.28428
           80475         4.21691
           80476         4.32706
           80477         4.20794
           80478     979.066E-03
           80479         1.06609
           80480         1.02312
           80481         4.36551
           80482         4.32306
           80483         4.33741
           80484         1.21020
           80485         1.47205
           80486         3.29794
           80487         3.43628
           80488         3.24607
           80489         3.19183
           80490         3.21320
           80491         3.25602
           80492         3.12459
           80493         3.09954
           80494         3.18773
           80495         3.16409
           80496         1.23255
           80497         3.27493
           80498         2.17863
           80499         2.27042
           80500         1.80402
           80501         2.56025
           80502         2.43091
           80503         2.50026
           80504         2.59412
           80505         2.48220
           80506         1.60019
           80507         1.56534
           80508         2.48331
           80509         2.53276
           80510         1.28037
           80511         1.92871
           80512         1.91327
           80513         1.97258
           80514         2.68560
           80515         2.60226
           80516         2.65815
           80517         2.61189
           80518         2.63873
           80519         2.62765
           80520         2.60457
           80521         2.68833
           80522         2.65789
           80523         2.99044
           80524         2.91808
           80525         1.72657
           80526         1.65411
           80527         1.67475
           80528         4.64144
           80529         4.77275
           80530         4.48914
           80531         4.40203
           80532         4.41007
           80533         2.26585
           80534     950.018E-03
           80535         4.58649
           80536         4.53987
           80537         1.53830
           80538         2.07566
           80539         1.62814
           80540         2.10929
           80541         10.6768
           80542         2.58280
           80543         2.69995
           80544         2.23785
           80545         2.24507
           80546         2.60772
           80547         2.33743
           80548         2.33573
           80549         2.15708
           80550         2.34070
           80551         3.33115
           80552         3.31846
           80553         3.31581
           80554         3.52460
           80555         3.26970
           80556         6.79739
           80557         5.07925
           80558         4.99309
           80559         5.04385
           80560         5.15896
           80561         3.50875
           80562         5.24880
           80563         5.30408
           80564         5.77312
           80565     17.1572E-03
           80566     8.71276E-03
           80567     11.2645E-03
           80568         4.69613
           80569         4.81916
           80570         4.75390
           80571     774.665E-03
           80572     741.864E-03
           80573     653.373E-03
           80574     757.687E-03
           80575     736.482E-03
           80576     545.526E-03
           80577     692.958E-03
           80578         5.15743
           80579         5.09293
           80580         4.75519
           80581         4.36957
           80582         4.43166
           80583         4.36038
           80584         4.31759
           80585         4.25790
           80586     660.737E-03
           80587     808.105E-03
           80588     913.004E-03
           80589         3.75435
           80590         3.77761
           80591         1.86992
           80592         1.81429
           80593         4.41245
           80594         4.34469
           80595         4.42829
           80596         4.46074
           80597         1.81664
           80598         1.85457
           80599         1.80911
           80600         1.78357
           80601         1.79344
           80602         4.00211
           80603         4.08244
           80604         3.90182
           80605         6.61014
           80606         6.69162
           80607         6.54128
           80608         6.92581
           80609         4.17926
           80610         4.27785
           80611         2.98555
           80612         2.35728
           80613         2.32531
           80614         2.35773
           80615         4.13064
           80616         4.26367
           80617         4.20903
           80618         4.20148
           80619         4.06789
           80620         4.09371
           80621         3.96701
           80622         2.37962
           80623         2.40298
           80624         2.41135
           80625         2.40951
           80626         2.38738
           80627         3.64927
           80628         2.42838
           80629         2.45366
           80630         2.43734
           80631         2.41094
           80632         2.43705
           80633         2.43040
           80634         4.09924
           80635         2.41241
           80636         2.34216
           80637         3.66912
           80638         4.66336
           80639         4.76594
           80640         4.71646
           80641         3.73668
           80642         3.69187
           80643         3.68076
           80644         4.64642
           80645         4.70288
           80646         4.66533
           80647         5.00553
           80648         4.96674
           80649         4.49429
           80650         9.72916
           80651         3.51133
           80652         3.52367
           80653         3.53013
           80654         8.45990
           80655         2.91435
           80656         3.41907
           80657         3.37141
           80658         3.30214
           80659         3.37479
           80660         3.07192
           80661         3.03974
           80662         3.07449
           80663         3.36395
           80664         3.38903
           80665         3.26230
           80666         2.54307
           80667         3.05577
           80668         3.30714
           80669         3.31301
           80670         2.64320
           80671         2.62058
           80672         3.05851
           80673         3.10955
           80674         3.09462
           80675         2.67336
           80676         2.61368
           80677         3.29678
           80678         3.33668
           80679         3.34273
           80680         3.37956
           80681         3.33767
           80682         2.83978
           80683         2.64770
           80684         3.12733
           80685         3.07013
           80686         2.91493
           80687         2.90589
           80688         2.95237
           80689         2.60714
           80690         2.65150
           80691         2.78074
           80692         2.76904
           80693         2.75058
           80694         2.76076
           80695         6.10646
           80696         6.11142
           80697         5.97390
           80698         5.96864
           80699         6.11019
           80700         6.10631
           80701         2.79488
           80702         2.79415
           80703         2.76440
           80704         2.77767
           80705         6.09390
           80706         2.87591
           80707         2.86136
           80708         2.83888
           80709         2.86167
           80710         2.99005
           80711         6.26234
           80712         2.77347
           80713         2.76753
           80714         2.74552
           80715         2.67222
           80716         3.35760
           80717         3.39135
           80718         3.44622
           80719         3.41152
           80720         3.44642
           80721         3.28239
           80722         3.37408
           80723         3.90273
           80724         4.25220
           80725         4.56583
           80726         4.66009
           80727         4.54845
           80728         4.50894
           80729         4.89091
           80730         3.19373
           80731         3.19495
           80732         3.14722
           80733         3.23370
           80734         3.16958
           80735         3.28768
           80736         2.87950
           80737         2.88704
           80738         4.14448
           80739         2.80982
           80740         2.81815
           80741         2.89984
           80742         5.64114
           80743         5.40605
           80744         6.06269
           80745         5.87240
           80746         5.55066
           80747         5.57104
           80748         5.60714
           80749         5.68415
           80750         5.60581
           80751         5.64546
           80752         5.62616
           80753         5.53489
           80754         5.71328
           80755         5.82361
           80756         5.74737
           80757         6.53817
           80758         6.52812
           80759         6.61675
           80760         5.79424
           80761         5.08567
           80762         5.04594
           80763         5.86882
           80764         3.88889
           80765         4.61434
           80766         4.59503
           80767         5.16529
           80768         3.20354
           80769         3.23636
           80770         3.23135
           80771         3.19896
           80772         3.19191
           80773         3.17744
           80774         3.16735
           80775         3.14910
           80776         3.16277
           80777         3.07295
           80778         3.22840
           80779         2.05260
           80780         5.32271
           80781         5.12455
           80782         2.05931
           80783         2.05549
           80784         1.99757
           80785         2.06331
           80786         2.01467
           80787         6.15072
           80788         6.24769
           80789         6.24630
           80790         6.06820
           80791         2.00156
           80792         2.00583
           80793         3.87509
           80794         4.03619
           80795         5.48173
           80796         5.58305
           80797         5.39708
           80798         3.99705
           80799         3.74434
           80800         3.44090
           80801         2.61942
           80802         2.62283
           80803         2.62006
           80804         2.61526
           80805         2.61504
           80806         2.61548
           80807         2.61466
           80808         2.61949
           80809         4.26042
           80810         4.18303
           80811     945.216E-03
           80812         1.00473
           80813     964.667E-03
           80814         1.01804
           80815         6.04330
           80816         5.91791
           80817         5.35183
           80818         5.37493
           80819     932.486E-03
           80820         1.03456
           80821         1.01813
           80822         5.76191
           80823         5.63271
           80824         1.21850
           80825         5.93685
           80826         4.78054
           80827         4.87760
           80828         4.90049
           80829         4.89114
           80830         5.34947
           80831         5.19107
           80832         7.75137
           80833         7.64735
           80834         7.43307
           80835         7.70263
           80836         7.97043
           80837         7.48851
           80838         7.69140
           80839         6.90175
           80840         7.46758
           80841         7.31763
           80842         7.25040
           80843         7.58075
           80844         6.03641
           80845         6.30242
           80846         6.13707
           80847         6.30407
           80848         6.94938
           80849         7.21173
           80850         7.00349
           80851         2.38723
           80852         6.24857
           80853         6.08557
           80854         6.46466
           80855         6.69044
           80856         2.39391
           80857         2.43665
           80858         2.43905
           80859         2.43661
           80860         2.41340
           80861         4.82678
           80862         4.87103
           80863         4.75360
           80864         4.86365
           80865         1.61366
           80866         1.59968
           80867         6.26762
           80868         6.36541
           80869         1.61960
           80870         1.64277
           80871         1.74101
           80872         1.70486
           80873         5.05379
           80874     945.777E-03
           80875     972.830E-03
           80876         6.89279
           80877         5.77935
           80878         5.64795
           80879         5.57073
           80880     920.314E-03
           80881     966.291E-03
           80882         1.23203
           80883         1.17847
           80884         1.24096
           80885         1.32112
           80886         1.25804
           80887         1.05796
           80888     965.177E-03
           80889     976.028E-03
           80890     788.789E-03
           80891     843.496E-03
           80892         6.58027
           80893         6.48566
           80894         6.36227
           80895         6.30847
           80896         6.46402
           80897         6.58676
           80898         6.35057
           80899         6.47140
           80900         6.67817
           80901         6.85826
           80902         6.78246
           80903         7.23069
           80904         6.43642
           80905         6.43646
           80906         4.63925
           80907         7.29677
           80908         7.40261
           80909         6.59191
           80910         6.43897
           80911         5.70551
           80912         5.68367
           80913         6.32122
           80914         4.90134
           80915         4.87332
           80916         4.94153
           80917         5.19704
           80918         5.42450
           80919         5.20979
           80920         4.97902
           80921         5.44366
           80922         5.17431
           80923         4.51944
           80924         4.39348
           80925         4.88089
           80926         6.12264
           80927         5.95677
           80928         6.09151
           80929         4.53860
           80930         4.59882
           80931         4.27316
           80932         4.26397
           80933         6.22898
           80934         4.78050
           80935         4.90586
           80936         6.92779
           80937         4.61935
           80938         4.59487
           80939         4.05639
           80940         2.30673
           80941         2.36808
           80942         2.35059
           80943         2.30578
           80944         2.24497
           80945         3.94354
           80946         3.91410
           80947         3.86367
           80948         2.34853
           80949         2.37498
           80950         4.29710
           80951         4.42313
           80952         2.47363
           80953         3.34472
           80954         3.62377
           80955         3.44483
           80956         3.51874
           80957         4.08624
           80958         4.00269
           80959         4.04267
           80960         4.34105
           80961         2.60036
           80962         2.19306
           80963         4.01384
           80964         3.81655
           80965         3.76377
           80966         1.34112
           80967         1.40565
           80968         1.38610
           80969         1.31476
           80970         3.51773
           80971         3.59184
           80972         3.67987
           80973         3.74821
           80974         4.00950
           80975         4.01449
           80976         4.10863
           80977         3.83467
           80978         3.83056
           80979         1.33484
           80980         1.30278
           80981         1.24268
           80982         2.20612
           80983         2.23009
           80984         3.98850
           80985         2.22938
           80986         2.20271
           80987         3.79562
           80988         2.06739
           80989         4.84461
           80990         4.68053
           80991         3.30305
           80992         3.26660
           80993         2.25198
           80994         3.82839
           80995         3.90311
           80996         3.87693
           80997         1.06833
           80998         2.22696
           80999         2.27305
           81000         2.34342
           81001         4.01708
           81002         4.09776
           81003         4.06566
           81004         3.96362
           81005         6.09641
           81006         4.13520
           81007         6.29695
           81008         6.80991
           81009         4.09666
           81010         6.16178
           81011         6.33247
           81012         6.02360
           81013         4.20680
           81014         4.29048
           81015         4.19591
           81016         4.05372
           81017     814.986E-03
           81018     781.790E-03
           81019     865.203E-03
           81020         4.85738
           81021         4.81796
           81022     718.547E-03
           81023     717.873E-03
           81024     883.568E-03
           81025     846.859E-03
           81026     790.983E-03
           81027     829.797E-03
           81028     770.599E-03
           81029     710.437E-03
           81030     752.742E-03
           81031     792.769E-03
           81032         8.22087
           81033         5.03986
           81034         4.91384
           81035         5.03911
           81036         7.16421
           81037         4.67623
           81038         4.47500
           81039         4.37586
           81040         4.43863
           81041         4.54013
           81042         8.81143
           81043         7.07291
           81044         7.20984
           81045         7.59706
           81046         7.59349
           81047         7.35034
           81048         7.72602
           81049         5.47328
           81050         9.36707
           81051         8.90326
           81052         5.27480
           81053         5.14241
           81054         9.73379
           81055         9.91304
           81056         4.97375
           81057         5.35943
           81058         5.33274
           81059         6.78734
           81060         9.45509
           81061         6.87712
           81062         2.60959
           81063         2.61123
           81064         2.61681
           81065         2.62051
           81066         2.61294
           81067         7.09548
           81068         7.32528
           81069         5.82987
           81070         5.73900
           81071         6.16008
           81072         2.59575
           81073         2.60186
           81074     322.832E-03
           81075     348.127E-03
           81076     265.485E-03
           81077         7.06804
           81078         6.63423
           81079         1.65692
           81080         1.82056
           81081         1.92487
           81082         1.88091
           81083         6.44248
           81084         6.46619
           81085         1.99761
           81086         1.09752
           81087         1.00742
           81088     928.949E-03
           81089         7.11203
           81090     782.250E-03
           81091         5.01273
           81092         4.99985
           81093         4.93815
           81094         5.12068
           81095         1.84850
           81096         4.88165
           81097         4.99812
           81098         4.89577
           81099         7.60578
           81100         7.44824
           81101         7.49980
           81102         4.83750
           81103         4.85916
           81104         4.74839
           81105         4.81577
           81106         4.84958
           81107         4.42858
           81108         4.76690
           81109         4.75536
           81110         4.79297
           81111         4.74326
           81112         4.77075
           81113         4.88826
           81114         2.78237
           81115         2.97813
           81116         2.97248
           81117         2.92895
           81118         2.96735
           81119         2.97302
           81120         2.97974
           81121         8.36984
           81122         2.92742
           81123         2.63045
           81124         2.62601
           81125         2.62083
           81126         2.61401
           81127         2.62498
           81128         8.09010
           81129         8.03922
           81130         2.62377
           81131         2.62166
           81132         2.62848
           81133         2.65031
           81134         2.64917
           81135         2.65066
           81136         6.33844
           81137         6.43243
           81138         8.23761
           81139         8.54416
           81140         8.09379
           81141         6.41311
           81142         5.29847
           81143         7.75709
           81144         7.93485
           81145         8.74974
           81146         5.85289
           81147         5.45580
           81148         5.39662
           81149         5.50051
           81150         5.62241
           81151         5.32263
           81152         5.66187
           81153         7.34692
           81154         7.05425
           81155         7.81277
           81156         8.00039
           81157         7.75861
           81158         7.80269
           81159         7.84390
           81160         7.88343
           81161         5.41622
           81162         5.55127
           81163         6.19392
           81164         6.82929
           81165     966.410E-03
           81166         1.04396
           81167     990.873E-03
           81168         1.09795
           81169         1.22291
           81170         1.24369
           81171         1.14830
           81172         1.53157
           81173         8.24615
           81174         8.40331
           81175         4.42372
           81176         4.35982
           81177         4.37804
           81178         4.59185
           81179         4.64297
           81180         4.89499
           81181         4.56148
           81182         4.52664
           81183         4.26082
           81184         4.31600
           81185         4.38758
           81186         4.55780
           81187         5.09718
           81188         4.82213
           81189         4.37014
           81190         5.79151
           81191         5.74780
           81192         4.73261
           81193         4.87515
           81194         4.79168
           81195         5.00839
           81196         4.83522
           81197         4.62856
           81198         4.81643
           81199         5.25616
           81200         5.37876
           81201         5.19300
           81202         5.19953
           81203         5.11265
           81204         4.94193
           81205         4.93784
           81206         4.78296
           81207     19.7745E-03
           81208         4.29207
           81209         4.21044
           81210         4.20292
           81211     47.4656E-03
           81212     14.4271E-03
           81213         4.69194
           81214         4.73999
           81215         4.72346
           81216         4.80360
           81217         3.97768
           81218         3.97950
           81219         4.05048
           81220     40.4148E-03
           81221     26.4703E-03
           81222     40.6900E-03
           81223     45.6752E-03
           81224     25.5728E-03
           81225         4.15771
           81226         4.07202
           81227         4.20130
           81228         4.16152
           81229     26.4269E-03
           81230         2.59886
           81231         4.69669
           81232         2.51449
           81233         3.78061
           81234         2.57301
           81235         2.53507
           81236         2.55547
           81237         5.06061
           81238         2.48602
           81239         3.88843
           81240         3.90155
           81241         3.94978
           81242         3.76036
           81243         2.55401
           81244         2.54584
           81245         2.51675
           81246         2.48314
           81247         3.34300
           81248         3.42847
           81249         3.29764
           81250         5.01072
           81251         2.67400
           81252         3.36554
           81253         3.43320
           81254         3.50028
           81255         3.42801
           81256         3.11599
           81257         3.15149
           81258         3.02087
           81259         3.13737
           81260         2.39391
           81261         2.91478
           81262         3.13968
           81263         2.37684
           81264         2.95787
           81265         3.02237
           81266         3.04084
           81267         2.50047
           81268         5.92233
           81269         4.24846
           81270         4.50318
           81271         4.06057
           81272         2.56513
           81273         2.40412
           81274         3.19079
           81275         3.18704
           81276         3.56305
           81277         3.46810
           81278         3.38397
           81279         3.12485
           81280         3.14324
           81281         3.11601
           81282         3.19426
           81283         3.16795
           81284         3.14384
           81285         3.22744
           81286         3.14542
           81287         3.10422
           81288         3.31489
           81289         8.05219
           81290         2.48207
           81291         2.62377
           81292         5.92807
           81293         6.03021
           81294         8.26674
           81295         7.21602
           81296         9.03693
           81297         7.77016
           81298         7.48219
           81299         6.40300
           81300         5.77756
           81301         5.91241
           81302         1.19196
           81303         1.23413
           81304         1.10083
           81305         1.02157
           81306         6.61931
           81307         6.40683
           81308         1.28199
           81309         1.19942
           81310         1.29780
           81311         1.38849
           81312         1.54200
           81313         7.33052
           81314         7.46410
           81315         8.60234
           81316         7.02100
           81317         6.70650
           81318         6.82095
           81319         6.70183
           81320         6.31411
           81321         6.21832
           81322         6.22634
           81323         1.53645
           81324     548.861E-03
           81325     531.359E-03
           81326     498.591E-03
           81327         1.35454
           81328         5.34805
           81329     627.990E-03
           81330     420.217E-03
           81331         6.11277
           81332         2.41311
           81333         2.44263
           81334         2.45898
           81335         2.51146
           81336         2.50525
           81337         6.37967
           81338         6.20853
           81339         2.52980
           81340         4.15183
           81341         4.29066
           81342         5.31414
           81343         5.29155
           81344         2.49055
           81345         2.46361
           81346         2.46310
           81347         2.48089
           81348         5.60315
           81349         12.6269
           81350         11.9565
           81351         4.96623
           81352         4.98415
           81353         5.02029
           81354         4.90696
           81355         5.12202
           81356         5.31363
           81357         4.03939
           81358         5.56453
           81359         2.62251
           81360         2.69096
           81361         2.64940
           81362         2.60128
           81363         2.63727
           81364         4.49165
           81365         4.41241
           81366         4.54088
           81367         4.30270
           81368         4.23736
           81369         4.17584
           81370         2.57381
           81371         1.44532
           81372         4.03236
           81373         3.80193
           81374         4.86155
           81375         1.26064
           81376         1.26694
           81377         1.46748
           81378         4.29022
           81379         4.26040
           81380         4.44445
           81381         5.72523
           81382         1.62438
           81383         1.57800
           81384         1.28159
           81385         1.27947
           81386         1.22321
           81387         1.29869
           81388         1.30460
           81389         1.25327
           81390         1.25693
           81391         1.19638
           81392         6.16896
           81393         6.18656
           81394         3.93912
           81395         3.72032
           81396         3.67038
           81397         4.88695
           81398         6.10194
           81399         6.16518
           81400         6.13541
           81401         6.13162
           81402         6.06513
           81403         5.95728
           81404         5.90440
           81405         6.00737
           81406         5.97897
           81407         3.58637
           81408         5.96652
           81409         3.27590
           81410         6.11687
           81411         6.05005
           81412         6.09614
           81413         6.16367
           81414         6.06685
           81415         6.01065
           81416         4.81842
           81417         4.54454
           81418         4.91628
           81419         6.14739
           81420         6.10135
           81421         6.22094
           81422         4.11968
           81423         4.33092
           81424         5.80749
           81425         5.85283
           81426         7.30307
           81427         8.01567
           81428         5.90581
           81429         8.96475
           81430         9.20212
           81431         6.66754
           81432         8.73441
           81433         8.77524
           81434         6.27192
           81435         3.44503
           81436         3.40278
           81437         3.42403
           81438         7.72916
           81439         3.38207
           81440         6.77782
           81441         3.29959
           81442         6.14105
           81443         6.12438
           81444         8.08845
           81445         3.43307
           81446     191.343E-03
           81447         4.64881
           81448         4.77467
           81449     50.7284E-03
           81450     83.5109E-03
           81451         6.31546
           81452         6.31126
           81453         6.27879
           81454         6.20349
           81455         6.27350
           81456         6.07081
           81457         6.07770
           81458         6.16713
           81459         6.18712
           81460         4.84024
           81461         4.78539
           81462         4.87212
           81463         2.62992
           81464         2.55995
           81465         2.54113
           81466         7.16882
           81467         2.67562
           81468         3.71902
           81469         3.88961
           81470         2.88117
           81471         2.66819
           81472         2.52385
           81473         6.97352
           81474         6.69693
           81475         2.53700
           81476         2.51120
           81477         2.54635
           81478         5.67204
           81479         5.66242
           81480         5.40489
           81481         5.66395
           81482         5.79708
           81483         5.66822
           81484         5.76878
           81485         5.73172
           81486         5.77151
           81487         5.90291
           81488         5.63203
           81489         6.44127
           81490         3.58610
           81491         5.66674
           81492         5.74043
           81493         3.47119
           81494         3.39576
           81495         3.49710
           81496         5.76330
           81497         5.81159
           81498         6.01336
           81499         5.89424
           81500         5.87591
           81501         5.94733
           81502         6.30251
           81503         3.86693
           81504         5.53984
           81505         5.57154
           81506         5.29357
           81507         5.60088
           81508         5.71228
           81509         3.64909
           81510         3.64911
           81511         2.09613
           81512         2.08953
           81513         2.04532
           81514         5.65347
           81515         5.68157
           81516         5.84507
           81517         5.84138
           81518         5.87697
           81519         1.97015
           81520         2.02301
           81521         1.99976
           81522         1.97242
           81523         1.95754
           81524         5.38083
           81525         2.03053
           81526         5.68358
           81527         5.33432
           81528         5.32973
           81529         6.24301
           81530         5.95523
           81531         5.99631
           81532         6.19534
           81533         6.04272
           81534         5.35161
           81535         5.42696
           81536         5.23661
           81537         5.96303
           81538         6.43324
           81539         6.42282
           81540         5.68537
           81541         4.75630
           81542         5.24246
           81543         5.27380
           81544         5.22469
           81545         5.48016
           81546         5.46817
           81547         5.52987
           81548         5.54030
           81549         5.92263
           81550         5.64807
           81551         5.66426
           81552         5.34389
           81553         5.99908
           81554         6.39346
           81555         6.54962
           81556         6.70148
           81557         6.06439
           81558         6.12596
           81559         5.57170
           81560         5.62158
           81561         6.14106
           81562         6.10692
           81563         6.04381
           81564         6.06337
           81565         6.17950
           81566         3.07918
           81567         7.37328
           81568         6.25195
           81569         6.31774
           81570         5.31655
           81571         5.30841
           81572         5.37845
           81573         4.97426
           81574         9.91353
           81575         8.77973
           81576         8.59849
           81577         8.45528
           81578         7.25188
           81579         7.67845
           81580         7.71592
           81581         8.59354
           81582         8.09972
           81583         8.22620
           81584         6.57923
           81585         6.68158
           81586         1.44720
           81587         10.3752
           81588         7.04511
           81589         9.23681
           81590         8.29753
           81591         9.18806
           81592         6.96231
           81593         6.87587
           81594         6.40176
           81595         6.56428
           81596         7.69337
           81597         6.39713
           81598         6.61414
           81599         7.32709
           81600         7.56369
           81601         6.80955
           81602         5.81851
           81603         7.29120
           81604         5.89699
           81605         5.76222
           81606         6.11644
           81607         6.08468
           81608         5.93969
           81609         5.76607
           81610         7.70185
           81611         8.54935
           81612         7.28379
           81613         6.80592
           81614         5.69129
           81615         5.72993
           81616         5.74732
           81617         5.27060
           81618         8.09218
           81619         7.45469
           81620         7.35954
           81621         7.12541
           81622     268.108E-03
           81623         7.82374
           81624         8.18877
           81625     318.422E-03
           81626     374.486E-03
           81627     286.800E-03
           81628         7.13836
           81629         5.65541
           81630         5.86608
           81631         6.81417
           81632         5.72956
           81633         6.64180
           81634         6.48910
           81635         6.51334
           81636         6.26660
           81637         5.89526
           81638         6.49357
           81639         6.40123
           81640         5.77450
           81641         6.75788
           81642         6.57096
           81643         6.88008
           81644     165.426E-03
           81645         6.98538
           81646         7.14206
           81647         7.14478
           81648     319.982E-03
           81649     234.028E-03
           81650     216.079E-03
           81651         6.12234
           81652     476.956E-03
           81653         2.08083
           81654         2.14023
           81655         2.14223
           81656         2.12491
           81657         2.08133
           81658         6.23536
           81659         2.03544
           81660         2.08224
           81661         5.53708
           81662         5.68557
           81663         2.07223
           81664         2.09232
           81665         2.11077
           81666         2.19304
           81667         2.22282
           81668         2.20007
           81669         2.18295
           81670         4.38427
           81671         4.50829
           81672         4.39093
           81673         5.45140
           81674         5.50904
           81675         5.40335
           81676         5.60758
           81677         4.49409
           81678         4.54211
           81679         4.07336
           81680         3.91304
           81681         4.55069
           81682         3.58124
           81683         3.42995
           81684         2.42842
           81685         5.64704
           81686         5.70039
           81687         5.89392
           81688         5.82166
           81689         2.38264
           81690         2.41774
           81691         5.76057
           81692         5.54801
           81693         2.45843
           81694         2.47961
           81695         2.47259
           81696         2.47008
           81697         6.22684
           81698     257.654E-03
           81699     336.722E-03
           81700     332.789E-03
           81701     309.774E-03
           81702     346.060E-03
           81703     331.981E-03
           81704     306.168E-03
           81705     256.126E-03
           81706     436.470E-03
           81707     542.744E-03
           81708     522.381E-03
           81709     259.898E-03
           81710         5.98540
           81711         6.00042
           81712         6.06127
           81713     444.224E-03
           81714         6.12190
           81715         5.75500
           81716         5.82644
           81717         5.76873
           81718         5.67655
           81719         5.63470
           81720         5.57011
           81721         5.89863
           81722         5.53873
           81723         5.54502
           81724         5.68221
           81725         5.71828
           81726         5.56105
           81727         5.62978
           81728         2.68029
           81729         5.54823
           81730         5.64589
           81731         2.71241
           81732         2.69866
           81733         2.76042
           81734         2.74175
           81735         2.74670
           81736         1.46525
           81737         1.52940
           81738         1.52428
           81739         5.85137
           81740         5.76909
           81741         1.54266
           81742         5.61044
           81743         1.17269
           81744         1.08701
           81745         1.44880
           81746         1.43310
           81747         5.69296
           81748         1.35344
           81749         1.33303
           81750         1.46437
           81751         1.43602
           81752         2.73798
           81753         2.73515
           81754         2.74786
           81755         2.73392
           81756         2.72196
           81757         2.73920
           81758         2.77155
           81759         2.72653
           81760         2.71674
           81761         2.72115
           81762         5.81093
           81763         5.79015
           81764         5.72408
           81765         2.70519
           81766         2.72707
           81767         2.73157
           81768         5.20588
           81769         5.32641
           81770         2.71266
           81771         2.69325
           81772         2.69572
           81773         2.71571
           81774         5.67612
           81775         2.64848
           81776         2.64364
           81777         2.64110
           81778         2.64625
           81779         2.64986
           81780         2.63886
           81781         2.64744
           81782         2.65594
           81783         2.66178
           81784         5.42624
           81785         5.48594
           81786         2.66002
           81787         2.65290
           81788         5.53319
           81789         2.64213
           81790         5.37292
           81791         5.14631
           81792         2.63024
           81793         2.62988
           81794         2.66745
           81795         2.66636
           81796         2.66895
           81797         2.66943
           81798         2.67074
           81799         2.66429
           81800         2.66537
           81801         2.66430
           81802         2.66584
           81803         2.66806
           81804         2.66264
           81805         2.67297
           81806         2.66981
           81807         2.67319
           81808         2.67185
           81809         4.10544
           81810         2.67002
           81811         2.67304
           81812         2.67416
           81813         2.67100
           81814         5.82399
           81815         5.89378
           81816         5.50023
           81817         4.59435
           81818         3.77808
           81819         6.55952
           81820         2.12618
           81821         2.08168
           81822         8.04330
           81823         7.87574
           81824         1.93230
           81825         1.98429
           81826         2.03118
           81827         2.04724
           81828         2.08270
           81829         1.98267
           81830         2.01358
           81831         2.17668
           81832         2.17813
           81833         2.19522
           81834         5.79380
           81835         5.79478
           81836         5.76822
           81837         2.40486
           81838         2.13441
           81839         2.31399
           81840         2.64410
           81841         2.45315
           81842         4.57873
           81843         4.62078
           81844         4.50820
           81845         2.85846
           81846         2.93617
           81847         2.89583
           81848         2.82157
           81849         2.74869
           81850         3.12271
           81851         3.23722
           81852         4.85756
           81853         2.01229
           81854         2.03689
           81855         2.06843
           81856         2.05272
           81857         2.09817
           81858         2.07116
           81859         2.08324
           81860         2.06556
           81861         3.96537
           81862         2.03311
           81863         1.98741
           81864         2.00145
           81865         2.48542
           81866         2.06742
           81867         2.07284
           81868         3.00111
           81869         3.00515
           81870         2.85179
           81871         2.82877
           81872         2.79932
           81873         2.81374
           81874         2.81487
           81875         2.83681
           81876         2.81447
           81877         3.74454
           81878         2.85970
           81879         2.80311
           81880         5.44995
           81881         5.30176
           81882         5.38583
           81883         5.41155
           81884         2.41693
           81885         3.56001
           81886         5.14047
           81887         4.83743
           81888         4.92622
           81889         4.83805
           81890         4.88608
           81891         4.96991
           81892         5.02509
           81893         4.98125
           81894         4.20108
           81895         3.06171
           81896         2.93232
           81897         4.04213
           81898         4.09930
           81899         4.08140
           81900         4.91035
           81901         5.04203
           81902         4.86610
           81903         5.18348
           81904         5.24958
           81905         5.16521
           81906         5.46634
           81907         5.45472
           81908         5.42525
           81909         4.89933
           81910         5.02857
           81911         5.06922
           81912         5.14531
           81913         4.12639
           81914         4.99577
           81915         5.16948
           81916         4.45585
           81917         5.30794
           81918         1.73899
           81919         1.73165
           81920         5.25517
           81921         5.16725
           81922         1.80951
           81923         5.37789
           81924         5.72868
           81925         5.31353
           81926         4.75545
           81927         5.45080
           81928         5.51252
           81929         5.70480
           81930         5.72985
           81931         5.84952
           81932         5.86064
           81933         5.43272
           81934         5.90905
           81935         5.62744
           81936         4.81340
           81937         4.92445
           81938         4.80314
           81939         5.47661
           81940         5.46206
           81941         6.46903
           81942         6.56230
           81943         5.52021
           81944         4.90064
           81945         4.83950
           81946         4.90857
           81947         4.78710
           81948         5.76017
           81949         5.79932
           81950         5.71504
           81951         5.68863
           81952         5.68252
           81953         5.25005
           81954         5.73735
           81955         4.44164
           81956         4.60033
           81957         4.67581
           81958         4.74856
           81959         5.37685
           81960         5.35765
           81961         5.64914
           81962         4.60246
           81963         4.69448
           81964         4.63504
           81965         5.79231
           81966         1.78839
           81967         1.68931
           81968         1.74140
           81969         1.72066
           81970         1.81760
           81971         1.85193
           81972         1.82489
           81973         1.79062
           81974         1.85008
           81975         1.70179
           81976         1.76301
           81977         1.67682
           81978         4.75427
           81979         1.85131
           81980         1.79097
           81981         1.82048
           81982         1.78904
           81983         5.55310
           81984         5.63380
           81985         5.82345
           81986         5.74935
           81987         5.42628
           81988         6.97889
           81989         2.78323
           81990         2.72198
           81991         2.72808
           81992         2.73387
           81993         2.75056
           81994         2.83058
           81995         2.69444
           81996         2.66592
           81997         7.59739
           81998         2.63943
           81999         2.70398
           82000         2.62108
           82001         5.63683
           82002         5.84889
           82003         5.87873
           82004         5.78659
           82005         2.34275
           82006         2.31823
           82007         2.32151
           82008         2.34258
           82009         2.33122
           82010         2.35240
           82011         2.34300
           82012         2.35579
           82013         2.33504
           82014         2.34408
           82015         2.29496
           82016         2.28875
           82017         2.28787
           82018         2.29398
           82019         2.32715
           82020         2.31066
           82021         2.30462
           82022         2.27872
           82023         2.30067
           82024         6.49534
           82025         6.25377
           82026         3.19182
           82027         3.20374
           82028         3.23243
           82029         3.34218
           82030         3.00053
           82031         5.69138
           82032         2.88187
           82033         5.92551
           82034         5.88367
           82035         5.92719
           82036         3.19769
           82037         3.26746
           82038         5.70179
           82039         3.16839
           82040         3.14014
           82041         5.25906
           82042         5.75929
           82043         3.08050
           82044         2.95744
           82045         4.56047
           82046         5.50758
           82047         4.32702
           82048         4.13506
           82049         4.52495
           82050         4.35650
           82051         4.11828
           82052         4.17369
           82053         6.92936
           82054         7.10796
           82055         8.08938
           82056         5.20711
           82057         5.24871
           82058         7.91893
           82059         7.75332
           82060         3.75285
           82061         4.66176
           82062         4.42985
           82063         2.82597
           82064         2.87141
           82065         4.22986
           82066         4.09225
           82067         2.79868
           82068         2.83203
           82069         2.80633
           82070         2.86410
           82071         2.81760
           82072         2.80584
           82073         2.83740
           82074         2.80389
           82075         2.81640
           82076         2.90161
           82077         5.87035
           82078         3.60159
           82079         5.97293
           82080         6.05831
           82081         6.07305
           82082         5.98952
           82083         6.07510
           82084         1.93428
           82085         3.57099
           82086         1.86325
           82087         4.36298
           82088         1.96167
           82089         4.01220
           82090         3.89459
           82091         1.89320
           82092         5.82565
           82093         3.34816
           82094         3.15998
           82095         2.96223
           82096         3.07127
           82097         3.00199
           82098         2.88079
           82099         2.89970
           82100         3.09400
           82101         5.83520
           82102         4.02415
           82103         3.98492
           82104         3.92749
           82105         11.8383
           82106         11.4940
           82107         13.0477
           82108         10.6896
           82109         10.7787
           82110         11.7258
           82111         6.32662
           82112         6.32834
           82113         4.31657
           82114         4.07809
           82115         4.62409
           82116         10.6114
           82117         2.18453
           82118         2.26103
           82119         2.10274
           82120         1.81855
           82121         2.23084
           82122         2.28549
           82123         2.32309
           82124         1.99018
           82125         3.28344
           82126         3.17164
           82127         2.71725
           82128         2.65508
           82129         2.56687
           82130         2.62613
           82131         2.96734
           82132         2.77884
           82133         1.79169
           82134         4.55755
           82135         4.59537
           82136         4.91398
           82137         4.68108
           82138         5.07415
           82139         2.76324
           82140         2.63780
           82141         2.20139
           82142         2.09566
           82143         1.98804
           82144         4.89931
           82145         4.89997
           82146         4.64559
           82147         2.97771
           82148         2.80827
           82149         2.82860
           82150         2.78280
           82151         2.94237
           82152         2.98086
           82153         3.86816
           82154         3.01269
           82155         3.09671
           82156         2.12646
           82157         1.98122
           82158         3.14834
           82159         3.79191
           82160         3.82378
           82161         3.77302
           82162         3.74174
           82163         3.86847
           82164         3.62440
           82165         3.77846
           82166         4.05894
           82167         4.16843
           82168         4.21308
           82169         3.94152
           82170         3.88842
           82171         3.35856
           82172         2.71809
           82173         3.88615
           82174         3.39458
           82175         3.98617
           82176         3.91185
           82177         3.92234
           82178         2.52421
           82179         2.53392
           82180         2.53894
           82181         2.53505
           82182         4.47138
           82183         3.81076
           82184         3.65768
           82185         3.29268
           82186         2.52009
           82187         2.52182
           82188         2.53270
           82189         5.12812
           82190         4.46581
           82191         2.51617
           82192         2.52321
           82193         2.50959
           82194         2.55581
           82195         2.54740
           82196         2.54320
           82197         2.54022
           82198         2.54627
           82199         5.56000
           82200         4.87389
           82201         4.72481
           82202         5.67509
           82203         7.14322
           82204         5.41235
           82205         5.43618
           82206         5.33021
           82207         5.45464
           82208         5.48186
           82209         5.40951
           82210         5.78266
           82211         5.62728
           82212         5.65867
           82213         4.97157
           82214         2.72368
           82215         2.73618
           82216         2.72075
           82217         2.70920
           82218         2.71853
           82219         2.71360
           82220         5.80322
           82221         5.89940
           82222         5.73606
           82223         2.72969
           82224         2.72372
           82225         2.69752
           82226         2.69405
           82227         2.68177
           82228         2.72888
           82229         2.71425
           82230         2.71531
           82231         2.70979
           82232         3.43022
           82233         3.40795
           82234         3.27863
           82235         3.34568
           82236         3.34892
           82237         3.28317
           82238         3.19627
           82239         3.22018
           82240         3.22367
           82241         3.32403
           82242         3.11343
           82243         2.74192
           82244         2.76035
           82245         3.63177
           82246         6.23700
           82247         6.27895
           82248         5.76549
           82249         7.33046
           82250         7.37532
           82251         5.78833
           82252         2.81750
           82253         2.83155
           82254         2.82297
           82255         5.75758
           82256         5.78476
           82257         6.13005
           82258         2.83101
           82259         2.79937
           82260         2.83604
           82261         2.80819
           82262         6.32716
           82263         2.82408
           82264         2.51030
           82265         2.51819
           82266         2.52547
           82267         2.61735
           82268         2.62267
           82269         2.62153
           82270         2.54794
           82271         2.54080
           82272         2.53371
           82273         2.47363
           82274         2.47767
           82275         6.14572
           82276         9.59274
           82277         9.52674
           82278         7.89579
           82279         8.17658
           82280         6.22117
           82281     656.834E-03
           82282     711.896E-03
           82283     647.708E-03
           82284     690.204E-03
           82285         7.22236
           82286         6.87559
           82287     587.118E-03
           82288         5.90362
           82289         3.52909
           82290         3.37177
           82291         3.24863
           82292         3.55992
           82293         3.71786
           82294     771.004E-03
           82295     720.391E-03
           82296         6.63516
           82297         7.03706
           82298     620.906E-03
           82299     620.841E-03
           82300     573.122E-03
           82301     665.675E-03
           82302     714.463E-03
           82303     586.600E-03
           82304     680.048E-03
           82305     695.991E-03
           82306     777.348E-03
           82307     682.220E-03
           82308     867.332E-03
           82309     725.150E-03
           82310     712.069E-03
           82311         7.05874
           82312         6.41278
           82313     518.202E-03
           82314     573.123E-03
           82315         4.47502
           82316         4.40479
           82317         4.21094
           82318         7.76369
           82319         7.43435
           82320         6.67171
           82321         6.53003
           82322         7.43197
           82323         7.95379
           82324         6.16966
           82325         5.94404
           82326         6.13179
           82327         7.65094
           82328         5.89351
           82329         5.91903
           82330         5.01950
           82331         5.11204
           82332         4.91027
           82333         4.49628
           82334         4.24041
           82335         4.09200
           82336         4.15516
           82337         4.18690
           82338         4.12337
           82339         4.09151
           82340         4.24020
           82341         4.12275
           82342         4.25069
           82343         4.18556
           82344         5.35737
           82345         5.31406
           82346         5.29516
           82347         4.37069
           82348         4.31757
           82349         4.29990
           82350         4.48806
           82351         1.53397
           82352         1.51716
           82353         1.55571
           82354         1.48510
           82355         4.96671
           82356         1.52172
           82357         1.55120
           82358         1.52027
           82359         1.54606
           82360         1.48998
           82361         1.69091
           82362         1.64399
           82363         1.68965
           82364         1.70360
           82365         1.47525
           82366         1.50156
           82367         2.96971
           82368         2.97105
           82369         2.98115
           82370         3.96762
           82371         2.94230
           82372         2.96316
           82373         2.92571
           82374         5.17369
           82375         5.17228
           82376         2.22193
           82377         2.44997
           82378         2.16234
           82379         2.17884
           82380         2.15212
           82381         2.13530
           82382         2.86361
           82383         2.17258
           82384         6.27636
           82385         6.17507
           82386         3.44873
           82387         5.79708
           82388         5.81485
           82389         5.76295
           82390         6.06391
           82391         6.05278
           82392         2.69638
           82393         5.33077
           82394         3.53909
           82395         5.53152
           82396         5.44041
           82397         3.82175
           82398         5.35616
           82399         5.36534
           82400         5.35212
           82401         5.38447
           82402         5.37531
           82403         5.36429
           82404         5.37286
           82405         2.43993
           82406         2.31340
           82407         2.26063
           82408         1.60085
           82409         2.16648
           82410     798.737E-03
           82411         1.42609
           82412         1.00792
           82413         1.12600
           82414         1.85491
           82415         1.30285
           82416         4.63355
           82417         4.61391
           82418         4.61322
           82419         4.67199
           82420         4.74249
           82421         4.73725
           82422         4.95281
           82423         4.52561
           82424         1.62848
           82425         1.75724
           82426         4.74683
           82427         4.78408
           82428         2.62458
           82429         2.62230
           82430         2.63935
           82431         2.60767
           82432         2.62873
           82433         4.83195
           82434         4.93876
           82435         2.63735
           82436         2.63237
           82437         1.05200
           82438         1.19195
           82439         1.01728
           82440         2.65562
           82441         2.64834
           82442         2.65687
           82443         2.64335
           82444         2.68116
           82445     664.489E-03
           82446     653.879E-03
           82447     754.179E-03
           82448         2.51804
           82449         4.01095
           82450         4.08249
           82451         3.94121
           82452         4.06968
           82453         4.16781
           82454         4.21018
           82455         4.13166
           82456         4.03565
           82457         4.00130
           82458         3.85744
           82459         4.19930
           82460         2.47499
           82461         3.82727
           82462         3.94298
           82463     24.8800E-03
           82464     7.52429E-03
           82465     12.3604E-03
           82466     7.38891E-03
           82467     14.3151E-03
           82468         3.16213
           82469         3.61347
           82470         1.04147
           82471         1.07772
           82472         3.11411
           82473         1.83262
           82474         2.02039
           82475         2.01890
           82476     305.932E-03
           82477     222.171E-03
           82478         3.18432
           82479         3.24061
           82480         3.37612
           82481         3.26253
           82482         5.13378
           82483         5.10884
           82484         5.10223
           82485         5.06129
           82486         5.06917
           82487     46.8038E-03
           82488     66.8511E-03
           82489         5.08150
           82490         2.28469
           82491         2.27731
           82492         2.32138
           82493     113.418E-03
           82494         5.70871
           82495         5.73038
           82496         5.74976
           82497         2.18450
           82498         2.27316
           82499         2.31444
           82500         5.48008
           82501     189.387E-03
           82502     140.634E-03
           82503     97.5956E-03
           82504     139.778E-03
           82505     182.314E-03
           82506         2.53131
           82507         2.54492
           82508         2.54756
           82509         2.55391
           82510         2.53143
           82511     742.693E-03
           82512     689.145E-03
           82513     688.058E-03
           82514     741.338E-03
           82515     814.810E-03
           82516     266.338E-03
           82517     305.996E-03
           82518         2.63503
           82519         2.63137
           82520         2.62804
           82521     499.504E-03
           82522     504.224E-03
           82523     392.076E-03
           82524     510.961E-03
           82525         2.55970
           82526     61.3129E-03
           82527         2.55234
           82528         2.55637
           82529     31.8318E-03
           82530     40.2218E-03
           82531     48.0609E-03
           82532     38.1617E-03
           82533         4.97176
           82534         4.53811
           82535     91.2965E-03
           82536         4.44545
           82537         4.52975
           82538         4.48510
           82539         4.60375
           82540         1.50466
           82541     543.705E-03
           82542         1.05969
           82543         1.17371
           82544         1.91988
           82545         1.22049
           82546         1.21653
           82547         1.08476
           82548         1.00971
           82549     948.465E-03
           82550     76.1102E-03
           82551     92.0985E-03
           82552         1.22788
           82553         2.71090
           82554     326.912E-03
           82555     204.862E-03
           82556         1.52502
           82557         1.36349
           82558         2.67253
           82559         2.69966
           82560         3.00030
           82561         2.77645
           82562         2.63885
           82563         2.65652
           82564         5.64230
           82565         5.65176
           82566         5.60747
           82567         5.58634
           82568         5.57216
           82569         5.61475
           82570         2.83064
           82571         2.90479
           82572         2.66357
           82573         5.54914
           82574         5.57354
           82575         5.62784
           82576         5.65979
           82577         2.70642
           82578     812.364E-03
           82579         1.63804
           82580         2.65875
           82581         2.67892
           82582         2.16206
           82583         2.11004
           82584         2.23193
           82585         2.19120
           82586         2.18752
           82587         2.14766
           82588         2.18844
           82589         2.14101
           82590         2.39558
           82591         2.15362
           82592         4.51310
           82593         4.63040
           82594         4.48439
           82595         4.37821
           82596         4.30835
           82597         2.81691
           82598         3.06062
           82599         7.06547
           82600         6.68348
           82601         4.90280
           82602         4.75038
           82603         4.68297
           82604         4.54061
           82605         1.00841
           82606         5.02149
           82607         6.49647
           82608         6.60709
           82609         3.46642
           82610         5.54497
           82611         4.29320
           82612         4.17126
           82613         2.85526
           82614         2.89759
           82615         2.91110
           82616         2.85872
           82617         2.95601
           82618         2.97049
           82619         2.95417
           82620         2.97157
           82621         1.45407
           82622         2.84752
           82623         2.86896
           82624         5.43884
           82625         4.65524
           82626         5.13573
           82627         4.97115
           82628         4.54131
           82629         3.01523
           82630         3.04760
           82631         2.91979
           82632         2.97013
           82633         2.81393
           82634         3.61302
           82635         5.85444
           82636         2.92717
           82637         1.66227
           82638         1.49659
           82639         1.78147
           82640         1.71198
           82641         1.59403
           82642         1.74307
           82643         2.19635
           82644         1.82262
           82645         1.66362
           82646     793.155E-03
           82647         1.70235
           82648         1.55565
           82649         1.65332
           82650         1.46602
           82651         1.51159
           82652         1.54869
           82653         1.35340
           82654         3.29465
           82655         3.36206
           82656         3.28855
           82657         3.68123
           82658         3.44553
           82659         3.39259
           82660         3.52360
           82661         3.51106
           82662         3.66464
           82663         5.86249
           82664         5.84354
           82665         5.82941
           82666         8.55189
           82667         5.13263
           82668         4.06014
           82669         4.36229
           82670         5.61257
           82671         4.21804
           82672     85.8896E-03
           82673     58.5559E-03
           82674     61.8106E-03
           82675     49.6998E-03
           82676     58.1970E-03
           82677     278.348E-03
           82678     186.743E-03
           82679     198.748E-03
           82680         6.08028
           82681         6.15261
           82682     396.698E-03
           82683     504.247E-03
           82684     500.474E-03
           82685         7.44927
           82686         7.74165
           82687         7.75727
           82688         8.01332
           82689         8.27822
           82690         2.67137
           82691         2.66373
           82692         2.64850
           82693         2.65342
           82694         2.66004
           82695         2.68894
           82696     376.157E-03
           82697     305.047E-03
           82698     300.769E-03
           82699     43.5357E-03
           82700     51.0420E-03
           82701     100.826E-03
           82702         2.66310
           82703         2.65221
           82704         3.32112
           82705         3.41750
           82706         3.74269
           82707         3.68716
           82708         3.35164
           82709     415.003E-03
           82710         3.00787
           82711         3.51146
           82712         3.24399
           82713         3.44320
           82714         3.04713
           82715         3.51159
           82716     69.8905E-03
           82717         2.72881
           82718         2.73897
           82719         2.64417
           82720         2.64782
           82721         2.64574
           82722         2.64645
           82723         2.64594
           82724         2.64968
           82725         3.75534
           82726         3.54461
           82727         3.68785
           82728         3.64119
           82729     135.951E-03
           82730     32.4054E-03
           82731     45.9629E-03
           82732     43.8574E-03
           82733         2.89994
           82734         2.89525
           82735     373.820E-03
           82736     113.748E-03
           82737         2.87464
           82738         2.87309
           82739         5.58817
           82740         5.56162
           82741         5.63557
           82742         5.44082
           82743     581.610E-03
           82744         5.34566
           82745     959.382E-03
           82746     958.063E-03
           82747     871.874E-03
           82748         1.00023
           82749         2.58159
           82750         2.58565
           82751         2.57273
           82752         2.55949
           82753         2.57066
           82754         2.56622
           82755         2.57321
           82756         2.56969
           82757         2.57674
           82758         2.57904
           82759         2.59509
           82760     955.607E-03
           82761     821.829E-03
           82762         2.47817
           82763         2.47041
           82764         2.47369
           82765         2.48067
           82766         2.48754
           82767     431.531E-03
           82768         2.48630
           82769         2.48172
           82770         2.46007
           82771         2.46833
           82772         2.97298
           82773         3.21011
           82774     472.112E-03
           82775         2.47747
           82776         2.46446
           82777         2.48549
           82778         2.43882
           82779         2.45204
           82780     319.893E-03
           82781         1.22836
           82782     678.997E-03
           82783         2.44858
           82784         2.44993
           82785         2.45026
           82786         2.46015
           82787         2.47362
           82788     986.777E-03
           82789     924.009E-03
           82790     856.915E-03
           82791     875.273E-03
           82792         2.46693
           82793     114.614E-03
           82794     111.354E-03
           82795     948.675E-03
           82796     931.971E-03
           82797         3.59016
           82798     67.9499E-03
           82799     33.6160E-03
           82800     47.0716E-03
           82801     189.475E-03
           82802     164.921E-03
           82803         3.47128
           82804         3.36202
           82805         3.68086
           82806     139.564E-03
           82807         1.08774
           82808         1.01081
           82809     950.349E-03
           82810     948.180E-03
           82811         5.93089
           82812     482.369E-03
           82813     468.766E-03
           82814     814.522E-03
           82815     783.088E-03
           82816     694.511E-03
           82817     663.870E-03
           82818     972.402E-03
           82819         1.83762
           82820         1.42879
           82821         1.52666
           82822         1.52513
           82823         3.52044
           82824         1.88123
           82825         1.61829
           82826         1.77934
           82827         1.67034
           82828         1.54390
           82829         3.94065
           82830         3.52106
           82831     944.419E-03
           82832         2.61343
           82833         2.63176
           82834         2.61642
           82835         1.04090
           82836         2.59073
           82837         2.58925
           82838         2.39864
           82839         2.73634
           82840         2.60462
           82841         2.62159
           82842         1.28546
           82843         2.59577
           82844         2.59243
           82845         2.62777
           82846         2.61474
           82847         4.80671
           82848         3.71027
           82849         4.05517
           82850         5.08777
           82851         4.98194
           82852         5.08097
           82853         4.47492
           82854         4.45449
           82855         4.62264
           82856         2.25418
           82857         3.73910
           82858         4.50904
           82859         5.22298
           82860         1.93445
           82861         4.67317
           82862         3.42587
           82863         3.72995
           82864         5.84359
           82865     49.4814E-03
           82866         5.55333
           82867     185.239E-03
           82868     24.1980E-03
           82869         5.81237
           82870         5.75954
           82871         5.79076
           82872         5.95398
           82873         6.03948
           82874         6.02862
           82875         5.79813
           82876         5.78726
           82877         5.82779
           82878         6.04766
           82879         5.96172
           82880         6.03489
           82881     46.9549E-03
           82882         5.98206
           82883         5.87871
           82884         5.90226
           82885     47.1999E-03
           82886     47.0797E-03
           82887         2.88776
           82888         2.87734
           82889         2.84679
           82890         2.95082
           82891         2.95306
           82892         2.71300
           82893         2.77392
           82894         2.47617
           82895         2.47060
           82896         2.50173
           82897     33.9803E-03
           82898     25.3629E-03
           82899     40.4438E-03
           82900     46.0614E-03
           82901         2.51219
           82902         2.59444
           82903     34.4391E-03
           82904     14.7549E-03
           82905     8.26451E-03
           82906         4.98020
           82907         5.06953
           82908         5.13177
           82909         4.64364
           82910         4.77072
           82911         5.05366
           82912         4.80333
           82913     45.7674E-03
           82914     41.6826E-03
           82915     42.0479E-03
           82916     45.4686E-03
           82917         3.53568
           82918     34.4844E-03
           82919         3.81064
           82920         3.74243
           82921     52.7498E-03
           82922         3.66461
           82923         3.78889
           82924         3.76262
           82925         3.74921
           82926     17.8969E-03
           82927         3.90732
           82928         5.73569
           82929         3.65356
           82930         3.72837
           82931     98.2731E-03
           82932     101.896E-03
           82933     41.0310E-03
           82934     788.860E-03
           82935         2.18241
           82936         2.16093
           82937         2.29179
           82938         2.25898
           82939         2.53679
           82940         2.23086
           82941         2.25218
           82942         2.36534
           82943         1.55561
           82944     424.152E-03
           82945     539.164E-03
           82946     429.627E-03
           82947     475.425E-03
           82948     488.361E-03
           82949     395.235E-03
           82950     347.689E-03
           82951     410.890E-03
           82952     461.438E-03
           82953         5.69877
           82954     402.981E-03
           82955     782.400E-03
           82956         6.77475
           82957     217.299E-03
           82958     513.819E-03
           82959     230.628E-03
           82960     783.782E-03
           82961         6.93606
           82962         6.83639
           82963         6.48378
           82964     798.943E-03
           82965     907.249E-03
           82966         6.93495
           82967     630.748E-03
           82968         6.49899
           82969     480.615E-03
           82970     532.270E-03
           82971     800.115E-03
           82972         1.02339
           82973         1.19249
           82974     897.745E-03
           82975         2.79721
           82976         1.27271
           82977         2.68617
           82978         2.69390
           82979         2.70000
           82980         1.61268
           82981     757.611E-03
           82982     973.490E-03
           82983     779.659E-03
           82984         2.59192
           82985         2.60392
           82986         2.59334
           82987         2.58250
           82988     993.632E-03
           82989         2.58140
           82990         2.64999
           82991         2.62870
           82992         2.59527
           82993         2.60503
           82994         2.57226
           82995         2.55682
           82996     883.804E-03
           82997     797.332E-03
           82998         1.55279
           82999     348.405E-03
           83000     523.924E-03
           83001     740.860E-03
           83002     858.662E-03
           83003         1.31438
           83004         1.38710
           83005     582.591E-03
           83006     542.651E-03
           83007         1.39973
           83008         1.49161
           83009         4.99234
           83010         1.53830
           83011         7.16056
           83012         3.22093
           83013         1.82472
           83014         5.36229
           83015         5.56870
           83016         5.44760
           83017         5.83125
           83018         4.90470
           83019         5.09832
           83020     815.248E-03
           83021         3.14920
           83022         3.05496
           83023         3.09313
           83024         3.01394
           83025         3.00069
           83026     777.352E-03
           83027     493.831E-03
           83028     479.315E-03
           83029         5.76493
           83030         3.06127
           83031         3.02432
           83032         2.95400
           83033         2.97362
           83034         2.98734
           83035         2.95027
           83036         2.92645
           83037         1.91270
           83038         1.79951
           83039         2.01451
           83040         2.94995
           83041         3.61002
           83042         3.62170
           83043         4.63330
           83044         4.69109
           83045         5.04114
           83046         5.06601
           83047         4.97769
           83048         4.95208
           83049         4.50961
           83050         4.80909
           83051         4.81170
           83052         1.51331
           83053         1.52564
           83054         1.47684
           83055     513.246E-03
           83056         2.76426
           83057         2.57716
           83058         2.52169
           83059         4.91977
           83060         2.28658
           83061         1.36067
           83062         5.05231
           83063         2.83023
           83064         2.81288
           83065         2.73058
           83066         1.59462
           83067         1.62322
           83068         2.88837
           83069         2.81207
           83070         2.91561
           83071         2.41443
           83072         1.60585
           83073         7.95279
           83074         7.72447
           83075         7.58179
           83076         7.93067
           83077         7.86920
           83078         1.74535
           83079         1.79321
           83080         1.77445
           83081         1.75742
           83082         1.73202
           83083         1.67304
           83084         1.70181
           83085         1.68359
           83086         1.75570
           83087         1.80675
           83088     7.51885E-03
           83089     106.195E-03
           83090     743.822E-03
           83091     717.900E-03
           83092     501.142E-03
           83093     584.183E-03
           83094         1.79257
           83095         1.82741
           83096         1.84708
           83097     196.762E-03
           83098     56.2108E-03
           83099     76.0374E-03
           83100     78.9090E-03
           83101     109.878E-03
           83102     57.7710E-03
           83103     113.259E-03
           83104     99.2375E-03
           83105     109.285E-03
           83106     789.443E-03
           83107         2.50233
           83108         2.50994
           83109         2.47750
           83110         2.48730
           83111         2.49648
           83112         2.50098
           83113         2.51305
           83114     38.7862E-03
           83115     22.0442E-03
           83116     49.6790E-03
           83117     34.7156E-03
           83118     25.1771E-03
           83119     113.779E-03
           83120     62.3202E-03
           83121     84.0965E-03
           83122     75.3537E-03
           83123     43.2591E-03
           83124     43.4868E-03
           83125     45.5133E-03
           83126     902.674E-03
           83127     953.604E-03
           83128     906.282E-03
           83129     881.938E-03
           83130     958.378E-03
           83131         1.00672
           83132     5.79686E-03
           83133     4.49912E-03
           83134     6.83743E-03
           83135     861.657E-03
           83136     895.842E-03
           83137     936.380E-03
           83138         5.96150
           83139         5.99839
           83140         1.27170
           83141     37.3115E-03
           83142         4.47853
           83143     55.8363E-03
           83144         1.19395
           83145         1.10729
           83146     39.6134E-03
           83147     100.376E-03
           83148         1.14039
           83149         1.22145
           83150         1.27359
           83151         1.35211
           83152         1.19911
           83153     46.1939E-03
           83154         2.79060
           83155         3.16033
           83156     82.8066E-03
           83157         3.00399
           83158         1.43960
           83159     687.501E-03
           83160         3.29494
           83161         3.24310
           83162     631.853E-03
           83163         5.47973
           83164         5.50382
           83165         5.44817
           83166         5.42671
           83167         5.44576
           83168         5.40222
           83169         5.38081
           83170         2.24151
           83171         2.54487
           83172         5.37724
           83173         5.31977
           83174         5.24302
           83175         5.29441
           83176         5.42575
           83177         5.29873
           83178         5.82829
           83179         5.61977
           83180         1.39638
           83181         1.54733
           83182         1.13925
           83183         5.53005
           83184         5.70931
           83185         5.71380
           83186         2.66851
           83187         2.66855
           83188         2.69495
           83189         1.04679
           83190         2.67457
           83191         2.68001
           83192         2.67492
           83193         2.69288
           83194         2.69984
           83195         2.68522
           83196         4.97743
           83197         4.93807
           83198         4.79515
           83199         4.99790
           83200         4.97853
           83201         9.78187
           83202     228.571E-03
           83203     344.852E-03
           83204     236.294E-03
           83205         10.3054
           83206         9.94153
           83207     654.821E-03
           83208         3.61278
           83209     90.5496E-03
           83210     50.1510E-03
           83211         3.60713
           83212         3.68303
           83213     538.812E-03
           83214         3.89367
           83215         3.73569
           83216         3.66091
           83217     292.239E-03
           83218     290.559E-03
           83219         5.73777
           83220         3.56762
           83221         2.71970
           83222         2.53024
           83223         2.58043
           83224         2.55995
           83225     453.586E-03
           83226         2.53586
           83227         2.50820
           83228     819.634E-03
           83229         5.82816
           83230         2.60824
           83231         1.75419
           83232         3.12796
           83233         3.10043
           83234     963.378E-03
           83235         3.09339
           83236         3.11599
           83237         3.11565
           83238         3.09625
           83239         3.07413
           83240         3.03849
           83241         3.00687
           83242         3.04147
           83243         3.17442
           83244     877.482E-03
           83245         1.16609
           83246         1.18570
           83247         1.35027
           83248         2.36060
           83249         2.37189
           83250         5.64773
           83251         1.17047
           83252         1.08148
           83253         5.70613
           83254         5.69919
           83255         2.55349
           83256         2.54424
           83257         2.45470
           83258     803.616E-03
           83259         1.86740
           83260         1.86777
           83261         1.87140
           83262         1.90729
           83263         1.90545
           83264     744.045E-03
           83265         1.88319
           83266         1.88918
           83267         1.90564
           83268         1.86382
           83269         1.83429
           83270         1.86227
           83271         1.89509
           83272         1.85801
           83273         1.84062
           83274         1.78493
           83275         1.78004
           83276         1.87340
           83277         1.86732
           83278     242.431E-03
           83279     130.740E-03
           83280     146.325E-03
           83281     189.036E-03
           83282     171.596E-03
           83283     153.717E-03
           83284     57.6343E-03
           83285     564.659E-03
           83286         1.36298
           83287         1.39254
           83288         1.20067
           83289     284.346E-03
           83290     914.890E-03
           83291     265.447E-03
           83292     287.975E-03
           83293     236.320E-03
           83294     495.433E-03
           83295     138.200E-03
           83296     168.602E-03
           83297         1.36458
           83298         1.27889
           83299         1.23585
           83300         1.32977
           83301         1.31062
           83302         1.38150
           83303         1.32347
           83304         1.40209
           83305         1.31677
           83306         1.48783
           83307         1.53159
           83308         1.44821
           83309         5.50830
           83310         5.07466
           83311         4.87274
           83312         4.42350
           83313         5.18733
           83314         5.25451
           83315         5.18553
           83316         3.91808
           83317         4.73515
           83318         4.76648
           83319         5.07693
           83320         5.01871
           83321         4.92592
           83322         2.79049
           83323         4.58056
           83324         2.77782
           83325         2.72193
           83326         5.72688
           83327         5.40993
           83328         5.76212
           83329         5.69986
           83330         5.68830
           83331         5.66419
           83332         5.54537
           83333         5.52301
           83334         4.09559
           83335         5.95320
           83336         5.24533
           83337         5.31589
           83338         5.50830
           83339         5.57967
           83340         5.37876
           83341         1.02391
           83342         1.10076
           83343         1.00746
           83344         1.05632
           83345         5.40326
           83346         5.45423
           83347         1.14308
           83348         1.14582
           83349         5.48599
           83350         5.50694
           83351         1.21259
           83352         1.17551
           83353         1.18868
           83354         1.21223
           83355         5.31040
           83356         6.83565
           83357         7.26543
           83358         5.58094
           83359         5.56435
           83360         1.24129
           83361         1.29538
           83362         5.43464
           83363         1.17470
           83364         1.25554
           83365         1.23193
           83366         5.53930
           83367         5.52699
           83368         5.56550
           83369         5.62547
           83370         5.62785
           83371         2.47315
           83372         2.37436
           83373         5.51789
           83374         5.55027
           83375         5.56133
           83376         5.52578
           83377         5.80702
           83378         5.63013
           83379         5.64786
           83380         2.49121
           83381         2.42361
           83382         2.19760
           83383         2.22535
           83384         2.24960
           83385         2.25187
           83386         2.26788
           83387         5.69840
           83388         5.69175
           83389         5.60510
           83390         5.67785
           83391         5.57022
           83392         5.21463
           83393         5.25986
           83394         5.44599
           83395         5.45930
           83396         5.45852
           83397         2.28427
           83398         2.26867
           83399         2.28412
           83400         6.36642
           83401         6.21428
           83402         5.19249
           83403         5.46742
           83404         2.26057
           83405         2.60958
           83406         2.61060
           83407         2.61056
           83408         2.60915
           83409         5.43263
           83410         5.39041
           83411         5.30392
           83412         5.33340
           83413         5.42405
           83414         5.46515
           83415         2.61257
           83416         5.05395
           83417         2.61146
           83418         5.14426
           83419         2.61161
           83420         4.16592
           83421         4.17214
           83422         5.23615
           83423         5.55898
           83424         5.19811
           83425         5.18319
           83426         5.05803
           83427         5.03596
           83428         4.57657
           83429         4.47243
           83430         5.07957
           83431         5.04195
           83432         5.06986
           83433         5.07861
           83434         4.11989
           83435         4.27306
           83436         5.08649
           83437         4.68447
           83438         4.59717
           83439         4.49084
           83440         5.06677
           83441         4.47090
           83442         5.34919
           83443         5.39597
           83444         5.45814
           83445         5.07987
           83446         5.11543
           83447         5.56123
           83448         4.70301
           83449         5.64758
           83450         5.72896
           83451         5.24165
           83452         5.47008
           83453         5.23590
           83454         5.23817
           83455         5.76555
           83456         6.02767
           83457         5.51543
           83458         5.68886
           83459         5.24074
           83460         5.32188
           83461         2.13583
           83462         2.07265
           83463         2.09827
           83464         2.14491
           83465         2.17017
           83466         2.18774
           83467         2.16298
           83468         2.24083
           83469         2.19567
           83470         2.21573
           83471         2.20507
           83472         4.57494
           83473         2.22936
           83474         2.20485
           83475         4.51870
           83476         4.60776
           83477         5.10873
           83478         5.30664
           83479         4.86731
           83480         4.78085
           83481         3.79222
           83482         3.98581
           83483         3.88536
           83484         4.59658
           83485         4.77050
           83486         4.56741
           83487         4.58435
           83488         4.69017
           83489         4.58812
           83490         5.05991
           83491         4.97762
           83492         1.00675
           83493         1.20566
           83494         1.17002
           83495         1.26327
           83496         1.21671
           83497         1.36577
           83498         5.69529
           83499         5.71747
           83500         5.12107
           83501         10.9183
           83502         5.96156
           83503         6.04992
           83504         6.22768
           83505         6.13457
           83506         5.51526
           83507         5.49167
           83508         5.51342
           83509         6.46892
           83510         7.69949
           83511         2.60309
           83512         2.60404
           83513         2.58937
           83514         2.59366
           83515         2.59255
           83516         2.59228
           83517         6.63596
           83518         2.60013
           83519         2.60292
           83520         6.45641
           83521         2.59583
           83522         7.64048
           83523         6.77768
           83524         7.87009
           83525         8.07332
           83526         6.43211
           83527         6.50373
           83528         6.38154
           83529         6.28423
           83530         7.33776
           83531         7.66174
           83532         6.21329
           83533         6.25136
           83534         8.41162
           83535         8.18545
           83536         6.28871
           83537         7.87404
           83538         7.72388
           83539         6.13695
           83540         6.14600
           83541         7.53455
           83542         7.68385
           83543         7.53937
           83544         7.60760
           83545         8.23037
           83546         7.88899
           83547         7.90000
           83548         7.01161
           83549         7.12343
           83550         9.68020
           83551         7.72398
           83552         8.29485
           83553         8.82018
           83554         9.11791
           83555         7.43514
           83556         7.59449
           83557         7.72179
           83558         7.87748
           83559         8.08285
           83560         7.91468
           83561         8.40666
           83562         6.23513
           83563         6.90213
           83564         6.12061
           83565         6.28873
           83566         2.36264
           83567         7.74090
           83568         7.42746
           83569         2.44531
           83570         2.38320
           83571         2.50299
           83572         7.26933
           83573         7.56759
           83574         2.31719
           83575         2.26811
           83576         2.36816
           83577         5.21496
           83578         5.74785
           83579         7.47756
           83580         7.19022
           83581         7.14005
           83582         7.94794
           83583         5.65776
           83584         5.69066
           83585         5.96131
           83586         6.07175
           83587         6.06576
           83588         5.64730
           83589         5.65080
           83590         6.00669
           83591         5.93539
           83592         5.84437
           83593         5.79696
           83594         5.97654
           83595         5.88124
           83596         5.97613
           83597         5.75556
           83598         5.59688
           83599         4.66161
           83600         5.88775
           83601         2.22552
           83602         2.24298
           83603         2.21123
           83604         2.21933
           83605         2.22422
           83606         2.13368
           83607         2.16086
           83608         2.04918
           83609         2.12786
           83610         2.03903
           83611         2.09404
           83612         2.16180
           83613         5.72156
           83614         5.61690
           83615         5.94424
           83616         5.94506
           83617         5.91834
           83618         6.00238
           83619         6.03326
           83620         2.38365
           83621         5.70386
           83622         1.32774
           83623         1.28967
           83624         6.65749
           83625         6.66592
           83626         6.24573
           83627         6.30637
           83628         5.87170
           83629         5.87439
           83630         5.89724
           83631         2.02317
           83632         1.40372
           83633         1.38488
           83634         1.39701
           83635     743.331E-03
           83636         5.86059
           83637         1.08159
           83638     982.359E-03
           83639         6.87640
           83640         6.83303
           83641     988.606E-03
           83642     961.672E-03
           83643         1.00260
           83644     906.663E-03
           83645     887.144E-03
           83646     853.175E-03
           83647         4.12543
           83648         7.37732
           83649         6.30869
           83650         6.33383
           83651         6.39873
           83652         7.43475
           83653         7.03930
           83654         7.72470
           83655         8.25142
           83656         5.77457
           83657         7.53834
           83658         7.36842
           83659         6.13741
           83660         7.73954
           83661         5.77532
           83662         5.63606
           83663         6.69583
           83664         6.84922
           83665     92.5940E-03
           83666         5.84908
           83667     42.1166E-03
           83668     104.997E-03
           83669     77.3935E-03
           83670         6.51249
           83671         5.25828
           83672         5.73781
           83673         5.87343
           83674         6.19283
           83675         5.28926
           83676         5.12116
           83677         5.09369
           83678         5.26145
           83679         5.37552
           83680     656.986E-03
           83681     858.888E-03
           83682     758.232E-03
           83683     808.453E-03
           83684     842.273E-03
           83685     874.543E-03
           83686         5.48486
           83687         5.42493
           83688         5.38389
           83689         5.07379
           83690     749.084E-03
           83691     759.261E-03
           83692     977.301E-03
           83693     889.173E-03
           83694         1.02338
           83695         5.50492
           83696         5.53161
           83697         5.68376
           83698         5.97463
           83699         5.36697
           83700         5.32404
           83701         5.54741
           83702         5.60249
           83703         1.20111
           83704         1.25964
           83705         1.17418
           83706         1.16964
           83707         1.28980
           83708         1.21390
           83709         1.18935
           83710         1.15887
           83711         1.23507
           83712         1.25943
           83713         1.18779
           83714         1.15648
           83715         1.17223
           83716         1.25540
           83717         1.19321
           83718     954.575E-03
           83719         1.08283
           83720         1.05694
           83721         1.12304
           83722         1.17728
           83723         1.08738
           83724         1.13206
           83725         6.90792
           83726         5.77054
           83727         5.80068
           83728         7.27827
           83729         7.37281
           83730         5.84503
           83731         5.89174
           83732         5.81231
           83733         5.92689
           83734         5.93175
           83735         5.66278
           83736         5.64190
           83737         5.96196
           83738         5.95736
           83739         5.88447
           83740         7.67316
           83741         7.99372
           83742         5.99756
           83743         5.87247
           83744         5.93647
           83745         6.00563
           83746         5.98392
           83747         6.03698
           83748         6.05476
           83749         5.46073
           83750         5.51333
           83751         5.47421
           83752         5.46033
           83753         5.37940
           83754         5.55044
           83755         5.48895
           83756         5.77194
           83757         5.78455
           83758         5.44918
           83759         5.42149
           83760         5.40634
           83761         5.53452
           83762         5.81471
           83763         5.77651
           83764         5.48303
           83765         3.17487
           83766         3.15513
           83767         3.12883
           83768         5.67887
           83769         5.63468
           83770         5.55783
           83771         3.28535
           83772         3.15271
           83773         3.12664
           83774         3.34474
           83775         5.51227
           83776         5.79178
           83777         3.27572
           83778         5.75195
           83779         2.89137
           83780         2.91324
           83781         3.05085
           83782         5.53957
           83783         5.58483
           83784         5.59448
           83785         5.75145
           83786         5.74992
           83787         5.24446
           83788         3.04190
           83789         3.30756
           83790         2.60555
           83791         2.58813
           83792         2.59738
           83793         2.59145
           83794         2.60240
           83795         5.80112
           83796         5.82970
           83797         6.27481
           83798         6.45079
           83799         2.13875
           83800         2.07946
           83801         2.01155
           83802         2.07230
           83803         2.06822
           83804         2.19183
           83805         2.12728
           83806         6.06744
           83807         5.99469
           83808         5.83329
           83809         5.99517
           83810         5.96676
           83811         5.94244
           83812         5.94643
           83813         2.08205
           83814         2.01001
           83815         2.03283
           83816         2.07575
           83817         9.08471
           83818         9.07572
           83819         2.11700
           83820         2.11766
           83821         1.98930
           83822         2.03776
           83823         2.00578
           83824         2.82249
           83825         2.82306
           83826         2.83410
           83827         2.82959
           83828         2.84351
           83829         2.83959
           83830         2.84320
           83831         2.83554
           83832         2.83288
           83833         2.85031
           83834         2.85779
           83835         2.81129
           83836         2.81788
           83837     453.652E-03
           83838         7.81729
           83839         6.95797
           83840     391.814E-03
           83841     419.244E-03
           83842     568.731E-03
           83843     684.350E-03
           83844         6.95828
           83845         6.82456
           83846         6.71843
           83847         8.44618
           83848         8.37113
           83849         8.44260
           83850         8.55157
           83851         7.82249
           83852         7.94231
           83853         7.71793
           83854         7.80673
           83855         7.32909
           83856         5.96515
           83857         7.51754
           83858         8.42637
           83859         2.62984
           83860         8.24182
           83861         2.63770
           83862         7.72557
           83863         7.89824
           83864         2.61715
           83865         7.34936
           83866         2.61475
           83867         2.62335
           83868         2.61031
           83869         2.60309
           83870         2.59508
           83871         2.60170
           83872         2.64120
           83873         7.23057
           83874         7.11582
           83875         2.63464
           83876         3.38511
           83877         3.35396
           83878         3.39980
           83879         3.41978
           83880         3.45636
           83881         3.42488
           83882         4.55039
           83883         1.83146
           83884         6.99995
           83885         5.96403
           83886         1.84995
           83887         1.82173
           83888         1.87600
           83889         1.86695
           83890         6.56533
           83891         6.45821
           83892         6.71308
           83893         5.37429
           83894         5.57520
           83895         6.46680
           83896         6.66929
           83897         6.29883
           83898         6.45329
           83899         3.40414
           83900         4.99206
           83901         5.05029
           83902         6.81262
           83903         3.23124
           83904         4.42512
           83905         4.37190
           83906         4.43374
           83907         4.48752
           83908         3.29020
           83909         3.26804
           83910         5.17319
           83911         4.12408
           83912         4.10276
           83913         4.14062
           83914         5.70310
           83915         4.19557
           83916         4.27923
           83917         5.58124
           83918         5.65282
           83919         5.58716
           83920         5.75333
           83921         5.71866
           83922         5.75548
           83923         5.37169
           83924         5.41939
           83925         5.73517
           83926         5.67634
           83927         5.72047
           83928         5.78457
           83929         4.08193
           83930         4.13282
           83931         4.82061
           83932         4.99280
           83933         1.91239
           83934         1.66318
           83935         1.59369
           83936         1.74669
           83937         1.75052
           83938         1.78282
           83939         1.83275
           83940         1.99387
           83941         1.83864
           83942         1.71579
           83943         4.50459
           83944         4.77671
           83945         1.59751
           83946         4.29737
           83947         3.41380
           83948         3.07562
           83949         3.05886
           83950         3.06366
           83951         3.05451
           83952         3.05360
           83953         3.09252
           83954         4.88387
           83955         3.04153
           83956         2.99419
           83957         2.96786
           83958         3.43423
           83959         3.39358
           83960         3.00758
           83961         3.03340
           83962         3.05335
           83963         8.45280
           83964         8.14742
           83965         8.31604
           83966         8.07610
           83967         7.97299
           83968         8.25207
           83969         8.18981
           83970         7.96859
           83971         8.18455
           83972         3.52483
           83973         3.64662
           83974         3.13752
           83975         2.02584
           83976         2.06806
           83977         2.03294
           83978         2.96708
           83979         3.04965
           83980         2.93739
           83981         8.55557
           83982         2.50192
           83983         2.53379
           83984         4.48656
           83985         2.62753
           83986         2.50402
           83987         2.46502
           83988         2.43384
           83989         2.47460
           83990         2.48472
           83991         2.47196
           83992         3.35384
           83993         3.35193
           83994         3.27740
           83995         2.45175
           83996         2.47494
           83997         2.48420
           83998         2.49855
           83999         2.48923
           84000         3.25156
           84001         2.47678
           84002         2.47467
           84003         2.45361
           84004         2.22072
           84005         2.16450
           84006         2.13803
           84007         2.20790
           84008         2.18898
           84009         2.80257
           84010         2.84980
           84011         2.75016
           84012         2.54994
           84013         2.00055
           84014         2.01807
           84015         2.14069
           84016         2.07095
           84017         2.07142
           84018         2.08037
           84019         2.78373
           84020         2.82878
           84021         1.90182
           84022         1.97703
           84023         1.95894
           84024         2.22732
           84025         2.42631
           84026         2.34496
           84027         2.36572
           84028         2.11190
           84029         2.34134
           84030         2.31770
           84031         2.32134
           84032         2.33919
           84033         2.32394
           84034         2.34799
           84035         2.34593
           84036         2.15481
           84037         2.14774
           84038         2.13002
           84039         2.27954
           84040         2.30366
           84041         2.29122
           84042         7.13729
           84043         6.96887
           84044         2.49495
           84045         1.94240
           84046         2.08231
           84047         2.37202
           84048         2.33221
           84049         2.26266
           84050         2.26731
           84051         2.30718
           84052         2.37783
           84053         2.07014
           84054         2.11525
           84055         2.04671
           84056         2.04244
           84057         2.08842
           84058         2.11532
           84059         1.91157
           84060         2.10006
           84061         1.91871
           84062         1.91208
           84063         5.48218
           84064         4.53924
           84065         4.66350
           84066         4.65308
           84067         4.42590
           84068         1.93505
           84069         1.93448
           84070         1.92004
           84071         5.59762
           84072         5.75186
           84073         5.85241
           84074         5.80101
           84075         5.70824
           84076         6.00095
           84077         5.81782
           84078         1.88597
           84079         1.91816
           84080         1.88443
           84081         1.89677
           84082         2.04579
           84083         2.07932
           84084         2.14770
           84085         1.88556
           84086         1.88941
           84087         1.88373
           84088         5.12213
           84089         5.20989
           84090         2.03422
           84091         2.09539
           84092         2.08489
           84093         5.19551
           84094         5.16421
           84095         5.21508
           84096         5.18125
           84097         5.21049
           84098         1.97507
           84099         1.95630
           84100         1.92453
           84101         1.90597
           84102         1.92028
           84103         1.94143
           84104         4.09600
           84105         4.07339
           84106         4.15262
           84107         2.23474
           84108         2.05664
           84109         1.98645
           84110         2.04398
           84111         4.06316
           84112         4.23717
           84113         4.15641
           84114         3.95501
           84115         4.03723
           84116         2.10172
           84117         2.09299
           84118         2.15282
           84119         2.15673
           84120         2.17861
           84121         3.97390
           84122         3.89687
           84123         1.92898
           84124         1.90530
           84125         2.79268
           84126         2.80113
           84127         5.42440
           84128         2.12390
           84129         5.13521
           84130         5.19876
           84131         5.25404
           84132         2.33371
           84133         2.43094
           84134         2.32317
           84135         5.53383
           84136         5.57901
           84137         5.66778
           84138         5.61280
           84139         5.28814
           84140         5.51420
           84141         3.31230
           84142         4.11008
           84143         4.29924
           84144         4.23049
           84145         4.33363
           84146         2.16500
           84147         3.19341
           84148         4.06129
           84149         3.79830
           84150         2.03782
           84151         2.86952
           84152         2.28325
           84153         3.30566
           84154         3.42988
           84155         2.98142
           84156         2.54939
           84157         2.65133
           84158         2.54533
           84159         1.98370
           84160         2.12948
           84161         3.12551
           84162         3.77581
           84163         3.88079
           84164         3.95443
           84165         3.09936
           84166         5.32428
           84167         5.31176
           84168         3.43652
           84169         3.49877
           84170         2.70616
           84171         4.55100
           84172         4.55224
           84173         3.50215
           84174     171.628E-03
           84175     219.345E-03
           84176     240.735E-03
           84177     193.736E-03
           84178         3.51786
           84179         3.87560
           84180     282.959E-03
           84181     241.539E-03
           84182     281.036E-03
           84183     282.411E-03
           84184         4.05238
           84185         4.18044
           84186         4.05560
           84187     334.446E-03
           84188     337.174E-03
           84189     192.344E-03
           84190     205.105E-03
           84191         4.32526
           84192         4.46971
           84193         4.64909
           84194         4.40692
           84195         3.56093
           84196         3.60577
           84197         3.68882
           84198         3.32305
           84199         5.95940
           84200         3.41546
           84201         3.44405
           84202         3.51162
           84203         3.48078
           84204         3.46918
           84205         4.16573
           84206         4.39672
           84207         3.75902
           84208         5.61365
           84209         4.88411
           84210         5.27594
           84211         5.31488
           84212         5.48437
           84213         9.09016
           84214         8.65839
           84215         5.67437
           84216         5.86283
           84217         1.37082
           84218         1.42447
           84219         4.75910
           84220         4.57326
           84221         4.65790
           84222         1.42620
           84223         1.51453
           84224         1.51002
           84225         1.54661
           84226         1.52257
           84227         5.85705
           84228         6.00925
           84229         6.03679
           84230         7.37514
           84231         7.28900
           84232         5.40255
           84233         1.54223
           84234         7.01481
           84235         7.09898
           84236         7.08250
           84237         6.96867
           84238         8.88641
           84239         8.48618
           84240         6.36286
           84241         9.06987
           84242         2.74699
           84243         2.71314
           84244         2.72288
           84245         2.73655
           84246         2.74348
           84247         5.74913
           84248         6.01801
           84249         7.34926
           84250         6.00165
           84251         7.34955
           84252         5.88061
           84253         6.67559
           84254         6.46688
           84255         4.41191
           84256         4.34838
           84257         6.24742
           84258         4.28881
           84259         5.72999
           84260         5.65086
           84261         5.72098
           84262         5.80483
           84263         6.15818
           84264         6.05052
           84265         5.60171
           84266         5.84818
           84267         7.08173
           84268         5.75099
           84269         5.11913
           84270         5.25097
           84271         5.20584
           84272         4.25710
           84273         4.23504
           84274         4.16641
           84275         4.11787
           84276         4.79335
           84277         6.06476
           84278         6.25124
           84279         6.16038
           84280         5.50555
           84281         5.72505
           84282         5.57583
           84283         5.53848
           84284         5.47125
           84285         5.40311
           84286         5.24553
           84287         5.90058
           84288         5.64192
           84289         5.77490
           84290         5.05219
           84291         5.08831
           84292         4.94556
           84293     633.835E-03
           84294         3.87330
           84295         3.96519
           84296         4.00692
           84297         3.34835
           84298         4.45517
           84299         4.61206
           84300         4.58369
           84301         3.13098
           84302     858.559E-03
           84303         4.01378
           84304         4.02923
           84305         1.88312
           84306         1.65297
           84307         5.01335
           84308         3.44986
           84309         3.51931
           84310         3.56550
           84311         3.63277
           84312         3.53672
           84313         3.56304
           84314         4.14578
           84315         4.28098
           84316         4.01978
           84317         7.13278
           84318         4.40228
           84319         4.33663
           84320         4.94848
           84321         3.22818
           84322         2.14938
           84323         5.38058
           84324         2.97315
           84325         3.07921
           84326         5.61410
           84327         5.66441
           84328         2.11646
           84329         5.68179
           84330         6.29394
           84331         6.38202
           84332         6.32308
           84333         6.51967
           84334     454.810E-03
           84335     275.144E-03
           84336         2.23651
           84337         2.18924
           84338         2.23647
           84339         1.95163
           84340         2.11315
           84341         6.21521
           84342         6.10532
           84343         6.01016
           84344         6.00649
           84345         5.97764
           84346         1.99729
           84347         5.95161
           84348         5.89360
           84349         5.79646
           84350         7.75523
           84351         7.43998
           84352         2.02976
           84353         2.03493
           84354         2.02223
           84355         2.13923
           84356         7.25880
           84357         2.02541
           84358         2.16832
           84359         7.41824
           84360         2.11627
           84361         7.51708
           84362         2.77370
           84363         2.05744
           84364         2.83878
           84365         2.78874
           84366         2.77247
           84367         3.00950
           84368         2.92816
           84369         1.95994
           84370         2.93392
           84371         2.14197
           84372         5.27893
           84373         5.31544
           84374         5.32890
           84375         2.01154
           84376         5.38395
           84377         5.34986
           84378         1.99581
           84379         5.31069
           84380         5.31575
           84381         5.33104
           84382         5.35027
           84383         5.28323
           84384         5.01825
           84385         5.01629
           84386         6.33791
           84387         2.12353
           84388         2.15697
           84389         2.15814
           84390         2.07792
           84391         2.07824
           84392         2.07890
           84393         2.12340
           84394         2.07470
           84395         2.07403
           84396         2.09069
           84397         4.75399
           84398         6.26294
           84399         4.48483
           84400         6.04968
           84401         5.59439
           84402         2.02691
           84403         2.06067
           84404         2.03004
           84405         2.02840
           84406         5.90905
           84407         3.56919
           84408         3.54883
           84409         3.62794
           84410         5.62750
           84411         5.72415
           84412         5.61884
           84413         5.50994
           84414         5.23851
           84415         5.28609
           84416         3.90317
           84417         3.84626
           84418         5.91446
           84419         4.27104
           84420         5.43445
           84421         5.43224
           84422         3.86318
           84423         5.31127
           84424         2.62709
           84425         5.55643
           84426         5.59994
           84427         5.31713
           84428         5.38009
           84429         2.56708
           84430         2.59894
           84431         2.50286
           84432         2.47910
           84433         2.82500
           84434         2.85118
           84435         2.63277
           84436         2.79648
           84437         3.18032
           84438         3.48493
           84439         3.50082
           84440         3.45682
           84441         2.73525
           84442         2.74800
           84443         3.33979
           84444         3.30479
           84445         3.33010
           84446         2.99226
           84447         3.08819
           84448         2.73195
           84449         2.75531
           84450         2.75342
           84451         3.33465
           84452         3.28235
           84453         3.50108
           84454         3.42582
           84455         3.93454
           84456         3.32407
           84457         3.31072
           84458         2.96433
           84459         3.55920
           84460         5.08487
           84461         3.17397
           84462         3.25239
           84463         3.28495
           84464         3.26146
           84465         3.21776
           84466         3.36145
           84467         2.88057
           84468         3.48106
           84469         3.49311
           84470         2.40660
           84471         2.44680
           84472         2.40546
           84473         2.46103
           84474         2.46473
           84475         2.45983
           84476         2.34642
           84477         2.42442
           84478         2.46886
           84479         2.44692
           84480         2.26543
           84481         2.32194
           84482         2.40076
           84483         2.52692
           84484         2.38779
           84485         2.46410
           84486         2.58414
           84487         2.69635
           84488         2.39885
           84489         2.29438
           84490         2.97171
           84491         2.73645
           84492         2.70944
           84493         2.73315
           84494         2.58320
           84495         2.37736
           84496         2.42593
           84497         2.17585
           84498         2.23611
           84499         2.21217
           84500         2.11150
           84501         2.28984
           84502         2.25348
           84503         2.25661
           84504         2.24240
           84505         2.26740
           84506         2.25959
           84507         2.23511
           84508         2.21851
           84509         2.30199
           84510         2.07191
           84511         2.26857
           84512         3.12166
           84513         5.46781
           84514         5.27141
           84515         3.16172
           84516         3.24838
           84517         3.24887
           84518         2.08283
           84519         2.13172
           84520         3.16165
           84521         2.92844
           84522         3.31146
           84523         2.99358
           84524         2.03997
           84525         2.42219
           84526         2.68800
           84527         5.36825
           84528         5.21583
           84529         5.53879
           84530         5.13579
           84531     673.167E-03
           84532     712.369E-03
           84533         1.37811
           84534         5.93867
           84535         1.23876
           84536         1.21917
           84537         1.10306
           84538         1.27524
           84539         6.06087
           84540         6.07965
           84541         6.06601
           84542         6.20426
           84543         6.88179
           84544     852.821E-03
           84545         1.00427
           84546         1.03591
           84547         6.24405
           84548         5.47336
           84549         5.85885
           84550         5.67534
           84551         5.28800
           84552         5.78487
           84553         5.50785
           84554         5.46688
           84555         5.36546
           84556         3.43521
           84557         3.49430
           84558         3.46297
           84559         3.41820
           84560         5.61887
           84561         5.59185
           84562         6.15932
           84563         3.36816
           84564         5.01281
           84565         4.57288
           84566         5.12147
           84567         4.89064
           84568         5.24998
           84569         5.21347
           84570         4.93995
           84571         5.11982
           84572         5.09560
           84573         5.09456
           84574         5.22818
           84575         7.16813
           84576         7.23177
           84577         5.01221
           84578         5.15956
           84579         5.10272
           84580         5.16305
           84581         5.21715
           84582         5.14199
           84583         5.19343
           84584         5.33146
           84585         5.36073
           84586         5.24185
           84587         7.39312
           84588         4.24734
           84589         4.37120
           84590         5.02548
           84591         4.58181
           84592         4.83480
           84593     74.5877E-03
           84594     40.5280E-03
           84595         4.74546
           84596         3.47948
           84597         3.44764
           84598         5.05788
           84599         4.93658
           84600         4.65983
           84601         4.61894
           84602         3.64837
           84603         3.74448
           84604         3.39165
           84605         4.39305
           84606         3.40987
           84607         3.35036
           84608         3.39589
           84609         3.45737
           84610         3.43143
           84611         5.01999
           84612         3.97282
           84613         3.96900
           84614         3.94571
           84615         3.26365
           84616         3.29522
           84617         4.37708
           84618         4.45725
           84619         4.52231
           84620         4.74468
           84621         4.75188
           84622         1.29569
           84623         4.96813
           84624         4.21595
           84625         4.09158
           84626         4.12229
           84627         4.24736
           84628         4.15859
           84629         4.35085
           84630         2.60194
           84631         2.58211
           84632         4.13715
           84633         4.03274
           84634         4.60943
           84635         4.71345
           84636         4.71468
           84637         3.68099
           84638         2.58213
           84639         2.60597
           84640         2.60830
           84641         4.40369
           84642         2.59934
           84643         4.19529
           84644         4.22789
           84645         2.56079
           84646         2.56654
           84647         2.58414
           84648         3.04533
           84649         2.65487
           84650         3.59470
           84651         3.50524
           84652         2.58304
           84653         3.53434
           84654         3.36931
           84655         3.42316
           84656         3.60791
           84657         3.67710
           84658         3.79022
           84659         3.74682
           84660         2.33385
           84661         2.34092
           84662         3.70879
           84663         2.27576
           84664         5.03937
           84665         4.05642
           84666         2.31683
           84667         2.22310
           84668         4.01073
           84669         3.93309
           84670         4.62523
           84671         4.30611
           84672         4.19506
           84673         4.01838
           84674     483.732E-03
           84675         4.93691
           84676         4.96912
           84677         4.98618
           84678         4.25290
           84679         4.13362
           84680         4.19843
           84681         4.69482
           84682         4.64711
           84683         4.55442
           84684         4.42954
           84685     116.620E-03
           84686         4.42348
           84687         4.35415
           84688     298.255E-03
           84689     224.372E-03
           84690         5.69934
           84691         3.79603
           84692         4.13400
           84693         4.24375
           84694         5.54606
           84695         5.65781
           84696         5.63930
           84697         5.64685
           84698         2.55085
           84699         3.98666
           84700         3.98677
           84701         2.53518
           84702         3.94488
           84703     616.677E-03
           84704     636.795E-03
           84705     642.916E-03
           84706         3.55845
           84707     666.210E-03
           84708     623.467E-03
           84709     619.870E-03
           84710     579.044E-03
           84711     622.368E-03
           84712         3.65794
           84713         3.60112
           84714     527.686E-03
           84715         3.28654
           84716         4.09299
           84717         4.19267
           84718         3.67301
           84719         3.75158
           84720         3.53578
           84721         3.12319
           84722         3.09366
           84723         3.07077
           84724         4.33752
           84725         4.28926
           84726         4.58547
           84727         4.45098
           84728         4.49364
           84729         3.42287
           84730     191.123E-03
           84731         3.15095
           84732         3.18200
           84733         3.12967
           84734         2.94555
           84735     275.927E-03
           84736         2.98997
           84737         2.95751
           84738         2.92358
           84739         2.89862
           84740         2.42031
           84741         3.08142
           84742         3.12384
           84743         3.08195
           84744         2.76905
           84745         2.74740
           84746         2.60143
           84747         2.34725
           84748         2.36706
           84749         2.30135
           84750         2.35809
           84751         2.33741
           84752         2.37781
           84753         2.96371
           84754         2.99363
           84755         2.61656
           84756         2.61997
           84757         2.62639
           84758         2.44869
           84759         2.94801
           84760         2.89908
           84761         2.83853
           84762         2.60844
           84763         2.59309
           84764         2.37240
           84765         2.61762
           84766         2.62998
           84767         2.79590
           84768     904.608E-03
           84769     869.983E-03
           84770     995.464E-03
           84771         2.81719
           84772         2.74305
           84773     963.438E-03
           84774     859.293E-03
           84775         1.24535
           84776         1.10029
           84777         2.72405
           84778         2.70777
           84779         2.70664
           84780         2.72309
           84781         2.70466
           84782         2.72899
           84783         2.73817
           84784         2.78379
           84785         3.61276
           84786         3.52354
           84787         3.46136
           84788         2.74653
           84789         2.73153
           84790         2.72717
           84791         2.64033
           84792         3.62615
           84793         3.83303
           84794         3.92921
           84795         2.63367
           84796         2.58540
           84797         2.59744
           84798         2.64185
           84799         2.64842
           84800         2.63543
           84801         2.57168
           84802         2.62437
           84803         2.60844
           84804         2.61112
           84805         2.61030
           84806         2.61356
           84807         2.58521
           84808         2.59149
           84809         2.59205
           84810         2.65811
           84811         2.64834
           84812         2.61051
           84813         2.60804
           84814         2.57890
           84815         2.57655
           84816     50.0603E-03
           84817         2.63105
           84818         2.62509
           84819         6.24742
           84820         6.53050
           84821         6.42673
           84822         6.14937
           84823         6.35037
           84824         2.60012
           84825         2.60219
           84826         5.79445
           84827         6.08172
           84828         6.04827
           84829         5.94114
           84830         6.01875
           84831         2.60935
           84832         2.60903
           84833         2.61266
           84834         6.18836
           84835         2.63695
           84836         2.18438
           84837         2.21334
           84838         2.18742
           84839         2.08660
           84840         2.07569
           84841         2.55817
           84842         2.58092
           84843         2.58170
           84844         2.57984
           84845         2.57514
           84846         2.57395
           84847         2.12496
           84848         2.11627
           84849         2.12286
           84850         2.09112
           84851         2.12209
           84852         2.60525
           84853         2.61111
           84854         2.10843
           84855         2.60487
           84856         2.15995
           84857         2.22123
           84858         2.18937
           84859         2.13559
           84860         2.12467
           84861         2.40728
           84862         2.56743
           84863         2.62180
           84864         2.56662
           84865         2.61027
           84866         2.59784
           84867         2.53745
           84868         2.47981
           84869         2.69304
           84870         2.57883
           84871         2.57959
           84872         2.74447
           84873         2.29801
           84874         2.27368
           84875         2.34910
           84876         2.23381
           84877         2.61185
           84878         2.66579
           84879         2.36356
           84880         2.27548
           84881         2.85409
           84882         2.83557
           84883         2.65269
           84884         2.46404
           84885         7.94060
           84886         2.72993
           84887         2.73038
           84888         2.71569
           84889         2.83872
           84890         2.75471
           84891         2.74424
           84892         2.72522
           84893         2.71587
           84894         2.73290
           84895         2.75687
           84896         2.76747
           84897         6.35260
           84898         5.80570
           84899         6.03954
           84900         2.70619
           84901         2.70562
           84902         2.70509
           84903         2.71184
           84904         2.78191
           84905         6.13967
           84906         5.89943
           84907         5.61264
           84908         2.81450
           84909         2.82708
           84910         2.77139
           84911         2.77001
           84912         6.51910
           84913         6.71917
           84914         6.53034
           84915         6.65989
           84916         6.87707
           84917         6.74348
           84918         6.67186
           84919         2.90224
           84920         2.94268
           84921         6.45321
           84922         2.83544
           84923         2.95819
           84924         3.27645
           84925         3.33353
           84926         3.28200
           84927         3.32290
           84928         3.28725
           84929         3.26252
           84930         3.22927
           84931         3.03266
           84932         3.10183
           84933         3.25577
           84934         3.27094
           84935         3.07109
           84936         3.04108
           84937         2.13856
           84938         2.19612
           84939         2.11627
           84940         2.11501
           84941         2.17336
           84942         2.73775
           84943         2.26076
           84944         2.26790
           84945         2.26733
           84946         2.31324
           84947         2.28287
           84948         2.55354
           84949         2.51094
           84950         2.56840
           84951         2.69822
           84952         2.61978
           84953         2.56296
           84954         2.52213
           84955         2.48729
           84956         3.30288
           84957         3.26753
           84958         2.47491
           84959         2.46872
           84960         2.51106
           84961         2.52322
           84962         3.62167
           84963         3.22610
           84964         3.14412
           84965         3.31394
           84966         3.55355
           84967         3.47140
           84968         2.54015
           84969         3.41575
           84970         3.65571
           84971         3.74422
           84972         3.43924
           84973         2.52256
           84974         2.53655
           84975         2.58820
           84976         2.57579
           84977         2.59959
           84978         2.59246
           84979         3.36371
           84980         3.31603
           84981         2.60350
           84982         3.37369
           84983         3.35819
           84984         3.23647
           84985         3.26684
           84986         3.10252
           84987         3.07709
           84988         4.97312
           84989         3.14769
           84990         3.12710
           84991         3.23161
           84992         2.72848
           84993         2.69973
           84994         3.27976
           84995         2.69894
           84996         2.70044
           84997         2.69065
           84998         3.14956
           84999         3.11184
           85000         2.65348
           85001         2.98666
           85002         3.05856
           85003         2.91375
           85004         2.99908
           85005         2.72763
           85006         2.25724
           85007         2.22745
           85008         2.28192
           85009         2.90276
           85010         2.91245
           85011         2.87429
           85012         2.80116
           85013         2.81581
           85014         3.63552
           85015         3.73834
           85016         2.92617
           85017         2.77706
           85018         2.80329
           85019         2.06075
           85020         1.99877
           85021         2.00269
           85022         2.08484
           85023         4.51248
           85024         2.49604
           85025         2.18640
           85026         2.70587
           85027         2.69336
           85028         2.71333
           85029         1.87894
           85030         2.90874
           85031         1.70202
           85032         2.63999
           85033         1.77449
           85034         2.64105
           85035         2.71937
           85036         1.79457
           85037         1.93392
           85038         1.94848
           85039         2.55144
           85040         2.62003
           85041         1.85368
           85042         1.88496
           85043         1.98191
           85044         1.99999
           85045         2.08290
           85046         2.26700
           85047         2.01519
           85048         2.08373
           85049         2.18091
           85050         2.18034
           85051         2.18138
           85052         1.96434
           85053         2.18259
           85054         2.10566
           85055         2.14307
           85056         2.17048
           85057         2.19533
           85058         2.15183
           85059         2.31447
           85060         2.31341
           85061         2.96507
           85062         2.94618
           85063         2.91419
           85064         2.92944
           85065         2.89152
           85066         2.87621
           85067         2.88067
           85068         2.90028
           85069         2.20340
           85070         2.84704
           85071         2.91016
           85072         2.83652
           85073         2.07802
           85074         2.06562
           85075         2.06068
           85076         2.84324
           85077         1.96690
           85078         2.87934
           85079         2.81677
           85080         1.96342
           85081         2.84977
           85082         2.87136
           85083         2.87877
           85084         2.12404
           85085         3.30007
           85086         3.26974
           85087         1.95938
           85088         3.32870
           85089         3.29778
           85090         2.03720
           85091         2.07625
           85092         2.13918
           85093         2.14342
           85094         1.82084
           85095         1.76452
           85096         3.33003
           85097         3.37215
           85098         3.45854
           85099         2.47369
           85100         2.46841
           85101     892.470E-03
           85102         2.47675
           85103         2.21970
           85104         2.23452
           85105         2.71504
           85106         1.86669
           85107         1.93138
           85108         2.43623
           85109         2.42329
           85110         2.42641
           85111         2.50296
           85112         2.51876
           85113         2.52565
           85114         2.69921
           85115         2.70540
           85116         2.72910
           85117         2.24944
           85118         2.69079
           85119         5.43807
           85120         4.36877
           85121         4.46740
           85122         2.27262
           85123         2.29193
           85124         2.28818
           85125         2.39295
           85126         2.40277
           85127         2.38471
           85128         2.30615
           85129         2.31885
           85130         2.32795
           85131         2.31589
           85132         2.29896
           85133         2.43960
           85134         2.37297
           85135         2.38557
           85136         2.36665
           85137         2.36187
           85138         3.03169
           85139         2.37139
           85140         4.14873
           85141         3.80943
           85142         3.91446
           85143         2.36272
           85144         2.35530
           85145         3.86096
           85146         4.16128
           85147         4.18058
           85148         2.38270
           85149         2.36331
           85150         2.09949
           85151         2.12721
           85152         2.16141
           85153         2.44006
           85154         2.45427
           85155         2.48067
           85156         2.05965
           85157         2.07922
           85158         2.08905
           85159         2.10542
           85160         2.51760
           85161         2.51697
           85162         2.46855
           85163         2.43617
           85164         2.39426
           85165         2.51819
           85166         2.48343
           85167         2.47920
           85168         2.50789
           85169         2.48142
           85170         2.43474
           85171         2.35644
           85172         2.36995
           85173         2.57768
           85174         2.57810
           85175         2.52044
           85176         2.50489
           85177         2.51446
           85178         3.24447
           85179         2.68419
           85180         2.68298
           85181         2.57948
           85182         2.57937
           85183         2.58406
           85184         2.57334
           85185         2.60429
           85186         2.59539
           85187         2.59163
           85188         2.57847
           85189         2.63107
           85190         2.33889
           85191         2.32297
           85192         2.32630
           85193         2.29424
           85194         2.31020
           85195         2.63440
           85196         2.63358
           85197         2.33119
           85198         2.32448
           85199         2.31562
           85200         2.37964
           85201         2.61399
           85202         2.61407
           85203         2.60605
           85204         2.60777
           85205         2.93293
           85206         2.92824
           85207         2.66065
           85208         2.88150
           85209         2.87310
           85210         2.88135
           85211         2.85338
           85212         2.86492
           85213         2.64214
           85214         2.64296
           85215         2.89195
           85216         2.92069
           85217         2.91255
           85218         2.86276
           85219         2.62051
           85220         2.64004
           85221         2.71536
           85222         3.06994
           85223         2.85706
           85224         2.65995
           85225         2.58591
           85226         2.57938
           85227         2.62801
           85228         2.62743
           85229         2.63197
           85230         2.67452
           85231         2.65695
           85232         2.61272
           85233         2.60477
           85234         2.63838
           85235         2.63268
           85236         2.65960
           85237         2.66118
           85238         2.66106
           85239         2.53809
           85240         2.46155
           85241         2.66018
           85242         2.66191
           85243         2.40635
           85244         2.41290
           85245         2.39629
           85246         2.39019
           85247         2.56987
           85248         2.65081
           85249         2.74583
           85250         2.65477
           85251         2.36855
           85252         2.35698
           85253         2.61015
           85254         2.62648
           85255         2.65648
           85256         2.36187
           85257         2.64228
           85258         2.63152
           85259         2.50144
           85260         2.48884
           85261         2.34758
           85262         4.22038
           85263         3.40793
           85264         2.55133
           85265         2.56459
           85266         2.57188
           85267         2.63847
           85268         2.60092
           85269         2.30018
           85270         2.29742
           85271         2.33214
           85272         2.53801
           85273         2.51234
           85274         2.58331
           85275         2.56046
           85276         2.58409
           85277         2.55664
           85278         2.54740
           85279         2.54582
           85280         2.52208
           85281         2.53315
           85282         2.53148
           85283         2.52613
           85284         2.51075
           85285         2.52601
           85286         2.50015
           85287         2.51073
           85288         2.50357
           85289         2.53723
           85290         4.25347
           85291         4.55287
           85292         4.39827
           85293         4.22281
           85294         4.22473
           85295         4.18620
           85296         4.57914
           85297         4.84338
           85298         4.72221
           85299         2.34339
           85300         4.71673
           85301         4.50593
           85302         4.59367
           85303         3.56750
           85304         3.61772
           85305         2.55774
           85306         3.58575
           85307         2.02177
           85308         2.00268
           85309         2.27807
           85310         2.24984
           85311         2.40481
           85312         2.39269
           85313         3.48160
           85314         3.51031
           85315         2.35484
           85316         8.91957
           85317         2.51547
           85318         2.23328
           85319         2.33247
           85320         2.49130
           85321         2.47250
           85322         2.47077
           85323         2.35013
           85324         2.31743
           85325         2.77550
           85326         2.38572
           85327         3.13705
           85328         2.49984
           85329         2.47521
           85330         2.09651
           85331         2.05238
           85332         2.40013
           85333         2.39235
           85334         3.00204
           85335         2.24895
           85336         2.21355
           85337         1.96332
           85338         1.99714
           85339         1.94418
           85340         3.10725
           85341         3.10037
           85342         1.80682
           85343         1.79444
           85344         1.96984
           85345         2.01528
           85346         3.09149
           85347         1.63496
           85348         1.65220
           85349         1.24704
           85350         1.32153
           85351         2.43300
           85352         2.44834
           85353         2.42962
           85354         2.42197
           85355         2.40589
           85356         2.52466
           85357         2.54500
           85358         2.54422
           85359         2.52381
           85360         1.54695
           85361         1.98225
           85362         5.07460
           85363         2.20471
           85364         1.96035
           85365         1.91247
           85366         2.13017
           85367         1.89170
           85368         2.39807
           85369         2.46284
           85370         1.55414
           85371         1.55742
           85372         3.56892
           85373         3.48786
           85374         1.65639
           85375         1.86635
           85376         1.59585
           85377         1.73060
           85378         1.76121
           85379         2.33575
           85380         2.32588
           85381         2.34761
           85382         2.35260
           85383         2.03255
           85384         3.66369
           85385         3.92106
           85386         2.26882
           85387         2.24434
           85388         4.10482
           85389         3.50434
           85390         4.10581
           85391         2.10231
           85392         1.78050
           85393         1.82280
           85394         1.82686
           85395         3.02970
           85396         2.92091
           85397         2.94731
           85398         2.95459
           85399         2.40334
           85400         2.38305
           85401         2.83925
           85402         2.87314
           85403         2.85976
           85404         2.59806
           85405         2.56778
           85406         2.39189
           85407         2.39183
           85408         2.58229
           85409         2.58247
           85410         2.16493
           85411         2.58032
           85412         2.58513
           85413         2.25833
           85414         2.26969
           85415         2.29542
           85416         2.28402
           85417         2.28878
           85418         2.48425
           85419         2.38624
           85420         2.57326
           85421         3.50206
           85422         2.54043
           85423         2.46090
           85424         2.46220
           85425         2.44676
           85426         2.77576
           85427         2.70794
           85428         2.68668
           85429         2.34760
           85430         2.37531
           85431         2.70876
           85432         2.75038
           85433         2.73920
           85434         2.34400
           85435         5.52847
           85436         5.41202
           85437         5.22191
           85438         5.36744
           85439         2.37790
           85440         2.36910
           85441         2.03674
           85442         1.98749
           85443         2.53355
           85444         5.27730
           85445         2.47918
           85446         4.96170
           85447         5.07591
           85448         2.56015
           85449         5.57140
           85450         5.58557
           85451         5.74798
           85452         5.50968
           85453         5.69179
           85454         2.58834
           85455         2.59406
           85456         2.58676
           85457         5.62339
           85458         5.69827
           85459         2.60222
           85460         2.59293
           85461         4.37232
           85462         4.47244
           85463         4.39485
           85464         4.14266
           85465         2.62279
           85466         3.87224
           85467         3.87455
           85468         3.99765
           85469         3.96905
           85470         3.96666
           85471         3.84936
           85472         3.93616
           85473         2.54945
           85474         2.54757
           85475         2.55944
           85476         2.55329
           85477         2.44507
           85478         2.46200
           85479         5.44898
           85480         2.59223
           85481         2.58209
           85482         2.64101
           85483         2.63748
           85484         2.59903
           85485         2.60681
           85486         2.61620
           85487         8.99508
           85488         2.61027
           85489         2.61147
           85490         2.60311
           85491         7.35853
           85492         7.86148
           85493         2.84702
           85494         2.81898
           85495     49.7482E-03
           85496         2.63993
           85497     100.858E-03
           85498     43.2801E-03
           85499     141.205E-03
           85500     182.458E-03
           85501         2.65194
           85502     50.1771E-03
           85503         2.33805
           85504         2.33112
           85505         2.65826
           85506         2.65736
           85507         2.65909
           85508         2.66061
           85509         2.66186
           85510         2.66956
           85511         2.66823
           85512         2.66996
           85513         2.32874
           85514         2.35475
           85515         2.33119
           85516         2.33182
           85517         2.68744
           85518         2.68299
           85519         2.67863
           85520         2.72016
           85521         2.71163
           85522         2.72681
           85523         2.63690
           85524         2.64533
           85525         2.64411
           85526         2.30093
           85527         2.65742
           85528         2.66258
           85529         2.66804
           85530         2.49869
           85531         2.47681
           85532         2.44628
           85533         2.47136
           85534         2.65187
           85535         2.69576
           85536         3.26417
           85537         2.83211
           85538         3.22120
           85539         2.63649
           85540         2.62620
           85541         2.48689
           85542         2.49560
           85543         2.51333
           85544         2.52442
           85545         2.51965
           85546         3.14165
           85547         2.48350
           85548         2.47992
           85549         2.58634
           85550         3.02654
           85551         3.10961
           85552         3.30520
           85553         3.25214
           85554         3.49678
           85555         2.50522
           85556         3.15699
           85557         2.98705
           85558         2.92785
           85559         2.84228
           85560         2.98340
           85561         2.35939
           85562         2.22196
           85563         2.37275
           85564         2.78425
           85565         2.93935
           85566         2.39795
           85567         2.36636
           85568         2.31595
           85569         2.32117
           85570         2.35749
           85571         2.39188
           85572         2.47333
           85573         2.51333
           85574         4.86615
           85575         4.76602
           85576         4.69461
           85577         4.60309
           85578         1.69812
           85579         4.73763
           85580         1.82081
           85581         4.67636
           85582         4.59009
           85583         4.40850
           85584         4.55543
           85585         4.47387
           85586         5.86345
           85587         6.03207
           85588         5.97339
           85589         6.00706
           85590         1.57223
           85591         1.74450
           85592         5.89390
           85593         5.93771
           85594         5.90562
           85595         5.85033
           85596         1.48654
           85597         1.41747
           85598         5.90127
           85599         5.82430
           85600         1.62237
           85601         1.56343
           85602         1.49328
           85603         1.17228
           85604         1.34845
           85605         3.96510
           85606     882.889E-03
           85607         4.31157
           85608         1.71354
           85609         1.59148
           85610         1.10296
           85611         1.13027
           85612         1.82884
           85613     488.482E-03
           85614         5.46530
           85615     373.455E-03
           85616     775.763E-03
           85617         2.00134
           85618         1.86390
           85619         1.90597
           85620         1.75092
           85621         1.70844
           85622         1.74592
           85623     708.773E-03
           85624     741.324E-03
           85625     420.597E-03
           85626     401.613E-03
           85627     433.446E-03
           85628     385.741E-03
           85629         1.98963
           85630         1.93550
           85631         1.83518
           85632     632.676E-03
           85633     400.896E-03
           85634     450.711E-03
           85635         1.30614
           85636         1.31542
           85637         1.92810
           85638         1.92201
           85639     874.396E-03
           85640     790.423E-03
           85641         1.79801
           85642         1.43474
           85643         1.47958
           85644     493.995E-03
           85645         5.36113
           85646         5.35093
           85647         5.32380
           85648         2.30088
           85649         2.33943
           85650         2.31982
           85651         2.32007
           85652         2.34479
           85653         2.31609
           85654     783.027E-03
           85655         2.33666
           85656         2.34801
           85657     483.815E-03
           85658     469.132E-03
           85659     435.772E-03
           85660         2.63872
           85661         2.64413
           85662         2.63866
           85663         2.63299
           85664         2.63689
           85665         2.64298
           85666     586.219E-03
           85667     642.515E-03
           85668         1.19681
           85669     714.156E-03
           85670         1.59269
           85671         1.52607
           85672         2.64776
           85673         2.64662
           85674         2.64303
           85675         2.64873
           85676         2.64746
           85677         2.64344
           85678         2.64702
           85679         2.26681
           85680         2.32750
           85681         2.20323
           85682         2.07388
           85683         1.46890
           85684         2.20498
           85685         2.19688
           85686         2.16836
           85687         2.18224
           85688         1.45468
           85689         1.44690
           85690         2.20627
           85691         2.21274
           85692         2.27513
           85693         2.13775
           85694         2.20867
           85695         2.21419
           85696         2.22301
           85697         2.54294
           85698     77.0344E-03
           85699         2.26098
           85700         2.41048
           85701         1.12247
           85702         1.18336
           85703         1.12987
           85704         1.20021
           85705         1.87818
           85706         1.05634
           85707     991.621E-03
           85708     890.676E-03
           85709         2.38666
           85710         2.36659
           85711         2.31497
           85712         1.02043
           85713     788.119E-03
           85714         2.48039
           85715         1.14850
           85716         2.43385
           85717         2.44392
           85718         2.43702
           85719         2.42713
           85720         2.42030
           85721         2.19994
           85722         1.63893
           85723         2.42132
           85724         2.44351
           85725         2.40884
           85726         2.40590
           85727         3.17433
           85728         2.49431
           85729         2.50829
           85730         2.49083
           85731         9.28030
           85732         2.32193
           85733         1.49149
           85734         1.48627
           85735         6.35709
           85736         1.89468
           85737         8.04365
           85738         7.88732
           85739         2.00698
           85740         2.76219
           85741         2.78765
           85742         2.74285
           85743         2.23556
           85744         2.75916
           85745         2.49054
           85746         2.54786
           85747         2.36451
           85748         2.82518
           85749         3.36390
           85750         2.75062
           85751     949.846E-03
           85752     992.379E-03
           85753         2.14485
           85754         2.17939
           85755         1.07645
           85756         1.04162
           85757         1.11650
           85758         2.20391
           85759         2.16551
           85760     601.734E-03
           85761     568.032E-03
           85762     490.132E-03
           85763     454.284E-03
           85764         2.28943
           85765         2.49660
           85766         2.29027
           85767         3.05508
           85768         2.87632
           85769         2.95617
           85770         2.95311
           85771         3.30992
           85772     915.101E-03
           85773     771.839E-03
           85774         5.44586
           85775         2.74849
           85776         3.10546
           85777         2.93851
           85778         2.67289
           85779         2.67473
           85780         2.68086
           85781         2.67823
           85782         3.76500
           85783         3.92113
           85784         2.63816
           85785         2.64193
           85786         2.64887
           85787         3.10509
           85788         3.07931
           85789         3.09713
           85790         2.68838
           85791         2.77524
           85792         2.76083
           85793         2.75109
           85794         2.76817
           85795         2.78730
           85796         2.79687
           85797         3.20652
           85798         3.33599
           85799         2.76456
           85800         2.72902
           85801         3.38919
           85802         2.94098
           85803         2.78613
           85804         2.81996
           85805         2.84062
           85806         2.80406
           85807         2.77223
           85808         2.91914
           85809         3.03412
           85810         3.17458
           85811         2.73327
           85812         3.17110
           85813         3.13159
           85814         2.68239
           85815         5.70456
           85816         3.30054
           85817         3.01374
           85818         2.54453
           85819         2.63928
           85820         3.05941
           85821         2.57011
           85822         2.68421
           85823         2.82162
           85824         3.99310
           85825         4.00261
           85826         3.93039
           85827         3.96031
           85828         3.99614
           85829     277.662E-03
           85830     444.409E-03
           85831     430.875E-03
           85832     457.186E-03
           85833     232.227E-03
           85834     206.614E-03
           85835     159.390E-03
           85836         4.28462
           85837     308.877E-03
           85838         4.12466
           85839     478.893E-03
           85840     109.321E-03
           85841         4.05756
           85842         4.13559
           85843     245.527E-03
           85844         2.10037
           85845         2.06024
           85846     371.039E-03
           85847         2.15789
           85848         2.10694
           85849         1.01229
           85850     381.838E-03
           85851     574.466E-03
           85852     552.558E-03
           85853         1.98677
           85854     289.966E-03
           85855         2.08401
           85856         2.00755
           85857         4.49860
           85858         4.58726
           85859     337.088E-03
           85860         4.35484
           85861         4.55447
           85862         4.57719
           85863         4.71936
           85864     808.903E-03
           85865     781.892E-03
           85866     603.672E-03
           85867     555.061E-03
           85868         4.73537
           85869         4.92737
           85870         4.49007
           85871     660.338E-03
           85872     902.056E-03
           85873     914.416E-03
           85874     633.655E-03
           85875     744.712E-03
           85876         6.25627
           85877         6.05633
           85878     942.477E-03
           85879         1.04409
           85880         1.05175
           85881         2.08599
           85882         2.04735
           85883         2.05907
           85884         1.24609
           85885         1.39033
           85886         1.49691
           85887         1.50053
           85888         1.58837
           85889         2.11176
           85890         1.28466
           85891         1.34075
           85892         1.72012
           85893         1.72815
           85894         5.26563
           85895         4.92055
           85896         4.85212
           85897         2.64728
           85898         4.20543
           85899         2.97356
           85900         1.83603
           85901         2.68327
           85902         4.32811
           85903         4.35079
           85904         3.07021
           85905         3.02432
           85906         3.01230
           85907         2.99426
           85908         2.96062
           85909         3.26569
           85910         4.91391
           85911         3.72463
           85912         4.72456
           85913         4.79589
           85914         4.74174
           85915         4.49633
           85916         4.28665
           85917         4.31496
           85918         4.25058
           85919         4.37080
           85920         4.09497
           85921         4.42993
           85922         4.60685
           85923         4.54372
           85924         4.33952
           85925         4.16075
           85926         4.15969
           85927     378.050E-03
           85928     366.308E-03
           85929     336.273E-03
           85930     327.505E-03
           85931         4.47069
           85932         4.60970
           85933         4.63417
           85934     608.536E-03
           85935         5.68215
           85936     179.191E-03
           85937     16.4810E-03
           85938         5.65234
           85939     17.5895E-03
           85940     11.3815E-03
           85941     11.8271E-03
           85942         5.36650
           85943         5.48629
           85944         5.36668
           85945         2.47858
           85946         2.46316
           85947     5.05426E-03
           85948     11.2871E-03
           85949     11.6423E-03
           85950     6.84132E-03
           85951         2.44815
           85952         2.46055
           85953         2.47081
           85954         2.46288
           85955         4.30728
           85956     10.7808E-03
           85957     4.11040E-03
           85958     15.3461E-03
           85959     17.7307E-03
           85960         7.58783
           85961         5.30173
           85962     27.2192E-03
           85963     35.0505E-03
           85964         6.22320
           85965         6.61788
           85966     28.8573E-03
           85967     40.1628E-03
           85968     19.3296E-03
           85969     26.9359E-03
           85970     26.8345E-03
           85971         3.62943
           85972         3.68496
           85973         1.88978
           85974         1.98022
           85975         2.03787
           85976         1.93467
           85977         2.04002
           85978         2.10079
           85979         2.06916
           85980         2.06287
           85981         2.03068
           85982         2.82672
           85983         2.75641
           85984         2.73065
           85985     20.1947E-03
           85986     20.3456E-03
           85987     117.917E-03
           85988     116.572E-03
           85989         2.86460
           85990         2.88034
           85991         2.88903
           85992         2.81469
           85993     214.966E-03
           85994         2.90625
           85995         2.92725
           85996     45.4332E-03
           85997     18.0347E-03
           85998         2.95042
           85999         2.85724
           86000     64.8280E-03
           86001     30.9468E-03
           86002         3.00501
           86003     98.9328E-03
           86004     395.450E-03
           86005     501.647E-03
           86006     430.031E-03
           86007     69.5400E-03
           86008         6.23747
           86009     11.2976E-03
           86010     11.5289E-03
           86011         6.13821
           86012         5.93793
           86013         6.01015
           86014         5.85545
           86015         5.85151
           86016     27.4750E-03
           86017     295.450E-03
           86018         5.84004
           86019         5.70956
           86020         5.58942
           86021         5.56308
           86022         5.63780
           86023     11.3152E-03
           86024     10.1740E-03
           86025     12.8326E-03
           86026     20.1139E-03
           86027         5.85047
           86028         5.72171
           86029     29.3675E-03
           86030         4.68987
           86031         4.67855
           86032         4.94883
           86033         4.78567
           86034         4.89244
           86035         4.59237
           86036         4.59557
           86037         4.54454
           86038         4.93828
           86039     203.710E-03
           86040     137.884E-03
           86041     106.173E-03
           86042         4.71695
           86043         4.66097
           86044         4.73298
           86045     368.690E-03
           86046     355.144E-03
           86047     418.660E-03
           86048         5.76936
           86049         5.81885
           86050         3.42964
           86051     343.126E-03
           86052     142.242E-03
           86053         3.28833
           86054         3.26173
           86055         3.20249
           86056         3.29221
           86057         3.26561
           86058     472.313E-03
           86059     411.170E-03
           86060     188.235E-03
           86061     210.572E-03
           86062     215.487E-03
           86063         2.81992
           86064     167.537E-03
           86065     157.503E-03
           86066         2.86772
           86067         3.05142
           86068         3.13311
           86069         2.87169
           86070         2.87716
           86071         1.15535
           86072         1.25899
           86073     294.743E-03
           86074         1.22205
           86075         2.51160
           86076         1.24090
           86077         2.46431
           86078         2.51359
           86079         2.51879
           86080         2.56779
           86081         2.58493
           86082         2.58135
           86083         2.58768
           86084         5.34652
           86085     543.236E-03
           86086     738.040E-03
           86087         1.92379
           86088         1.31126
           86089         2.04006
           86090         1.61281
           86091         1.47179
           86092         1.70647
           86093         1.83591
           86094         1.64745
           86095         1.63100
           86096     750.746E-03
           86097         1.23163
           86098     480.299E-03
           86099     773.425E-03
           86100         1.65123
           86101         1.71680
           86102     636.955E-03
           86103     486.156E-03
           86104         1.80088
           86105         2.22345
           86106         2.04336
           86107         3.00188
           86108         2.52800
           86109         3.28129
           86110         3.18860
           86111         3.21704
           86112         1.76866
           86113         1.24894
           86114         1.59516
           86115     928.462E-03
           86116     748.957E-03
           86117     752.811E-03
           86118         1.97926
           86119         1.22562
           86120     398.989E-03
           86121         3.52519
           86122         1.09561
           86123     923.585E-03
           86124         1.00984
           86125     923.749E-03
           86126     535.505E-03
           86127     401.741E-03
           86128     402.422E-03
           86129     483.546E-03
           86130     473.575E-03
           86131     441.161E-03
           86132     375.216E-03
           86133     476.578E-03
           86134         1.08101
           86135         2.76760
           86136         2.59842
           86137         2.82249
           86138         2.93993
           86139         2.94692
           86140         2.93083
           86141         2.88236
           86142         2.89655
           86143         2.90606
           86144         2.92864
           86145         2.92018
           86146         2.87749
           86147         2.92293
           86148         1.60511
           86149         1.69980
           86150         1.72881
           86151         2.94530
           86152         2.20635
           86153         2.32794
           86154         2.83027
           86155         1.74228
           86156         8.36632
           86157         2.34575
           86158         2.31411
           86159         2.50332
           86160         3.10099
           86161         2.01333
           86162         2.04753
           86163         1.95892
           86164         2.68828
           86165         2.69799
           86166         2.69841
           86167         2.64729
           86168         2.03288
           86169         1.98381
           86170         2.44085
           86171         2.40894
           86172         2.66818
           86173         2.67641
           86174         2.67720
           86175         2.69698
           86176         2.69052
           86177         1.75399
           86178         1.69697
           86179         1.78357
           86180         1.70443
           86181         1.98408
           86182         1.17352
           86183         1.13673
           86184         2.70926
           86185         2.37998
           86186         1.61039
           86187         1.59158
           86188         1.00651
           86189         1.19064
           86190         1.26349
           86191     734.756E-03
           86192     813.225E-03
           86193         2.67586
           86194         2.67608
           86195     575.486E-03
           86196     982.394E-03
           86197     725.612E-03
           86198         7.81794
           86199     543.224E-03
           86200     606.275E-03
           86201         1.04032
           86202         2.04538
           86203         2.04557
           86204         1.75491
           86205         1.85606
           86206         1.08973
           86207         1.04015
           86208         2.76568
           86209         2.78095
           86210         2.80467
           86211         2.79847
           86212         2.80502
           86213         2.80017
           86214         1.76047
           86215         2.82359
           86216         2.81838
           86217         1.60460
           86218         1.59027
           86219         1.66011
           86220         2.81747
           86221         5.82567
           86222     985.636E-03
           86223         5.81933
           86224         5.87363
           86225         5.87711
           86226         5.82536
           86227         1.91932
           86228         1.56267
           86229         1.48638
           86230         1.49513
           86231         1.54770
           86232         5.82576
           86233         5.79225
           86234         2.01045
           86235         1.88200
           86236     851.351E-03
           86237         1.70598
           86238         1.77301
           86239         1.78268
           86240         1.62058
           86241         1.67390
           86242         1.43664
           86243     657.631E-03
           86244     622.594E-03
           86245     586.359E-03
           86246         3.47625
           86247     274.941E-03
           86248     264.668E-03
           86249         3.66946
           86250         3.72022
           86251     574.032E-03
           86252     188.175E-03
           86253     188.407E-03
           86254     239.730E-03
           86255         3.58529
           86256     447.897E-03
           86257     389.525E-03
           86258     188.826E-03
           86259     182.187E-03
           86260     335.007E-03
           86261     783.104E-03
           86262     85.6984E-03
           86263     25.5440E-03
           86264     19.2926E-03
           86265     191.691E-03
           86266         3.66197
           86267     311.006E-03
           86268     284.301E-03
           86269         1.48357
           86270         1.42682
           86271         2.61590
           86272         2.61731
           86273         1.33567
           86274         1.35184
           86275         1.27352
           86276     177.038E-03
           86277     192.283E-03
           86278         2.26826
           86279         2.38721
           86280     89.1215E-03
           86281         2.30305
           86282         2.28953
           86283         2.29030
           86284         2.27640
           86285         4.90348
           86286         4.88770
           86287         4.57080
           86288         4.51664
           86289         4.64324
           86290         4.79538
           86291     64.0368E-03
           86292     72.1595E-03
           86293     169.615E-03
           86294         4.66503
           86295         5.69087
           86296         5.72988
           86297         5.71375
           86298     121.755E-03
           86299     99.2600E-03
           86300     147.983E-03
           86301     451.762E-03
           86302     389.480E-03
           86303     124.088E-03
           86304     804.430E-03
           86305     299.279E-03
           86306         5.96775
           86307         8.46661
           86308     609.129E-03
           86309     550.426E-03
           86310         8.33496
           86311     129.627E-03
           86312     110.595E-03
           86313     121.923E-03
           86314     555.141E-03
           86315     211.591E-03
           86316         8.20704
           86317         7.80052
           86318         7.22478
           86319         7.26888
           86320         7.32842
           86321     28.2716E-03
           86322         7.30797
           86323         7.48100
           86324     92.8930E-03
           86325     65.3258E-03
           86326     58.9119E-03
           86327         5.72358
           86328         5.70042
           86329         5.73625
           86330         5.79012
           86331     137.456E-03
           86332     738.744E-03
           86333     494.630E-03
           86334     42.0391E-03
           86335     21.1123E-03
           86336         1.96079
           86337         1.95294
           86338         4.86837
           86339         4.57827
           86340         4.69477
           86341     276.357E-03
           86342     549.561E-03
           86343         4.62312
           86344         4.53929
           86345         4.56149
           86346         1.17727
           86347     402.222E-03
           86348     186.795E-03
           86349         2.23117
           86350         2.62545
           86351         2.62734
           86352         2.62931
           86353         2.27335
           86354     81.6465E-03
           86355     75.1822E-03
           86356         2.32620
           86357     77.9653E-03
           86358     18.1837E-03
           86359     77.4694E-03
           86360         2.31789
           86361         2.30013
           86362         2.26388
           86363         2.25787
           86364         1.67275
           86365         1.72603
           86366         1.67498
           86367         1.59465
           86368         1.66118
           86369         1.64051
           86370         1.63711
           86371         1.61045
           86372         1.64268
           86373         1.60861
           86374         1.58809
           86375         1.59056
           86376         1.74617
           86377         1.68672
           86378         1.06275
           86379     410.763E-03
           86380         3.10072
           86381     564.431E-03
           86382     300.002E-03
           86383     238.433E-03
           86384         4.95867
           86385         4.88894
           86386         4.56372
           86387         4.50092
           86388         4.68757
           86389     340.177E-03
           86390         4.50446
           86391         4.44584
           86392     820.937E-03
           86393         1.41222
           86394         1.25114
           86395         4.44169
           86396         4.62884
           86397         4.57281
           86398         1.95005
           86399         1.87398
           86400         2.61410
           86401         2.60615
           86402         2.62387
           86403         2.62107
           86404         2.62287
           86405         1.70566
           86406         2.00497
           86407         2.10521
           86408         2.47174
           86409         2.48983
           86410         2.48223
           86411         2.51225
           86412         2.50298
           86413         2.51205
           86414         2.50123
           86415         1.88941
           86416         2.47061
           86417     175.651E-03
           86418     135.243E-03
           86419         2.12721
           86420         1.71827
           86421     145.453E-03
           86422         1.28031
           86423         1.13528
           86424         1.49016
           86425     78.8305E-03
           86426     79.1824E-03
           86427     925.412E-03
           86428     996.858E-03
           86429     596.409E-03
           86430         1.29903
           86431     499.257E-03
           86432     819.462E-03
           86433     716.356E-03
           86434     716.010E-03
           86435     423.907E-03
           86436         2.34801
           86437         2.30236
           86438         2.28244
           86439         2.26634
           86440     265.742E-03
           86441     443.882E-03
           86442     398.482E-03
           86443     440.250E-03
           86444     17.8449E-03
           86445     137.566E-03
           86446     92.3460E-03
           86447     428.598E-03
           86448     331.848E-03
           86449     245.497E-03
           86450     146.421E-03
           86451     19.9244E-03
           86452     447.936E-03
           86453     717.697E-03
           86454     712.403E-03
           86455     739.132E-03
           86456     741.500E-03
           86457     816.069E-03
           86458     791.230E-03
           86459     587.326E-03
           86460         1.34053
           86461     574.993E-03
           86462     743.211E-03
           86463         7.12025
           86464         6.86237
           86465         2.34769
           86466         7.61855
           86467         2.24313
           86468         3.93479
           86469         3.94954
           86470         3.89385
           86471         4.03487
           86472         4.10834
           86473         1.41627
           86474         2.48745
           86475         1.84042
           86476         3.65866
           86477         5.69223
           86478         3.14470
           86479         3.22418
           86480         3.28000
           86481         1.46628
           86482         1.43025
           86483         1.42279
           86484         1.49280
           86485         1.44217
           86486         3.19407
           86487         3.10914
           86488         2.55721
           86489         3.23724
           86490         2.54560
           86491         2.53227
           86492         2.54694
           86493         2.54458
           86494         2.84425
           86495         2.82463
           86496         2.64445
           86497         2.56122
           86498         2.56623
           86499         2.55759
           86500         2.55079
           86501         2.63274
           86502         2.63772
           86503         2.90784
           86504         2.82974
           86505         2.93786
           86506         2.85418
           86507         2.82285
           86508         2.89752
           86509         2.88958
           86510         2.82668
           86511         2.77638
           86512         2.78239
           86513         2.74002
           86514         2.89560
           86515         2.73947
           86516         2.78282
           86517         2.54639
           86518         2.68770
           86519         2.35826
           86520         2.35037
           86521         2.34286
           86522         2.36355
           86523         2.34306
           86524         2.34274
           86525         2.76623
           86526         2.71724
           86527         2.79744
           86528         2.59345
           86529         2.63699
           86530         2.52364
           86531         2.35279
           86532         2.36618
           86533         2.37135
           86534         2.37375
           86535         2.62167
           86536         2.62449
           86537         2.72099
           86538         2.67360
           86539         2.63195
           86540         2.97556
           86541         2.62623
           86542         2.62420
           86543         2.63209
           86544         2.62618
           86545         2.56345
           86546         2.62623
           86547         2.61575
           86548         2.65499
           86549         2.50625
           86550         2.56944
           86551         1.92924
           86552         2.23667
           86553         2.02394
           86554         2.61170
           86555         1.93013
           86556         1.96203
           86557     190.383E-03
           86558     266.628E-03
           86559         1.76737
           86560         1.35606
           86561         2.02075
           86562         2.07237
           86563         2.03454
           86564         1.59905
           86565         3.82281
           86566         2.46734
           86567         1.89125
           86568         1.85049
           86569         1.87973
           86570         1.73414
           86571         2.10216
           86572         2.26393
           86573         3.60483
           86574         2.71357
           86575         1.80589
           86576         1.65082
           86577         1.72973
           86578         1.84949
           86579         1.75197
           86580         2.70961
           86581         2.69184
           86582         2.69329
           86583         2.69273
           86584         2.68752
           86585         2.68932
           86586         2.69299
           86587         1.74971
           86588         1.17674
           86589         4.84885
           86590         2.69462
           86591         2.68953
           86592         2.69423
           86593         1.41132
           86594         2.70047
           86595         2.69747
           86596         4.47518
           86597         4.38331
           86598         4.18806
           86599         4.20448
           86600     965.520E-03
           86601         4.34717
           86602         1.15617
           86603         1.20252
           86604         1.27611
           86605         1.24003
           86606         1.03272
           86607         1.26907
           86608         1.61803
           86609         4.44863
           86610         1.19458
           86611         1.24357
           86612         1.16903
           86613         4.78106
           86614         4.50001
           86615     812.304E-03
           86616         5.36930
           86617         1.13188
           86618         1.09466
           86619         1.14841
           86620     950.609E-03
           86621     925.153E-03
           86622     993.977E-03
           86623         2.58659
           86624         3.07090
           86625         6.55016
           86626         2.81013
           86627         5.90458
           86628         2.88712
           86629         2.49545
           86630         2.49660
           86631         2.50247
           86632         2.15428
           86633         2.99604
           86634         2.98969
           86635         2.49627
           86636         2.73434
           86637         2.72147
           86638         2.70249
           86639         2.70440
           86640         2.51063
           86641         2.52127
           86642         2.96408
           86643         2.93950
           86644         2.96582
           86645         2.31572
           86646         2.68369
           86647         2.84033
           86648         2.67685
           86649         2.77553
           86650         2.80973
           86651         2.41352
           86652         2.76677
           86653         2.81835
           86654         2.92112
           86655         2.91020
           86656         2.89318
           86657         2.89224
           86658         2.42423
           86659         2.18150
           86660         2.57775
           86661         2.57768
           86662         2.43201
           86663         2.80468
           86664         2.58885
           86665         2.66123
           86666         2.72035
           86667         2.72987
           86668         3.14969
           86669         3.28023
           86670         2.82076
           86671         2.68127
           86672         2.67629
           86673         2.69934
           86674         2.70633
           86675         2.68895
           86676         2.73685
           86677         2.71854
           86678         2.77038
           86679         2.72106
           86680         2.74879
           86681         4.18069
           86682         2.84998
           86683         2.83365
           86684         2.88239
           86685         2.78597
           86686         2.68933
           86687         2.67310
           86688         2.67107
           86689         5.53463
           86690         2.69717
           86691         2.69791
           86692         2.66929
           86693         2.68953
           86694         2.59517
           86695         2.59647
           86696         2.62930
           86697         2.58487
           86698         5.70685
           86699         2.24588
           86700         2.24731
           86701         2.26320
           86702         5.70434
           86703         5.71985
           86704         2.16496
           86705         9.03817
           86706         8.72930
           86707         8.39883
           86708         8.83975
           86709         2.20667
           86710         8.18849
           86711         2.33689
           86712         9.45196
           86713         9.80359
           86714         2.24731
           86715         2.33250
           86716         2.00099
           86717         2.20554
           86718         2.23591
           86719         2.26581
           86720         3.91344
           86721         1.52806
           86722         2.13961
           86723         1.92528
           86724         1.97900
           86725         4.32270
           86726         3.97549
           86727         3.91843
           86728         4.03793
           86729         2.13450
           86730         2.06787
           86731         1.64155
           86732         1.67733
           86733         1.63430
           86734     4.06469E-03
           86735     8.40721E-03
           86736     17.7502E-03
           86737     40.1629E-03
           86738     40.0303E-03
           86739     33.8300E-03
           86740         1.60509
           86741         1.63507
           86742         2.57793
           86743         2.57370
           86744         1.73180
           86745         1.68718
           86746         1.55427
           86747         1.25705
           86748         2.54316
           86749         1.70493
           86750         2.55860
           86751         2.55094
           86752         2.55314
           86753         2.54539
           86754         2.54911
           86755         2.55676
           86756         2.55032
           86757         2.55785
           86758         2.58223
           86759         1.59116
           86760         1.31529
           86761         1.09323
           86762         1.88420
           86763         1.83302
           86764         2.56812
           86765         2.55309
           86766         4.47896
           86767         4.52841
           86768         1.38496
           86769         1.40090
           86770         1.10348
           86771     775.624E-03
           86772     829.198E-03
           86773         1.36465
           86774         1.45284
           86775         1.09192
           86776         1.11205
           86777         1.02289
           86778         1.22051
           86779         1.65277
           86780         1.79872
           86781         2.68058
           86782         5.10110
           86783         4.71723
           86784         2.53844
           86785         2.50118
           86786         2.69080
           86787         2.70190
           86788         2.71458
           86789         4.59927
           86790         4.71606
           86791         4.64917
           86792         2.66261
           86793         2.42162
           86794         2.64268
           86795         2.63346
           86796         2.66063
           86797         4.69484
           86798         2.52447
           86799         2.57260
           86800         4.51285
           86801         2.72463
           86802         2.70784
           86803         2.68732
           86804         2.71539
           86805         2.76859
           86806         2.77389
           86807         2.76103
           86808         2.74130
           86809         2.76297
           86810     56.8056E-03
           86811     41.5928E-03
           86812     105.674E-03
           86813     98.5000E-03
           86814     63.6265E-03
           86815         2.75978
           86816     24.7785E-03
           86817     29.0317E-03
           86818         2.77850
           86819         2.68546
           86820         2.90643
           86821         2.91908
           86822         2.71417
           86823         2.70689
           86824         2.69888
           86825         2.89802
           86826         2.56140
           86827         2.56905
           86828         2.60998
           86829         2.63205
           86830         2.63501
           86831         2.64730
           86832         2.64094
           86833         2.67718
           86834         2.67464
           86835         2.95523
           86836         2.89703
           86837         2.88990
           86838         2.97324
           86839         2.63153
           86840         2.64258
           86841         2.51243
           86842         2.50538
           86843         2.16109
           86844         2.61708
           86845         2.60493
           86846         2.65297
           86847         2.07167
           86848         2.08587
           86849         2.15395
           86850         2.62515
           86851         2.09706
           86852         2.02591
           86853         2.61771
           86854         2.62346
           86855         2.62281
           86856         2.61631
           86857         2.43392
           86858         2.48354
           86859         2.51477
           86860         2.47522
           86861         2.47938
           86862         2.47762
           86863         5.71888
           86864         5.78273
           86865         2.46481
           86866         2.54409
           86867         2.47686
           86868         2.27792
           86869         2.41449
           86870         2.31728
           86871         2.41382
           86872         2.38642
           86873         2.25664
           86874         2.28821
           86875         2.32525
           86876         2.34713
           86877         2.37589
           86878         2.36505
           86879         2.26077
           86880         2.19175
           86881         2.22671
           86882         2.31919
           86883         2.30861
           86884         2.47202
           86885         2.30142
           86886         2.27297
           86887         5.47890
           86888         5.47199
           86889         2.24419
           86890         2.22971
           86891         2.20879
           86892         2.24633
           86893         2.46162
           86894         5.50741
           86895         5.53839
           86896         2.14785
           86897         2.16037
           86898         2.16871
           86899         2.12495
           86900         5.47017
           86901         5.44877
           86902         1.62812
           86903         1.67635
           86904         1.85024
           86905         1.49110
           86906         1.87664
           86907         2.31402
           86908         1.77478
           86909         1.43752
           86910         1.36668
           86911         1.45628
           86912         5.06510
           86913         5.14857
           86914         5.03960
           86915         5.01305
           86916         1.62062
           86917         1.68473
           86918         4.99394
           86919         1.64893
           86920         4.58732
           86921         4.70439
           86922         4.70863
           86923         1.50592
           86924         1.55452
           86925         1.49783
           86926         1.43234
           86927         10.6432
           86928         9.49498
           86929         9.29972
           86930         1.43404
           86931         4.45850
           86932         1.18419
           86933         1.31177
           86934         1.29559
           86935     983.542E-03
           86936         1.31967
           86937         4.09608
           86938         4.05150
           86939         1.56996
           86940         1.53896
           86941         1.60579
           86942         1.40765
           86943         2.38298
           86944         2.36197
           86945         2.69126
           86946         2.69871
           86947         2.58269
           86948         2.43736
           86949         2.64746
           86950         2.67125
           86951         2.67145
           86952         2.66767
           86953         2.66746
           86954         2.69900
           86955         2.71329
           86956         2.72651
           86957         2.60144
           86958         2.74593
           86959         2.62845
           86960         2.65090
           86961         2.64643
           86962         2.63425
           86963         2.45512
           86964         2.44028
           86965         3.52269
           86966         3.50802
           86967         3.42445
           86968         2.64828
           86969         2.64209
           86970         2.62270
           86971         5.53984
           86972         2.68357
           86973         2.67106
           86974         2.73124
           86975         2.66454
           86976         2.66328
           86977         2.66773
           86978         2.69569
           86979         2.68881
           86980         2.69814
           86981         2.65561
           86982         2.25348
           86983         2.24004
           86984         2.28390
           86985         2.36983
           86986         2.18594
           86987         2.16221
           86988         2.61668
           86989         2.61149
           86990         2.25096
           86991         2.56359
           86992         2.16200
           86993         2.60482
           86994         2.57127
           86995         2.81717
           86996         2.80894
           86997         2.80619
           86998         2.79756
           86999         2.79266
           87000         2.78779
           87001         2.80947
           87002         2.79038
           87003         2.79488
           87004         2.80562
           87005         2.58443
           87006         2.49021
           87007         2.60209
           87008         2.84947
           87009         2.82350
           87010         2.83018
           87011         2.51245
           87012         2.51225
           87013         2.49083
           87014         2.47000
           87015         2.50460
           87016         5.13765
           87017         5.25507
           87018         2.43420
           87019         2.41551
           87020         2.20556
           87021         2.08196
           87022         2.29179
           87023         5.45263
           87024         2.43154
           87025         2.43471
           87026         2.50945
           87027         2.26508
           87028         2.40958
           87029         2.17907
           87030         2.11021
           87031         2.05363
           87032         2.02766
           87033         2.04426
           87034         2.23088
           87035         2.23326
           87036         2.13030
           87037         2.12061
           87038         2.19838
           87039         2.23007
           87040         1.87857
           87041         1.87909
           87042         1.82894
           87043         1.87579
           87044         2.07391
           87045         1.98540
           87046         2.08128
           87047         2.10724
           87048         2.47679
           87049         1.96457
           87050         1.94361
           87051         2.79414
           87052         2.82493
           87053         2.83065
           87054         2.84219
           87055         2.80799
           87056         2.84535
           87057         2.86915
           87058         2.30738
           87059         1.75695
           87060         1.77261
           87061         2.03844
           87062         1.90516
           87063         2.89373
           87064         2.82101
           87065         2.79371
           87066         1.72612
           87067         1.78233
           87068         5.52883
           87069         5.44916
           87070         5.50203
           87071         5.44608
           87072         5.44570
           87073         5.70029
           87074         2.65882
           87075         2.37797
           87076         2.59157
           87077         2.69912
           87078         2.68438
           87079         2.33007
           87080         2.36863
           87081         2.35222
           87082         2.66632
           87083         2.67985
           87084         2.71940
           87085         2.48728
           87086         2.65824
           87087         2.65048
           87088         2.65596
           87089         5.13093
           87090         2.66045
           87091         2.66326
           87092         2.65905
           87093         4.90172
           87094         4.97066
           87095         5.17535
           87096         2.65803
           87097         2.66394
           87098         1.06876
           87099         2.65872
           87100         2.65884
           87101         5.31516
           87102         5.24123
           87103         2.66921
           87104         2.64247
           87105         2.64677
           87106     898.503E-03
           87107         2.66153
           87108         2.67694
           87109         2.67183
           87110         2.67516
           87111         2.65868
           87112         2.65648
           87113         1.01353
           87114     775.763E-03
           87115     765.313E-03
           87116     615.599E-03
           87117     720.832E-03
           87118         2.67705
           87119         2.66321
           87120         2.66511
           87121         2.66694
           87122         2.63107
           87123         2.63596
           87124         2.67587
           87125         2.66177
           87126         2.67205
           87127         2.62364
           87128         2.62606
           87129         2.62895
           87130         2.62962
           87131         2.66897
           87132         2.67396
           87133         2.62110
           87134         2.61614
           87135         2.61745
           87136         2.62222
           87137         2.69998
           87138         2.70374
           87139         2.66942
           87140         2.62703
           87141         2.66491
           87142         2.64772
           87143         2.64471
           87144         2.62578
           87145         2.63232
           87146         2.66210
           87147         2.65891
           87148         2.65875
           87149         2.64050
           87150         5.62799
           87151         2.66893
           87152         2.62276
           87153         2.62799
           87154         2.69632
           87155         5.17254
           87156         5.16596
           87157         5.21366
           87158         2.62070
           87159         2.66475
           87160         3.59064
           87161         4.85102
           87162         2.65735
           87163         2.67470
           87164         1.15550
           87165         1.01977
           87166     994.305E-03
           87167         2.65846
           87168         2.67399
           87169         2.65645
           87170         2.65433
           87171         2.65224
           87172         2.63766
           87173         1.20483
           87174     961.907E-03
           87175         2.46796
           87176         2.47063
           87177         2.46349
           87178         2.44730
           87179         2.47165
           87180         2.39697
           87181         2.40798
           87182         2.41596
           87183         2.40609
           87184         2.60772
           87185         2.38688
           87186         2.37193
           87187         2.57060
           87188         2.56877
           87189         2.41509
           87190         2.65932
           87191         2.64481
           87192         2.42435
           87193         2.60736
           87194         2.63802
           87195         2.65919
           87196         2.68430
           87197         2.70231
           87198         2.61184
           87199         2.68117
           87200         2.67469
           87201         2.70173
           87202         2.64921
           87203         2.61215
           87204         2.65364
           87205         2.62900
           87206         2.64542
           87207         2.65962
           87208         2.68125
           87209         2.56182
           87210         2.56215
           87211         2.66182
           87212         1.05676
           87213     990.934E-03
           87214         2.64876
           87215         2.64880
           87216         1.21769
           87217         1.19770
           87218         1.23574
           87219         1.23822
           87220         2.59012
           87221         1.00852
           87222         1.05434
           87223         1.07541
           87224         2.49732
           87225         2.49684
           87226         2.51075
           87227         2.49860
           87228         2.48751
           87229         2.54494
           87230         2.55305
           87231         2.54318
           87232     63.6399E-03
           87233         2.53690
           87234         2.54724
           87235         2.47703
           87236         2.45826
           87237         2.46330
           87238     68.9370E-03
           87239     188.191E-03
           87240     187.105E-03
           87241         2.52811
           87242         2.44004
           87243         2.45128
           87244         4.56135
           87245         4.20877
           87246         4.15630
           87247         4.54260
           87248         4.88236
           87249         2.38157
           87250         2.36763
           87251         2.68575
           87252         2.64202
           87253         2.64560
           87254         2.64591
           87255         5.12194
           87256         4.13135
           87257         4.23703
           87258         4.25245
           87259         2.64871
           87260         2.64430
           87261         5.45274
           87262         5.45741
           87263         2.60248
           87264         2.60233
           87265         5.46003
           87266         6.48184
           87267         6.29552
           87268         6.04219
           87269         6.11908
           87270         6.02421
           87271         2.62294
           87272         2.62464
           87273         5.89032
           87274         5.96045
           87275         2.62669
           87276         6.33862
           87277         6.23978
           87278         5.69323
           87279         5.64505
           87280         5.73395
           87281         5.77040
           87282         2.57346
           87283         2.61441
           87284         2.59809
           87285         2.06193
           87286         1.93633
           87287         1.93550
           87288         1.93664
           87289         1.25098
           87290         1.24980
           87291         1.17758
           87292         2.65637
           87293         2.65646
           87294         2.65413
           87295         2.63421
           87296         1.07081
           87297         1.09433
           87298         1.04545
           87299     921.025E-03
           87300         1.04735
           87301     845.132E-03
           87302         2.65868
           87303         2.65772
           87304         2.62752
           87305         2.67424
           87306         2.67755
           87307         2.64823
           87308         2.61874
           87309         2.61657
           87310         1.04841
           87311         7.36673
           87312         2.64439
           87313         2.60097
           87314         2.64766
           87315         1.55573
           87316         1.58612
           87317         1.71112
           87318         1.65066
           87319         1.63510
           87320         1.59297
           87321         1.57208
           87322         1.58784
           87323         2.62978
           87324         2.62316
           87325         2.63166
           87326         2.62504
           87327         2.62534
           87328         2.60841
           87329     56.5057E-03
           87330     39.4745E-03
           87331     61.7495E-03
           87332     37.4795E-03
           87333     45.7639E-03
           87334         2.58470
           87335         2.58904
           87336         2.59098
           87337         2.58878
           87338     294.998E-03
           87339     394.486E-03
           87340     279.611E-03
           87341     308.839E-03
           87342         2.58150
           87343         2.65680
           87344         2.65558
           87345     194.329E-03
           87346     291.897E-03
           87347         2.64798
           87348         5.16559
           87349         2.69126
           87350         2.68887
           87351         2.63665
           87352         2.63694
           87353         2.64460
           87354         2.65030
           87355         2.64540
           87356         2.64745
           87357         2.64779
           87358         2.68470
           87359         2.68259
           87360         2.62725
           87361         2.60384
           87362         2.61024
           87363         2.61535
           87364         5.20449
           87365         5.22082
           87366         6.25231
           87367         2.59303
           87368         2.49665
           87369         2.50000
           87370         2.52267
           87371         3.43306
           87372         2.57706
           87373         3.47841
           87374         3.42830
           87375         3.37209
           87376         2.52295
           87377         3.38372
           87378         5.99993
           87379         2.56054
           87380         2.53965
           87381         2.52254
           87382         2.68749
           87383         2.68920
           87384         2.65461
           87385         2.65211
           87386         2.64248
           87387         2.62855
           87388         2.63617
           87389         2.68001
           87390         2.54433
           87391         2.69227
           87392         2.64766
           87393         3.06405
           87394         3.09374
           87395         5.75792
           87396         2.53469
           87397         2.51352
           87398         2.58743
           87399         2.57249
           87400         2.57294
           87401         2.50608
           87402         2.56607
           87403         2.69214
           87404         2.39859
           87405         2.59082
           87406         2.36856
           87407         2.76505
           87408         4.23004
           87409         2.53703
           87410         2.50956
           87411         4.09576
           87412         3.98801
           87413         3.10073
           87414         3.10081
           87415         3.05214
           87416         2.61999
           87417         2.87566
           87418         2.41026
           87419         3.59206
           87420         2.42048
           87421         3.06540
           87422         2.99999
           87423         2.93261
           87424         2.99102
           87425         3.04745
           87426         3.16432
           87427         3.29313
           87428         4.71224
           87429         3.00727
           87430         3.04647
           87431         3.59462
           87432         3.52196
           87433         3.30104
           87434         3.76560
           87435         3.31235
           87436         3.30110
           87437         3.23044
           87438         3.92750
           87439         3.85386
           87440         4.47833
           87441         4.26415
           87442         4.10983
           87443         4.19224
           87444         4.31899
           87445     157.691E-03
           87446     126.548E-03
           87447     279.896E-03
           87448         4.82813
           87449     242.784E-03
           87450     202.518E-03
           87451         4.03854
           87452         2.09165
           87453         2.10168
           87454         2.07947
           87455         2.06992
           87456         2.19020
           87457         2.23121
           87458         2.20766
           87459         2.18739
           87460         6.13370
           87461         5.81879
           87462         2.15669
           87463         7.84306
           87464         5.77097
           87465         5.09720
           87466         2.06772
           87467         2.24851
           87468         6.09814
           87469         2.46168
           87470         5.09363
           87471         5.26835
           87472         2.54131
           87473         2.57380
           87474         2.56945
           87475         2.47076
           87476         2.43645
           87477         5.10704
           87478         2.33119
           87479         2.34797
           87480         2.35321
           87481         2.33066
           87482         2.34734
           87483         5.89566
           87484         2.36819
           87485         2.74182
           87486         2.02516
           87487         1.90699
           87488         2.62969
           87489         2.63902
           87490         2.70080
           87491         1.83959
           87492         1.83235
           87493         2.57553
           87494         2.54661
           87495         2.61043
           87496         1.69624
           87497         2.71877
           87498         1.77408
           87499         1.86084
           87500         3.49821
           87501         1.98621
           87502         3.80093
           87503         2.22947
           87504         2.77405
           87505         2.30424
           87506         2.22756
           87507         2.26875
           87508         2.22877
           87509         2.23352
           87510         2.29415
           87511         3.58728
           87512         3.63587
           87513         5.56777
           87514         3.15447
           87515         3.10390
           87516         4.02865
           87517         2.31118
           87518         3.36296
           87519         2.35234
           87520         5.62017
           87521         5.78306
           87522         4.36153
           87523         4.80345
           87524         4.72621
           87525         4.76515
           87526         4.85472
           87527         3.30935
           87528         3.18127
           87529         3.11463
           87530         6.05809
           87531         6.27069
           87532         4.82633
           87533         5.15948
           87534         3.32032
           87535         3.23673
           87536         3.20707
           87537         3.22254
           87538         3.18753
           87539         6.14535
           87540         6.27882
           87541         3.18369
           87542         3.18435
           87543         3.18791
           87544         5.45694
           87545         2.75891
           87546         2.66107
           87547         2.41761
           87548         2.35024
           87549         2.39134
           87550         2.95257
           87551         2.96670
           87552         2.95510
           87553         2.51366
           87554         2.51979
           87555         2.42362
           87556         2.35998
           87557         2.45425
           87558         2.45398
           87559         2.45364
           87560         2.80846
           87561         2.80224
           87562         2.41589
           87563         2.48868
           87564         2.45742
           87565         2.47420
           87566         2.47984
           87567     941.595E-03
           87568     844.293E-03
           87569         2.40658
           87570         2.43720
           87571     777.555E-03
           87572     863.825E-03
           87573         2.72241
           87574         2.66925
           87575     884.580E-03
           87576     819.459E-03
           87577     828.288E-03
           87578     857.323E-03
           87579         3.38462
           87580         3.26591
           87581         2.09730
           87582         2.15319
           87583         1.42987
           87584         2.60120
           87585         2.56986
           87586         2.53926
           87587         2.57003
           87588         2.61988
           87589         1.38503
           87590         1.45750
           87591         2.65161
           87592         2.70885
           87593         3.76411
           87594         3.54886
           87595         3.96953
           87596         3.83192
           87597         3.71158
           87598         3.13788
           87599         3.20163
           87600         1.30057
           87601         1.57213
           87602         3.95269
           87603         2.66814
           87604         3.07038
           87605         2.37030
           87606         2.38152
           87607         3.38469
           87608         2.36080
           87609         3.32200
           87610         2.29251
           87611         2.45564
           87612         2.38121
           87613         3.53017
           87614         4.74918
           87615         4.66226
           87616         3.92799
           87617         5.76068
           87618         5.66210
           87619         4.03631
           87620         4.20888
           87621         3.69969
           87622         3.82969
           87623         4.63190
           87624         4.60875
           87625         4.13469
           87626         4.93243
           87627         4.69601
           87628         3.30672
           87629         2.26021
           87630         2.26334
           87631         2.27693
           87632         2.26354
           87633         2.29302
           87634         2.28585
           87635         2.80419
           87636         2.45758
           87637         2.26036
           87638         2.59387
           87639         2.52109
           87640         2.53729
           87641         2.43442
           87642         3.08196
           87643         2.74145
           87644         2.70944
           87645         2.86967
           87646         2.91407
           87647         2.95309
           87648         2.86132
           87649         2.90846
           87650         2.65225
           87651         2.62833
           87652         2.65073
           87653         2.55280
           87654         2.57539
           87655         2.55284
           87656         3.31723
           87657         3.40027
           87658         2.77505
           87659         3.15713
           87660         3.69847
           87661         3.28207
           87662         2.72825
           87663         2.74745
           87664     920.139E-03
           87665         3.93674
           87666         3.78660
           87667         4.63882
           87668         3.77077
           87669         3.80779
           87670         3.70005
           87671         2.77891
           87672         4.39802
           87673         2.63343
           87674         2.02968
           87675         1.74741
           87676         2.37061
           87677         2.42118
           87678         1.98248
           87679         2.19042
           87680         1.24987
           87681         2.55649
           87682         2.56107
           87683         1.18995
           87684         2.39412
           87685     974.908E-03
           87686         5.98116
           87687         3.17654
           87688         3.19039
           87689         3.19618
           87690         3.33231
           87691         2.56391
           87692         2.53266
           87693         2.78852
           87694         2.73871
           87695         2.78792
           87696         2.78955
           87697         2.96936
           87698         2.78692
           87699         2.16912
           87700         2.71719
           87701         2.66406
           87702         2.58603
           87703         3.44148
           87704         2.99331
           87705         2.97766
           87706         1.18153
           87707         1.14547
           87708         1.09984
           87709         2.03547
           87710         2.06095
           87711         2.25311
           87712         2.32306
           87713         2.23578
           87714         2.25214
           87715         2.85025
           87716         2.88105
           87717         3.08434
           87718         2.09424
           87719         2.05876
           87720         2.03049
           87721         2.41520
           87722         2.84242
           87723         2.88597
           87724         2.33227
           87725         2.67371
           87726         2.48480
           87727         2.40546
           87728         2.72950
           87729         2.13288
           87730         2.06266
           87731         2.41863
           87732         2.33895
           87733         3.13827
           87734         4.15552
           87735         4.10927
           87736         2.20510
           87737         2.16241
           87738         3.07942
           87739         2.15923
           87740         2.03227
           87741         2.98746
           87742         2.43243
           87743         3.07550
           87744         2.09441
           87745         2.08362
           87746         2.08551
           87747         2.00694
           87748         2.36541
           87749         5.21553
           87750         4.98256
           87751         2.59038
           87752         3.03175
           87753         10.5422
           87754         10.3078
           87755         2.00220
           87756         1.99847
           87757         2.16854
           87758         1.99486
           87759         2.19670
           87760         11.1937
           87761         2.19380
           87762         2.16357
           87763         6.62681
           87764         2.04221
           87765         2.39259
           87766         2.38627
           87767         6.51275
           87768         1.98374
           87769         2.06069
           87770         6.61656
           87771         2.27941
           87772         5.97215
           87773         2.17971
           87774         2.41072
           87775         2.48665
           87776         5.70864
           87777         5.79335
           87778         5.73513
           87779         5.54805
           87780         5.63171
           87781         5.25155
           87782         5.26595
           87783         6.30919
           87784         6.08352
           87785         5.82432
           87786         6.04836
           87787         6.08858
           87788         3.45112
           87789         3.46092
           87790         3.61763
           87791         6.21929
           87792         5.31537
           87793         5.25293
           87794         5.42065
           87795         5.34946
           87796         6.53013
           87797         7.33945
           87798         7.68001
           87799         6.99296
           87800     494.720E-03
           87801         1.72957
           87802         1.64390
           87803         1.83248
           87804     697.462E-03
           87805     711.414E-03
           87806     536.765E-03
           87807         1.66165
           87808         6.99770
           87809         6.85143
           87810         6.70037
           87811         6.83278
           87812         1.84301
           87813         1.58903
           87814         1.54436
           87815         2.82270
           87816         7.09274
           87817         5.02186
           87818         2.53658
           87819         2.34868
           87820         7.70341
           87821         3.23630
           87822         3.55098
           87823         2.93807
           87824         3.12474
           87825         3.55287
           87826         3.51738
           87827         3.22786
           87828         3.05015
           87829         2.19735
           87830         2.33498
           87831         3.37223
           87832         3.39339
           87833         3.44155
           87834         3.60310
           87835         2.75502
           87836         2.99550
           87837         8.93568
           87838         2.93423
           87839         3.55110
           87840         2.37899
           87841         10.7860
           87842         9.32125
           87843         9.73035
           87844         10.5123
           87845         9.04377
           87846         4.17370
           87847         4.18140
           87848         4.41024
           87849         4.36348
           87850         5.08136
           87851         5.09745
           87852         8.31188
           87853         4.00324
           87854         4.17319
           87855         4.26746
           87856         4.51777
           87857         4.76396
           87858         7.10278
           87859         6.01938
           87860         5.94069
           87861         8.39593
           87862         6.33162
           87863         2.53336
           87864         7.54462
           87865         6.61388
           87866         1.57813
           87867         1.59734
           87868         8.69703
           87869         9.07170
           87870         3.22148
           87871         3.15985
           87872         3.28331
           87873         3.30357
           87874         3.29929
           87875         3.23696
           87876         2.21285
           87877         7.08195
           87878         7.14067
           87879         6.79429
           87880         7.21434
           87881         2.09486
           87882         2.04780
           87883         11.9364
           87884         2.12476
           87885         7.84166
           87886         6.89729
           87887         6.43518
           87888         6.89521
           87889         6.94115
           87890         1.88115
           87891         1.80058
           87892         1.80624
           87893         1.88630
           87894         6.76824
           87895         6.79467
           87896         1.79181
           87897         1.72494
           87898         1.92435
           87899         1.79154
           87900         1.85948
           87901         6.47005
           87902         5.93859
           87903         6.03295
           87904         3.90054
           87905         4.12909
           87906         2.47349
           87907         4.67062
           87908         2.63714
           87909         2.62712
           87910         2.63005
           87911         7.30344
           87912         5.16869
           87913         4.95508
           87914         2.64609
           87915         3.07802
           87916         3.44439
           87917         2.61587
           87918         2.62507
           87919         2.62612
           87920         2.42101
           87921         4.62215
           87922         4.37358
           87923         4.63001
           87924         4.41029
           87925         3.92370
           87926         3.22032
           87927         3.26591
           87928         4.98928
           87929         2.84910
           87930         2.75075
           87931         2.20795
           87932         1.54132
           87933         1.48119
           87934         1.65865
           87935         1.65633
           87936         1.65905
           87937         4.26112
           87938     577.905E-03
           87939         2.05562
           87940         2.18863
           87941         2.15711
           87942         2.87182
           87943         1.40404
           87944         1.52237
           87945         3.88196
           87946         2.87989
           87947         1.21671
           87948         3.26995
           87949         3.22153
           87950     802.950E-03
           87951     190.980E-03
           87952     266.369E-03
           87953         4.15401
           87954         4.20476
           87955     430.543E-03
           87956     546.526E-03
           87957     599.286E-03
           87958         4.21769
           87959     454.464E-03
           87960     396.580E-03
           87961         4.19800
           87962         2.59410
           87963         2.59252
           87964     215.702E-03
           87965         2.59618
           87966         2.59685
           87967         2.60149
           87968         2.60171
           87969     536.831E-03
           87970     504.943E-03
           87971     546.321E-03
           87972     650.449E-03
           87973         2.58465
           87974         2.59076
           87975     758.327E-03
           87976     931.603E-03
           87977         1.44355
           87978         1.09387
           87979         3.12689
           87980     612.139E-03
           87981         9.68605
           87982         9.52829
           87983         7.66124
           87984         10.8697
           87985         5.94620
           87986         8.71142
           87987         5.87590
           87988         5.86607
           87989         9.51484
           87990         10.6577
           87991         5.79448
           87992         2.86005
           87993         7.60715
           87994         6.53555
           87995         2.54847
           87996         2.58106
           87997         2.61072
           87998         4.26813
           87999         3.94010
           88000         4.21087
           88001         2.62480
           88002         2.63045
           88003         5.76603
           88004         2.46267
           88005         2.43409
           88006         3.93730
           88007         4.22596
           88008         2.59175
           88009         2.54311
           88010         2.63075
           88011         6.09911
           88012         5.34233
           88013         3.45554
           88014         5.46374
           88015         3.80970
           88016         1.87974
           88017         2.74091
           88018         2.83197
           88019         3.80978
           88020         1.54581
           88021         3.27946
           88022         3.51225
           88023         3.02090
           88024         3.01509
           88025         2.62159
           88026         2.51058
           88027         1.92219
           88028         2.78808
           88029         3.13909
           88030         2.18372
           88031         2.95535
           88032         3.70928
           88033         3.51667
           88034         3.58662
           88035         3.49421
           88036         3.52539
           88037         3.50165
           88038         2.87939
           88039         2.37055
           88040         2.37068
           88041         2.35090
           88042         2.52950
           88043         2.71999
           88044         2.73897
           88045         3.66950
           88046         2.90661
           88047         1.86741
           88048         1.73219
           88049         2.67374
           88050         2.68667
           88051         2.67784
           88052         2.82761
           88053         1.20560
           88054         1.08983
           88055         2.26799
           88056         2.35991
           88057         1.46009
           88058         2.63376
           88059         2.66511
           88060         5.69229
           88061         1.17850
           88062     858.481E-03
           88063         1.30562
           88064         1.20338
           88065         1.12948
           88066         2.59533
           88067         2.81211
           88068         2.94980
           88069         2.77716
           88070         2.59671
           88071         3.70083
           88072         2.63189
           88073         2.65412
           88074         2.64739
           88075         2.61276
           88076         4.93377
           88077         3.36898
           88078         3.70531
           88079         3.71162
           88080         3.57302
           88081         3.70075
           88082         6.06165
           88083         4.79345
           88084         2.69743
           88085         2.77075
           88086         3.18594
           88087         8.01479
           88088         10.6931
           88089         10.0923
           88090         14.0072
           88091         13.0624
           88092         10.5175
           88093         5.88371
           88094         3.07060
           88095         3.05955
           88096         3.02625
           88097     777.924E-03
           88098     830.007E-03
           88099         8.93696
           88100     1.07123E-03
           88101     1.92322E-03
           88102         7.38286
           88103         8.53724
           88104         9.26989
           88105         9.39896
           88106         2.63120
           88107         2.66369
           88108         6.75563
           88109         2.65435
           88110         2.64676
           88111         6.01808
           88112         2.62798
           88113         2.63689
           88114         5.42297
           88115         2.68356
           88116         4.93766
           88117         5.91777
           88118         2.73691
           88119         4.63743
           88120         2.57601
           88121         5.81190
           88122         2.33410
           88123         1.98826
           88124         1.84939
           88125         3.51820
           88126         3.73843
           88127         2.55151
           88128         2.62278
           88129         2.68639
           88130         3.87672
           88131         3.44469
           88132         1.66886
           88133         6.34751
           88134         6.26664
           88135         4.05404
           88136         1.72500
           88137         1.79059
           88138         4.53504
           88139         1.53575
           88140         1.49487
           88141         2.27214
           88142         2.88624
           88143         5.04117
           88144         3.26897
           88145         3.12651
           88146         1.64204
           88147         2.69759
           88148         3.15102
           88149         2.71532
           88150         2.68470
           88151         2.68656
           88152         2.67785
           88153         2.68115
           88154         2.92701
           88155         2.37346
           88156         10.4341
           88157         2.74434
           88158         2.77973
           88159         2.82524
           88160         1.48182
           88161         1.39337
           88162         2.84528
           88163         2.73808
           88164         2.77003
           88165         2.53483
           88166         2.73991
           88167         2.72805
           88168         2.34231
           88169         2.73087
           88170         2.93655
           88171         2.75913
           88172         2.18062
           88173         2.65776
           88174         4.12337
           88175         4.06053
           88176         1.02200
           88177         1.29029
           88178         1.43943
           88179         3.96805
           88180         4.13076
           88181         4.20110
           88182     652.586E-03
           88183     697.444E-03
           88184     621.874E-03
           88185     872.662E-03
           88186         2.63083
           88187         9.09447
           88188         7.50374
           88189         2.62116
           88190         2.56540
           88191         6.43347
           88192         7.36906
           88193         4.57031
           88194         2.58583
           88195         2.58295
           88196         8.96701
           88197         5.62524
           88198         5.93105
           88199         3.78022
           88200         3.80229
           88201         4.02132
           88202         3.90923
           88203         4.01627
           88204         5.56331
           88205         5.73930
           88206         3.73139
           88207         5.71936
           88208         3.47346
           88209         3.54611
           88210         3.35020
           88211         3.14163
           88212         3.08928
           88213         5.26042
           88214         5.21365
           88215         5.11189
           88216         5.14581
           88217         3.00284
           88218         3.14204
           88219         5.99793
           88220         5.17822
           88221     822.972E-03
           88222         5.15237
           88223         1.22990
           88224         5.88131
           88225         5.03436
           88226         5.08363
           88227         6.32693
           88228         5.43914
           88229         5.72061
           88230         5.07376
           88231         5.75521
           88232         5.25934
           88233         3.07081
           88234         5.28801
           88235         5.29860
           88236         2.96116
           88237         5.84125
           88238         5.90142
           88239         5.00179
           88240         5.57685
           88241         5.53437
           88242         5.58032
           88243         5.81962
           88244         5.94699
           88245         5.70556
           88246         6.01399
           88247         6.16219
           88248         5.56974
           88249         5.77168
           88250         5.86072
           88251         5.81719
           88252         5.69388
           88253         14.6352
           88254         7.08120
           88255         7.52448
           88256         5.78492
           88257         7.36805
           88258         6.84874
           88259         7.02950
           88260         6.65321
           88261         6.43904
           88262         1.31552
           88263         1.26477
           88264         7.55601
           88265         6.78659
           88266         7.04434
           88267         6.16199
           88268         6.23681
           88269         6.26800
           88270         7.11725
           88271         2.26251
           88272         2.18393
           88273         2.90078
           88274         2.47045
           88275         2.34060
           88276         2.45391
           88277         2.51495
           88278         2.74607
           88279         2.62634
           88280         2.48139
           88281         2.55530
           88282         2.32857
           88283         2.20479
           88284         2.52362
           88285         2.52786
           88286         2.80532
           88287         2.51848
           88288         2.26053
           88289         2.50816
           88290         2.52162
           88291         2.54996
           88292         2.02574
           88293         2.56236
           88294         2.47819
           88295         5.41628
           88296         2.07792
           88297         2.56195
           88298         2.57130
           88299         2.55256
           88300         5.62693
           88301         5.68338
           88302         1.91525
           88303         1.87922
           88304         1.90545
           88305         1.87999
           88306         1.87902
           88307         1.84418
           88308         1.94786
           88309         1.98720
           88310         2.35696
           88311         2.41401
           88312         5.21781
           88313         2.22815
           88314         2.21656
           88315         2.67615
           88316         2.25727
           88317         2.30191
           88318         2.87830
           88319         3.42460
           88320         3.16293
           88321         2.25999
           88322     440.243E-03
           88323     395.637E-03
           88324     310.158E-03
           88325     195.096E-03
           88326     386.351E-03
           88327         3.70097
           88328         2.46473
           88329         2.57382
           88330         2.19283
           88331         2.30503
           88332         2.58594
           88333         2.52754
           88334         1.66744
           88335         1.64204
           88336         1.59473
           88337     661.180E-03
           88338         3.34444
           88339         3.42759
           88340         3.46215
           88341         3.44326
           88342         3.00762
           88343         3.27847
           88344         3.31530
           88345         3.26278
           88346         3.23340
           88347     547.632E-03
           88348     852.032E-03
           88349         3.20902
           88350         3.16481
           88351         3.18114
           88352     992.901E-03
           88353     589.952E-03
           88354         3.26590
           88355         2.91833
           88356         2.94213
           88357         3.19853
           88358         3.39866
           88359         5.83721
           88360         5.84789
           88361         3.07311
           88362         6.05452
           88363         5.80136
           88364         5.91144
           88365         5.65893
           88366         3.09536
           88367         3.24801
           88368         3.12282
           88369         5.69631
           88370         6.12361
           88371         6.27690
           88372         3.18465
           88373         3.18098
           88374         3.25296
           88375         3.19978
           88376         3.14490
           88377         3.22738
           88378         3.85944
           88379         3.58985
           88380         6.13384
           88381         6.15613
           88382         2.87505
           88383         2.92327
           88384         2.92156
           88385         8.90399
           88386         8.90677
           88387         2.98393
           88388         8.66645
           88389         8.75108
           88390         3.24723
           88391         3.31630
           88392         3.30014
           88393         3.12014
           88394         3.03861
           88395         8.54063
           88396         8.83274
           88397         8.90346
           88398         2.66967
           88399         2.68836
           88400         2.70597
           88401         2.39632
           88402         2.63423
           88403         2.36324
           88404         2.34480
           88405         2.34237
           88406         2.42520
           88407         2.44142
           88408         2.46813
           88409         2.31201
           88410         2.37009
           88411         2.81132
           88412         2.68219
           88413         2.36365
           88414         2.56089
           88415     6.17694E-03
           88416         2.75229
           88417         2.71816
           88418         2.85761
           88419         2.56215
           88420         2.61905
           88421         5.74769
           88422         5.56214
           88423         5.59059
           88424         2.49490
           88425         2.47049
           88426         5.54083
           88427         2.54960
           88428         2.54103
           88429         5.59138
           88430         2.61780
           88431         2.59503
           88432         2.46274
           88433         2.40061
           88434         2.42241
           88435         2.42129
           88436         2.42890
           88437         2.42421
           88438         2.59082
           88439         2.60324
           88440         5.32769
           88441         5.27310
           88442         2.56682
           88443         5.24924
           88444         7.64475
           88445         2.49279
           88446         2.29221
           88447         2.28834
           88448         2.18844
           88449         2.15358
           88450         9.08980
           88451         2.18882
           88452         2.12777
           88453         9.04861
           88454         2.37130
           88455         2.35561
           88456         2.23452
           88457         2.24103
           88458     80.8588E-03
           88459     102.747E-03
           88460     128.008E-03
           88461         2.41109
           88462         2.42069
           88463         2.51379
           88464     235.734E-03
           88465         2.26531
           88466         2.27870
           88467         2.28612
           88468         2.31665
           88469         2.30548
           88470         2.56088
           88471         2.59452
           88472         3.11669
           88473         2.75433
           88474         2.70411
           88475         2.50788
           88476         2.55607
           88477         2.57661
           88478         2.57494
           88479         2.53966
           88480         2.63667
           88481         2.68433
           88482         2.82019
           88483         2.62248
           88484         2.57660
           88485         2.82901
           88486         1.96225
           88487         1.94220
           88488         1.96590
           88489         1.99473
           88490         5.57001
           88491         5.50615
           88492         5.56945
           88493         2.87345
           88494         2.84310
           88495         3.16365
           88496         3.14487
           88497         5.54885
           88498         5.47537
           88499         5.49426
           88500         2.66850
           88501         2.65262
           88502         8.38254
           88503         6.98104
           88504         2.74668
           88505         2.97709
           88506         2.72424
           88507         2.51868
           88508         2.53922
           88509         7.95847
           88510         2.52340
           88511         2.77356
           88512         2.81178
           88513         2.35236
           88514         2.37188
           88515         2.40252
           88516         2.37729
           88517         2.28315
           88518         2.30822
           88519         2.30668
           88520         2.18967
           88521         2.21099
           88522         2.20917
           88523         2.43879
           88524         2.52235
           88525         2.94467
           88526         2.90849
           88527         2.73304
           88528         2.74741
           88529         2.75522
           88530         2.75900
           88531         2.60191
           88532         2.77806
           88533         2.64038
           88534         2.64476
           88535         2.64783
           88536         2.31279
           88537         2.56559
           88538         2.52890
           88539         2.51525
           88540         2.50743
           88541         2.54341
           88542         2.50098
           88543         2.53362
           88544         2.54307
           88545         2.57208
           88546         2.52130
           88547         3.01946
           88548         3.02426
           88549         2.59473
           88550         2.51110
           88551         2.51573
           88552         2.52788
           88553         2.56949
           88554         2.55571
           88555         2.54609
           88556         5.50759
           88557         5.54918
           88558         2.16753
           88559         2.47454
           88560         2.49591
           88561         2.50733
           88562         4.28994
           88563         4.11519
           88564         2.37834
           88565         2.35441
           88566         4.45934
           88567         2.54230
           88568         8.03220
           88569         7.89218
           88570         7.78218
           88571         8.10062
           88572         2.61947
           88573     918.482E-03
           88574     764.326E-03
           88575     639.189E-03
           88576         2.62821
           88577         2.61180
           88578     669.552E-03
           88579     562.900E-03
           88580         2.59392
           88581     535.836E-03
           88582         2.54047
           88583         2.53109
           88584         2.53873
           88585         2.53225
           88586         2.54050
           88587         2.53315
           88588         3.49031
           88589         2.54146
           88590         2.53593
           88591         2.54559
           88592         2.54832
           88593         3.20026
           88594         3.23119
           88595         2.71541
           88596         2.74392
           88597         5.78611
           88598         2.54979
           88599         2.54776
           88600         2.53984
           88601         2.53747
           88602         4.89828
           88603         4.31283
           88604         2.60230
           88605         2.61134
           88606         2.60961
           88607         2.60726
           88608         2.61486
           88609         7.97783
           88610         2.60674
           88611         2.63747
           88612         2.62419
           88613         2.59298
           88614         2.60853
           88615         2.61785
           88616         2.62329
           88617         2.66088
           88618         2.65634
           88619         2.76135
           88620         2.61247
           88621         2.59206
           88622         2.59136
           88623         2.91017
           88624         2.61694
           88625         2.67709
           88626         2.60729
           88627         2.79264
           88628         2.62277
           88629         2.64759
           88630         2.68007
           88631         2.66255
           88632         2.84460
           88633         2.81212
           88634         2.56056
           88635         2.58596
           88636         2.83631
           88637         3.00040
           88638         2.74516
           88639         2.66803
           88640         2.66662
           88641         2.64358
           88642         2.99735
           88643         2.57932
           88644         2.70549
           88645         2.69922
           88646         2.72467
           88647         2.88409
           88648         2.91311
           88649         2.83393
           88650         2.79222
           88651         2.74088
           88652         2.93861
           88653         2.84727
           88654         3.18835
           88655         2.89045
           88656         2.86107
           88657         2.29481
           88658         1.90995
           88659         1.94716
           88660         2.91996
           88661         3.42686
           88662         3.08689
           88663         3.00606
           88664         2.60955
           88665         5.97516
           88666         5.92576
           88667         2.63403
           88668         2.62972
           88669         6.18343
           88670         6.27715
           88671         2.67262
           88672         2.65078
           88673         5.98810
           88674         5.81047
           88675         4.62150
           88676         2.62519
           88677         2.60680
           88678         2.60982
           88679         2.60336
           88680         2.38356
           88681         2.60237
           88682         2.63572
           88683         2.39969
           88684         2.37213
           88685         2.31072
           88686         2.62228
           88687         2.63435
           88688         2.35654
           88689         2.31971
           88690         2.65212
           88691         2.64578
           88692         5.89952
           88693         5.61413
           88694         2.51993
           88695         2.59148
           88696         5.33189
           88697         2.49961
           88698         2.69042
           88699         2.71345
           88700         2.75384
           88701         2.80242
           88702         2.79112
           88703         2.57158
           88704         2.53735
           88705         2.52203
           88706         2.52950
           88707         2.69857
           88708         2.58559
           88709         2.57517
           88710         2.53709
           88711         2.52238
           88712         2.42432
           88713         2.49715
           88714         2.55217
           88715         2.54379
           88716         5.13044
           88717         2.66038
           88718         2.62007
           88719         2.35859
           88720         2.33524
           88721         2.76191
           88722         2.79072
           88723         2.55801
           88724         4.87838
           88725         2.71426
           88726         2.72835
           88727         5.59964
           88728         4.95243
           88729         5.33798
           88730         5.42469
           88731         5.13573
           88732         5.01066
           88733         4.72839
           88734         4.66456
           88735         4.70915
           88736         2.82101
           88737         2.86086
           88738         2.85224
           88739         2.68233
           88740         2.65030
           88741         2.62529
           88742         2.59340
           88743         12.4149
           88744         2.69714
           88745         9.73972
           88746         4.25637
           88747         4.23654
           88748         4.49906
           88749         4.13553
           88750         4.16640
           88751         2.53010
           88752         2.54280
           88753         2.37519
           88754         2.52115
           88755         2.25380
           88756         2.40988
           88757         2.47868
           88758         2.49533
           88759         2.48072
           88760         2.37532
           88761         2.36540
           88762         2.43011
           88763         2.46366
           88764         2.40782
           88765         5.73657
           88766         2.59136
           88767         5.63040
           88768         2.52792
           88769         2.57729
           88770         5.77975
           88771         2.53702
           88772         2.51912
           88773         2.50434
           88774         5.70065
           88775         2.57983
           88776         2.52694
           88777         2.53387
           88778         2.47790
           88779         2.50800
           88780         2.60991
           88781         2.53926
           88782         2.56450
           88783         2.57796
           88784         2.53561
           88785         2.56238
           88786         8.70888
           88787         2.50289
           88788         2.56240
           88789         8.00824
           88790         7.18753
           88791         2.68377
           88792         8.54158
           88793         2.89846
           88794         2.99366
           88795     979.176E-03
           88796     534.531E-03
           88797         3.12194
           88798         3.08769
           88799         3.10773
           88800         2.94642
           88801         2.70925
           88802         2.99028
           88803         9.66390
           88804         10.4206
           88805         9.85138
           88806         2.84478
           88807         5.86868
           88808         2.82667
           88809         5.45698
           88810         5.63566
           88811         5.49472
           88812         5.89406
           88813         5.76538
           88814         5.75645
           88815         2.93488
           88816         5.55877
           88817         3.03231
           88818         3.34290
           88819         2.81555
           88820         2.76291
           88821         3.02682
           88822         2.83113
           88823         2.94304
           88824         2.87009
           88825         2.81138
           88826         2.73344
           88827         2.75191
           88828         2.78855
           88829         2.69088
           88830         2.70191
           88831         4.18007
           88832         4.16506
           88833         4.26857
           88834         3.07791
           88835         4.18114
           88836         4.20290
           88837         4.09357
           88838         2.65473
           88839         2.63033
           88840         2.63136
           88841         2.61168
           88842         2.62547
           88843         3.86493
           88844         2.62030
           88845         2.62383
           88846         2.54777
           88847         2.62972
           88848         2.62101
           88849         2.59254
           88850         2.58944
           88851         2.59986
           88852         2.58391
           88853         2.62363
           88854         2.60213
           88855         2.62306
           88856         1.25398
           88857         1.36448
           88858         1.28126
           88859         1.43098
           88860         1.35661
           88861         1.37352
           88862         1.50676
           88863         2.52225
           88864         5.77111
           88865         5.60118
           88866         5.55823
           88867         1.17298
           88868         1.18062
           88869         1.11278
           88870         2.50097
           88871         2.51003
           88872         1.13485
           88873         2.61512
           88874         2.61382
           88875         2.64843
           88876         2.61998
           88877         2.62625
           88878         2.45312
           88879         2.47124
           88880         2.63458
           88881         2.49273
           88882         2.44303
           88883         2.42832
           88884         2.42425
           88885         2.45964
           88886         2.40433
           88887         2.39803
           88888         2.45791
           88889         2.44593
           88890         2.43673
           88891         2.45609
           88892         2.28284
           88893         2.58540
           88894         2.40736
           88895         2.50400
           88896         5.60878
           88897         2.40385
           88898         5.80921
           88899         2.63973
           88900         2.64631
           88901         2.65019
           88902         2.64678
           88903         2.64530
           88904         2.65200
           88905         2.65024
           88906         4.44823
           88907         2.57240
           88908         2.36139
           88909         2.67447
           88910         2.61976
           88911         5.41145
           88912         2.60598
           88913         2.60426
           88914         5.00252
           88915         5.11119
           88916         5.08467
           88917         5.03564
           88918         5.06832
           88919         2.61444
           88920         5.00709
           88921         2.66789
           88922         2.66354
           88923         2.65929
           88924         5.60090
           88925         2.66931
           88926         2.66698
           88927         5.51821
           88928         2.67013
           88929         2.61176
           88930         2.67955
           88931         2.66971
           88932         2.59959
           88933         2.61187
           88934         2.61622
           88935         2.62498
           88936         2.63980
           88937         2.78773
           88938         2.66715
           88939         2.68575
           88940         2.66698
           88941         2.75535
           88942         2.77971
           88943         2.66779
           88944         2.67574
           88945         2.63750
           88946         2.65870
           88947         2.65240
           88948         2.54799
           88949         2.54161
           88950         2.69149
           88951         2.67497
           88952         2.55029
           88953         2.66904
           88954         2.68968
           88955         2.68514
           88956         2.64076
           88957         2.60758
           88958         2.60946
           88959         2.72029
           88960         2.74527
           88961         2.96446
           88962         2.70937
           88963         2.68271
           88964         2.67986
           88965         2.99401
           88966         2.78500
           88967         2.96346
           88968         2.94501
           88969         2.23003
           88970         2.25576
           88971         2.25437
           88972         2.79211
           88973         2.58889
           88974         2.60132
           88975         2.65872
           88976         3.51494
           88977         2.71742
           88978         2.71125
           88979         2.63951
           88980         3.30249
           88981         3.05003
           88982         2.97956
           88983         5.36367
           88984         3.17043
           88985         3.12338
           88986         2.61058
           88987         2.69866
           88988         2.70348
           88989         2.70722
           88990         2.69875
           88991         2.64155
           88992         2.89239
           88993         2.60031
           88994         2.61403
           88995         2.62033
           88996         3.12305
           88997         2.97775
           88998         2.67994
           88999         3.64031
           89000         5.78421
           89001         5.78658
           89002         3.59244
           89003         4.59343
           89004         3.48833
           89005         3.05493
           89006         3.53205
           89007         3.38699
           89008         4.77151
           89009         4.79832
           89010         3.10553
           89011         2.99219
           89012         1.19278
           89013         2.68612
           89014         2.65966
           89015         2.67029
           89016         2.69569
           89017         2.58953
           89018         2.62403
           89019         2.58985
           89020         2.63328
           89021         2.60199
           89022         2.67336
           89023         2.32561
           89024         2.76518
           89025         2.76045
           89026         2.60013
           89027         2.76397
           89028         2.75169
           89029         5.66996
           89030         5.68067
           89031         5.71980
           89032         5.73152
           89033         2.59377
           89034         5.10896
           89035     87.4587E-03
           89036     48.9628E-03
           89037     103.503E-03
           89038         2.65536
           89039     504.324E-03
           89040         1.65115
           89041         1.46693
           89042         2.95359
           89043         2.92451
           89044         2.90734
           89045         2.93629
           89046         3.08772
           89047         2.89141
           89048         2.43903
           89049         2.44575
           89050         2.10458
           89051         2.61275
           89052         2.80754
           89053         2.61116
           89054         3.65770
           89055         2.61326
           89056         4.80253
           89057         2.63203
           89058         2.63425
           89059         2.64144
           89060         2.61841
           89061         5.67451
           89062         5.73341
           89063         5.77799
           89064         5.98675
           89065         2.73228
           89066         2.74798
           89067         5.91324
           89068         5.93090
           89069         5.86245
           89070         6.68356
           89071         6.75884
           89072         6.54366
           89073         2.63185
           89074         3.29781
           89075         3.34445
           89076         7.37818
           89077         3.26354
           89078         7.05104
           89079         3.32030
           89080         7.98679
           89081         7.32837
           89082         7.97122
           89083         8.07686
           89084         2.59258
           89085         2.59035
           89086         6.65471
           89087         6.84174
           89088         7.46902
           89089         5.84632
           89090         2.91801
           89091         2.73533
           89092         8.18230
           89093         8.18168
           89094         5.79199
           89095         2.42565
           89096         2.25894
           89097         4.84421
           89098         4.63092
           89099         5.48295
           89100         5.56971
           89101         2.91339
           89102         2.93384
           89103         5.86547
           89104         2.91574
           89105         5.19814
           89106         5.28861
           89107         2.90355
           89108         2.87345
           89109         5.19309
           89110         2.67040
           89111         2.67728
           89112         2.67866
           89113         6.69903
           89114         6.69622
           89115         6.59927
           89116         6.58593
           89117         5.66229
           89118         2.73577
           89119         2.72980
           89120         6.20974
           89121         5.69212
           89122         2.98015
           89123         3.01166
           89124         2.66147
           89125         4.93385
           89126         3.06272
           89127         3.02801
           89128         3.10860
           89129         6.39743
           89130         6.49481
           89131         2.44028
           89132         5.81900
           89133         2.35980
           89134         2.35254
           89135         4.81756
           89136         2.65606
           89137         2.64413
           89138         2.71591
           89139         2.99158
           89140         2.92427
           89141         2.96677
           89142         3.00672
           89143         3.64906
           89144         2.74456
           89145         2.74915
           89146         2.70210
           89147         2.69628
           89148         3.37712
           89149         3.29442
           89150         3.66300
           89151         3.56339
           89152         3.57355
           89153         2.70094
           89154         2.69815
           89155         3.10007
           89156         2.70709
           89157         3.32188
           89158         3.42416
           89159         2.69247
           89160         2.68680
           89161         2.15759
           89162         3.08859
           89163         2.46684
           89164         2.20714
           89165         2.20930
           89166         2.87614
           89167         2.83441
           89168         3.02454
           89169         2.94976
           89170         2.84483
           89171         2.84322
           89172         2.92805
           89173         3.06424
           89174         2.99374
           89175         2.89912
           89176         2.89011
           89177         2.89091
           89178         2.44487
           89179         2.97450
           89180         2.25816
           89181         2.23583
           89182         2.23583
           89183         2.53292
           89184         2.57070
           89185         2.23198
           89186         2.70190
           89187         2.20592
           89188         4.87913
           89189         4.96953
           89190         2.92670
           89191         3.27763
           89192         5.66755
           89193         5.66354
           89194         2.59380
           89195         2.57453
           89196         2.55554
           89197         2.44295
           89198         3.10128
           89199         3.32980
           89200         2.87801
           89201         2.93693
           89202         2.44949
           89203         2.25508
           89204         2.58303
           89205         6.02588
           89206         2.21921
           89207         3.42044
           89208         3.20824
           89209         1.48073
           89210         2.36679
           89211         1.39083
           89212         1.42954
           89213         1.97673
           89214     266.824E-03
           89215         2.19846
           89216         2.20110
           89217     746.639E-03
           89218         1.65447
           89219         1.67978
           89220         2.51395
           89221         2.53693
           89222         1.50462
           89223         1.53182
           89224         2.34684
           89225         3.89091
           89226         4.12387
           89227         4.80129
           89228         4.80000
           89229         4.70252
           89230         1.91831
           89231     21.5264E-03
           89232         5.65273
           89233         5.67973
           89234         5.64828
           89235         5.72086
           89236         5.73602
           89237         5.77860
           89238         2.51432
           89239     20.7441E-03
           89240     32.9293E-03
           89241     264.959E-03
           89242     182.996E-03
           89243     208.978E-03
           89244         2.45207
           89245     458.760E-03
           89246         2.50656
           89247         2.78168
           89248     498.313E-03
           89249         5.89448
           89250         4.36684
           89251         4.28337
           89252         2.92621
           89253         4.61860
           89254         2.71245
           89255         4.04623
           89256         5.83735
           89257         2.66579
           89258         2.70882
           89259         2.24020
           89260         2.20170
           89261         2.23980
           89262         6.05883
           89263         6.55025
           89264         6.57604
           89265         4.57192
           89266         6.13590
           89267         5.96408
           89268         5.52797
           89269         5.45976
           89270         5.37429
           89271         6.38469
           89272         6.19710
           89273         6.14104
           89274         3.33651
           89275         6.26735
           89276         6.04031
           89277         5.20077
           89278         5.88022
           89279         2.53488
           89280         2.59478
           89281         2.56880
           89282         2.57775
           89283         6.30277
           89284         6.47505
           89285         2.62389
           89286         2.67009
           89287         4.69889
           89288         4.72060
           89289         4.31207
           89290         4.42962
           89291         4.31637
           89292         4.28319
           89293         4.17859
           89294         4.65407
           89295         4.66744
           89296         4.59086
           89297         4.68705
           89298         2.95646
           89299         2.94395
           89300         4.45014
           89301         3.18216
           89302         3.37760
           89303         3.04786
           89304         3.98867
           89305         4.46956
           89306         4.66660
           89307         4.66720
           89308         4.87167
           89309         4.75958
           89310         2.85870
           89311         2.87061
           89312         4.75102
           89313         4.87299
           89314         4.83055
           89315         5.41810
           89316         5.50282
           89317         5.32318
           89318         4.27922
           89319         4.33772
           89320         5.37383
           89321         3.50146
           89322         3.44042
           89323         3.21915
           89324         5.50521
           89325         3.10994
           89326         3.13851
           89327         2.63577
           89328         2.40809
           89329         2.40343
           89330         5.01605
           89331         2.65902
           89332         5.17645
           89333         2.63942
           89334         2.51854
           89335         2.54414
           89336         2.53135
           89337         2.58611
           89338         2.48980
           89339         4.44295
           89340         4.15001
           89341         2.63428
           89342         2.64150
           89343         2.52100
           89344         2.55046
           89345         2.54110
           89346         7.42749
           89347         7.08603
           89348         5.92788
           89349         2.60754
           89350         2.55968
           89351         2.23552
           89352         2.31078
           89353         2.48606
           89354         2.86328
           89355         5.37286
           89356         5.48363
           89357         2.73070
           89358         2.67807
           89359         2.74093
           89360         5.11312
           89361         2.54800
           89362         2.51813
           89363         2.38913
           89364         2.48631
           89365         2.49388
           89366         2.64055
           89367         2.43307
           89368         2.60268
           89369         2.60770
           89370         2.59771
           89371         2.52216
           89372         2.56628
           89373         6.12720
           89374         3.31633
           89375         3.37179
           89376         2.14899
           89377         2.09779
           89378         2.05374
           89379         1.83348
           89380         2.89128
           89381         1.53707
           89382         1.67076
           89383         2.59194
           89384         1.64073
           89385         2.75059
           89386         1.13878
           89387         1.54936
           89388         1.15022
           89389         1.08880
           89390         2.66456
           89391         1.08946
           89392         1.14386
           89393         3.26132
           89394         1.21092
           89395         6.25518
           89396         1.02951
           89397         1.11343
           89398     885.963E-03
           89399     854.709E-03
           89400     972.062E-03
           89401     909.304E-03
           89402         3.54918
           89403         3.59577
           89404     581.558E-03
           89405         3.48199
           89406     581.804E-03
           89407     578.100E-03
           89408     339.455E-03
           89409     359.411E-03
           89410         3.25584
           89411     203.979E-03
           89412     210.524E-03
           89413         6.89358
           89414         4.04323
           89415         3.94038
           89416     134.491E-03
           89417         2.26729
           89418         2.20560
           89419     63.8337E-03
           89420     34.0017E-03
           89421         5.39988
           89422         2.69767
           89423     40.1469E-03
           89424     72.9011E-03
           89425     52.6764E-03
           89426     36.2563E-03
           89427     22.7735E-03
           89428         4.63527
           89429         4.98207
           89430         4.93620
           89431     961.138E-03
           89432         1.30401
           89433         1.66407
           89434         1.80667
           89435         1.76966
           89436         1.82224
           89437         1.66349
           89438         1.78936
           89439         5.68005
           89440         6.16213
           89441         6.13902
           89442         2.66566
           89443         4.10894
           89444         1.20890
           89445         2.07563
           89446         2.89671
           89447         3.41805
           89448         3.26680
           89449         3.62743
           89450         4.46824
           89451         5.18451
           89452         6.35916
           89453         4.87152
           89454         4.70048
           89455         4.76300
           89456         5.05448
           89457         4.68267
           89458         4.77570
           89459         5.67786
           89460         5.60791
           89461         4.77761
           89462         5.09579
           89463         5.36560
           89464         5.04484
           89465         1.79145
           89466         3.87122
           89467         5.54622
           89468         5.58362
           89469         5.48783
           89470         6.04577
           89471         6.07244
           89472         6.06472
           89473         6.11581
           89474         5.75672
           89475         1.04929
           89476         5.74773
           89477     965.935E-03
           89478     683.855E-03
           89479     654.112E-03
           89480         3.21409
           89481         3.20274
           89482         3.28015
           89483         3.19154
           89484         1.56804
           89485         1.48595
           89486         3.80275
           89487         3.68199
           89488         3.82610
           89489         3.70379
           89490         3.89127
           89491         2.99243
           89492         5.51545
           89493         5.65987
           89494         5.61610
           89495         5.97206
           89496         5.88830
           89497         2.04912
           89498         2.09409
           89499         3.38531
           89500         3.44926
           89501         3.44507
           89502         3.30569
           89503         3.64736
           89504         4.25938
           89505         5.47224
           89506         5.52001
           89507         5.73251
           89508         5.37595
           89509         4.23082
           89510         4.67465
           89511         5.03196
           89512         5.06417
           89513         4.99890
           89514         2.72706
           89515         2.66394
           89516         1.95014
           89517         5.07115
           89518         5.02017
           89519         4.62692
           89520         4.14103
           89521         4.10505
           89522         4.41146
           89523         4.33274
           89524         4.21913
           89525         4.01196
           89526         4.13312
           89527         3.77379
           89528         5.72346
           89529         3.27638
           89530         3.23682
           89531         3.27566
           89532         3.32375
           89533         3.45070
           89534         3.14812
           89535         3.19682
           89536         3.20598
           89537         3.40552
           89538         3.51201
           89539         3.49778
           89540         2.81682
           89541         2.83735
           89542         5.98614
           89543         5.80129
           89544         5.82880
           89545         6.05660
           89546         2.66007
           89547         2.51455
           89548         1.88655
           89549         2.90187
           89550         2.60311
           89551         2.60972
           89552         2.73566
           89553         2.77120
           89554         2.74549
           89555         3.14431
           89556         2.99058
           89557         2.79477
           89558         2.77837
           89559         2.85457
           89560         2.64769
           89561         4.26773
           89562         2.57496
           89563         2.75745
           89564         2.61483
           89565         2.62030
           89566         2.53067
           89567         5.95749
           89568         2.56746
           89569         2.43906
           89570         2.63408
           89571         2.71334
           89572         2.73319
           89573         2.61815
           89574         2.63250
           89575         2.55506
           89576         2.60937
           89577         2.63465
           89578         2.63513
           89579         2.63690
           89580         5.46410
           89581         5.45754
           89582         5.98060
           89583         2.51847
           89584         6.33582
           89585         2.60828
           89586         2.60236
           89587         5.96346
           89588         2.13785
           89589         2.17062
           89590         3.21107
           89591         2.10791
           89592         2.13893
           89593         2.00434
           89594         5.62708
           89595         1.89062
           89596         1.90898
           89597         1.73511
           89598         1.53515
           89599         6.26220
           89600         1.37443
           89601         1.38224
           89602         1.26500
           89603         1.31965
           89604     647.804E-03
           89605         1.51001
           89606         5.94148
           89607         6.12525
           89608         5.95055
           89609         3.41396
           89610     916.028E-03
           89611         1.01377
           89612     985.859E-03
           89613         3.01640
           89614         3.27284
           89615         3.61784
           89616         2.19878
           89617         5.92629
           89618         5.94658
           89619         1.60704
           89620         1.12695
           89621         2.02006
           89622     860.190E-03
           89623         1.58042
           89624     689.956E-03
           89625     631.781E-03
           89626         2.49886
           89627     742.476E-03
           89628         1.41244
           89629         1.30982
           89630         3.36575
           89631     572.960E-03
           89632     888.608E-03
           89633         3.28998
           89634     400.350E-03
           89635         3.64179
           89636         3.67396
           89637     288.766E-03
           89638     39.7263E-03
           89639         1.40715
           89640         1.29868
           89641     828.412E-03
           89642         2.04617
           89643         5.31881
           89644         5.16167
           89645         3.92569
           89646         3.94068
           89647         3.91416
           89648         1.88198
           89649         1.97763
           89650         5.61642
           89651         5.45555
           89652         5.41237
           89653         2.56786
           89654         1.74854
           89655         5.84560
           89656         3.89051
           89657         4.00315
           89658         3.89815
           89659         1.70420
           89660         1.69253
           89661         3.71314
           89662         2.53957
           89663         2.83497
           89664         2.63409
           89665         3.55515
           89666         2.78227
           89667         2.60676
           89668         4.06842
           89669         4.17100
           89670         4.22906
           89671         1.53399
           89672     586.250E-03
           89673     567.600E-03
           89674     550.235E-03
           89675     517.527E-03
           89676         5.14614
           89677         1.07263
           89678         3.41281
           89679         5.27160
           89680         3.44272
           89681         6.06530
           89682         5.54313
           89683         5.48989
           89684         5.22692
           89685         5.23013
           89686         4.62848
           89687         3.63234
           89688         5.83085
           89689         5.85876
           89690         5.94310
           89691         1.80466
           89692         5.92853
           89693         5.90765
           89694         5.88449
           89695         6.13049
           89696         2.02060
           89697         4.98839
           89698         5.15152
           89699         4.66485
           89700         6.38927
           89701         6.45820
           89702         3.66346
           89703         3.64062
           89704         6.64185
           89705         6.46045
           89706         6.81387
           89707         6.16459
           89708         6.01630
           89709         5.93521
           89710         6.40842
           89711         6.29736
           89712         6.33306
           89713         6.18126
           89714         5.77276
           89715         6.05822
           89716         1.68754
           89717         5.78297
           89718         5.79121
           89719         3.36819
           89720         3.39100
           89721         5.96756
           89722         5.83887
           89723         5.77191
           89724         5.76199
           89725         5.80829
           89726         5.77546
           89727         6.25114
           89728         4.96271
           89729         4.93661
           89730         5.42585
           89731         2.35883
           89732         2.32417
           89733         5.28259
           89734         5.35459
           89735         5.42307
           89736         5.38643
           89737         4.16310
           89738         6.56362
           89739         5.85583
           89740         5.44792
           89741         5.56260
           89742         5.49845
           89743         5.63670
           89744         5.67422
           89745         5.66125
           89746         5.71064
           89747         2.10080
           89748         5.06758
           89749         4.71892
           89750         5.55160
           89751         2.11758
           89752         2.05584
           89753         5.22490
           89754         5.45037
           89755         5.43145
           89756         5.56361
           89757         5.53645
           89758         1.91256
           89759         5.18865
           89760         2.71870
           89761         4.96858
           89762         6.05044
           89763         6.07848
           89764         4.93963
           89765         4.97847
           89766         5.35412
           89767         4.57708
           89768         4.52154
           89769         4.65363
           89770         4.63766
           89771         4.77416
           89772         4.88308
           89773         3.66430
           89774         4.31450
           89775         4.02680
           89776         4.88112
           89777         4.38978
           89778         5.57617
           89779         5.63969
           89780         3.77394
           89781     602.071E-03
           89782         4.21448
           89783     635.272E-03
           89784     560.840E-03
           89785     511.810E-03
           89786     467.510E-03
           89787         4.00293
           89788         4.34035
           89789         4.25828
           89790         4.44391
           89791         3.65492
           89792         3.58567
           89793         4.70242
           89794         3.85991
           89795         3.92934
           89796         3.25836
           89797         3.59831
           89798         3.78455
           89799         3.89025
           89800         3.66609
           89801         3.29061
           89802         3.71670
           89803         3.64522
           89804         3.60267
           89805         3.34453
           89806         3.26507
           89807         3.17419
           89808         3.95374
           89809         3.51799
           89810         3.37618
           89811         5.13365
           89812         3.24271
           89813         3.29608
           89814         2.94063
           89815         2.99198
           89816         2.84483
           89817         6.06293
           89818         1.97057
           89819         6.41081
           89820         5.26331
           89821         3.78886
           89822         3.81800
           89823         5.19325
           89824         5.03224
           89825         3.50956
           89826         3.31031
           89827         3.33414
           89828         3.46559
           89829         5.76963
           89830         5.78096
           89831         5.93449
           89832         3.33197
           89833         2.90650
           89834         5.58042
           89835         2.99129
           89836         3.04414
           89837         3.05763
           89838         3.51074
           89839         3.59655
           89840     751.975E-03
           89841     671.307E-03
           89842         2.47626
           89843         1.86344
           89844         1.70601
           89845         1.94809
           89846         3.58483
           89847         3.63074
           89848         3.28736
           89849         3.24438
           89850         3.34681
           89851         3.11599
           89852         3.15117
           89853         5.78214
           89854         3.65984
           89855         3.72041
           89856         5.89207
           89857         3.52756
           89858         3.44508
           89859         6.56149
           89860         3.11693
           89861         4.40147
           89862         3.47797
           89863         5.79500
           89864         1.39733
           89865         1.32280
           89866         3.33045
           89867         3.01360
           89868         1.28735
           89869         3.82684
           89870         3.71371
           89871         2.94278
           89872         2.95606
           89873         4.42813
           89874         4.42377
           89875         4.07768
           89876         2.89271
           89877         2.88229
           89878         2.69879
           89879         3.26290
           89880         3.78290
           89881         3.39406
           89882         3.15946
           89883         3.51254
           89884         2.91848
           89885         2.84969
           89886         2.86480
           89887         2.87278
           89888         2.82743
           89889         2.79891
           89890         2.02702
           89891         2.62223
           89892         2.84751
           89893         2.58520
           89894         2.75314
           89895         2.97329
           89896         2.79987
           89897         2.70671
           89898     352.429E-03
           89899         2.69211
           89900         2.69409
           89901         2.72512
           89902         2.67846
           89903         1.36279
           89904         2.70205
           89905         5.17117
           89906         5.05626
           89907         5.15845
           89908         2.68918
           89909         2.85368
           89910         2.82014
           89911         2.76781
           89912         2.79349
           89913         2.38047
           89914         2.71488
           89915         2.71912
           89916         2.82896
           89917         3.04416
           89918         4.55951
           89919         2.71674
           89920         2.76504
           89921         2.71713
           89922         1.74016
           89923         2.79254
           89924         5.84511
           89925         5.66281
           89926         2.79817
           89927         2.93529
           89928         2.76662
           89929         1.68457
           89930         2.99901
           89931         3.06478
           89932         3.02237
           89933         1.74773
           89934         4.59071
           89935         2.77310
           89936         6.10350
           89937         2.61511
           89938         2.67361
           89939         2.65857
           89940         2.58076
           89941         2.61629
           89942         2.66889
           89943         1.79082
           89944         1.79663
           89945         1.73775
           89946         2.74111
           89947         6.08635
           89948         2.62595
           89949         2.64139
           89950         1.76318
           89951         2.65101
           89952         2.65779
           89953         2.64155
           89954         1.32238
           89955         2.62768
           89956         1.56743
           89957         2.65890
           89958         5.55678
           89959         2.58766
           89960         2.65601
           89961         2.64946
           89962         2.66036
           89963         2.64237
           89964         2.66063
           89965         2.61547
           89966         3.88328
           89967         3.42654
           89968         3.44109
           89969         2.59283
           89970     847.143E-03
           89971         7.54217
           89972         7.02781
           89973         6.78347
           89974         6.44350
           89975         2.05904
           89976         1.99698
           89977         4.79694
           89978         4.34969
           89979         4.27364
           89980         4.41685
           89981         2.24989
           89982         5.21254
           89983         2.31604
           89984         5.37921
           89985         2.09408
           89986         2.16222
           89987         2.21348
           89988         1.69961
           89989         2.03248
           89990         2.23436
           89991         1.82840
           89992         1.82701
           89993         5.41710
           89994         2.61193
           89995         5.45032
           89996         2.12304
           89997         2.11684
           89998         2.37577
           89999         2.59367
           90000         3.02571
           90001         2.04671
           90002         2.75900
           90003         2.40004
           90004         1.88760
           90005         2.39763
           90006         1.50365
           90007         1.50998
           90008         1.81399
           90009         2.39761
           90010         5.64277
           90011         2.12279
           90012     376.480E-03
           90013     926.780E-03
           90014         5.71653
           90015         1.96531
           90016         5.65951
           90017         5.64169
           90018         5.62389
           90019         5.93227
           90020         5.97011
           90021         5.95119
           90022         2.04591
           90023         2.14240
           90024         6.06147
           90025         2.12997
           90026         6.07506
           90027         5.36762
           90028         1.69048
           90029         5.57633
           90030         5.55845
           90031     551.284E-03
           90032         2.38941
           90033         1.88061
           90034         1.28415
           90035         1.65130
           90036         2.48486
           90037         2.46828
           90038         1.18470
           90039     612.787E-03
           90040         1.35935
           90041         1.35674
           90042         1.32563
           90043     218.052E-03
           90044     220.715E-03
           90045     261.905E-03
           90046         1.12942
           90047         1.42895
           90048         1.60083
           90049         1.18745
           90050     697.414E-03
           90051         1.66128
           90052         1.68491
           90053     754.577E-03
           90054         1.48947
           90055     448.406E-03
           90056     536.810E-03
           90057     649.400E-03
           90058         1.01525
           90059         4.49996
           90060     388.051E-03
           90061     886.961E-03
           90062     940.848E-03
           90063     768.104E-03
           90064         4.32781
           90065     738.417E-03
           90066     966.557E-03
           90067     186.118E-03
           90068     129.603E-03
           90069     556.944E-03
           90070     637.687E-03
           90071         5.93110
           90072     530.325E-03
           90073     267.839E-03
           90074         5.93931
           90075     340.540E-03
           90076     367.621E-03
           90077     651.261E-03
           90078     563.674E-03
           90079     637.950E-03
           90080     340.392E-03
           90081         5.76021
           90082         5.22061
           90083     908.291E-03
           90084     899.717E-03
           90085     590.966E-03
           90086     386.027E-03
           90087         2.62400
           90088     948.234E-03
           90089     702.391E-03
           90090         2.47931
           90091         2.38757
           90092         2.53405
           90093         1.29915
           90094         6.64502
           90095         6.29573
           90096         6.34420
           90097         6.51451
           90098     801.096E-03
           90099         6.23543
           90100         6.12957
           90101         1.35946
           90102     109.477E-03
           90103     913.412E-03
           90104         2.55055
           90105     914.519E-03
           90106         2.68416
           90107         2.78990
           90108         2.49798
           90109         1.27395
           90110         1.38540
           90111         1.78669
           90112         2.49758
           90113         1.30665
           90114     932.914E-03
           90115         5.69015
           90116         5.66066
           90117         1.80507
           90118         1.47841
           90119     948.012E-03
           90120         1.62622
           90121     881.792E-03
           90122     911.914E-03
           90123     281.831E-03
           90124     189.919E-03
           90125         6.25152
           90126         1.08107
           90127     900.622E-03
           90128     736.513E-03
           90129         1.12407
           90130         1.18741
           90131         1.05268
           90132         1.48584
           90133         1.44367
           90134         1.63819
           90135         1.92719
           90136     900.727E-03
           90137         1.50503
           90138         1.82031
           90139         1.83838
           90140         1.85717
           90141         2.01400
           90142         1.82653
           90143         1.81522
           90144         2.00185
           90145         1.72976
           90146         2.00078
           90147         2.07712
           90148         2.01971
           90149         1.96779
           90150         2.66903
           90151         2.68557
           90152         2.64469
           90153         2.82559
           90154         2.99845
           90155         3.67471
           90156         3.41500
           90157         4.37575
           90158         5.12224
           90159         3.71668
           90160         3.62751
           90161         3.67377
           90162         3.78261
           90163         4.68011
           90164         4.45614
           90165         5.04072
           90166         5.79901
           90167         5.19296
           90168         5.28734
           90169         5.34336
           90170         6.02898
           90171         5.84823
           90172         6.24570
           90173         6.67181
           90174         4.79861
           90175         1.83213
           90176         1.78558
           90177         1.75415
           90178         4.81034
           90179         3.02242
           90180     321.220E-03
           90181         2.87483
           90182         2.62911
           90183         2.30395
           90184         1.04875
           90185     266.728E-03
           90186     285.776E-03
           90187     240.319E-03
           90188         2.43982
           90189     796.588E-03
           90190     368.654E-03
           90191     357.547E-03
           90192         6.40592
           90193         1.24352
           90194         1.11895
           90195         1.23933
           90196         2.56460
           90197         5.95453
           90198         5.86824
           90199         3.12933
           90200         3.09814
           90201         1.19037
           90202         6.10255
           90203         2.13142
           90204         4.52938
           90205         4.39441
           90206         3.97226
           90207         3.19890
           90208         3.35703
           90209     352.184E-03
           90210     534.667E-03
           90211         4.73976
           90212         4.52991
           90213         5.25153
           90214         5.32293
           90215         5.67988
           90216         5.62607
           90217         5.70107
           90218         4.65883
           90219         5.73096
           90220         4.18713
           90221         5.65318
           90222         3.33004
           90223         5.75926
           90224         3.30390
           90225         3.28115
           90226         5.74904
           90227         5.79197
           90228     174.882E-03
           90229     214.826E-03
           90230         6.04766
           90231         1.73800
           90232         5.93656
           90233         6.02576
           90234         6.02814
           90235         5.46131
           90236         5.39927
           90237         2.26561
           90238         2.26703
           90239         6.06308
           90240         5.80688
           90241         5.93403
           90242         2.35685
           90243         2.81426
           90244         4.89854
           90245         4.86444
           90246         6.17432
           90247         5.99975
           90248         3.61799
           90249         3.88193
           90250         4.22494
           90251         4.07229
           90252         3.36819
           90253         4.51512
           90254         6.13734
           90255         2.35812
           90256         2.33467
           90257         6.34142
           90258         3.38192
           90259         3.26705
           90260         5.73680
           90261         5.64329
           90262         5.57827
           90263         2.84348
           90264         2.82607
           90265         2.94892
           90266         2.32417
           90267         2.78030
           90268         2.79326
           90269         2.59403
           90270         2.92519
           90271         3.03125
           90272     406.760E-03
           90273         3.02444
           90274         2.84841
           90275         1.86297
           90276         2.75896
           90277         2.76994
           90278         5.36419
           90279         5.43665
           90280         2.72506
           90281         2.73185
           90282         2.71324
           90283         2.74121
           90284         2.68943
           90285         2.71495
           90286         1.66182
           90287         1.57372
           90288         1.61903
           90289         1.40083
           90290         1.11667
           90291         1.16737
           90292         2.80048
           90293         2.72285
           90294         2.68970
           90295         2.62071
           90296         2.66897
           90297         2.68017
           90298         6.42984
           90299         6.79098
           90300         2.72483
           90301         5.86330
           90302         2.66091
           90303         2.66224
           90304         2.71672
           90305         2.17977
           90306         2.66273
           90307         2.66861
           90308         2.66737
           90309         2.68159
           90310         2.67736
           90311         2.65912
           90312         2.66317
           90313         5.90269
           90314         2.03628
           90315         4.17487
           90316         2.08137
           90317         4.88111
           90318         2.58057
           90319         5.72871
           90320         5.49388
           90321         4.78669
           90322         4.35956
           90323     71.4791E-03
           90324         5.73818
           90325         5.70314
           90326         5.73750
           90327         5.69767
           90328         4.76700
           90329         5.71229
           90330         6.03220
           90331         6.17147
           90332         6.69205
           90333         5.81139
           90334         5.74635
           90335         5.72309
           90336         5.69873
           90337         6.37159
           90338     513.180E-03
           90339         3.59020
           90340         6.25508
           90341         6.99935
           90342         5.80358
           90343         4.95729
           90344         4.11750
           90345         5.44409
           90346         1.95526
           90347         1.92600
           90348         5.11526
           90349         3.04166
           90350         2.93076
           90351         3.03610
           90352         2.84934
           90353         2.86549
           90354         7.33916
           90355         2.84866
           90356         2.83954
           90357         6.42597
           90358         2.71241
           90359         2.39335
           90360         6.91837
           90361         2.81802
           90362         2.79077
           90363         2.73937
           90364         2.90390
           90365         2.87652
           90366         3.04912
           90367         2.94188
           90368         2.91073
           90369         1.93834
           90370         2.85210
           90371         2.84191
           90372         2.82843
           90373         2.82080
           90374         2.74344
           90375         6.93918
           90376         2.71320
           90377         2.76008
           90378         2.73421
           90379         2.68012
           90380         2.68324
           90381         2.70217
           90382         2.70723
           90383         2.88747
           90384         2.90513
           90385         2.69605
           90386         2.70128
           90387         2.69766
           90388         2.71209
           90389         2.70567
           90390         2.69095
           90391         2.68853
           90392         5.04833
           90393         5.81417
           90394         5.96755
           90395         2.68664
           90396         2.60196
           90397         5.07606
           90398         5.03050
           90399         2.63305
           90400         6.56904
           90401         6.65039
           90402         6.81693
           90403         6.42820
           90404         2.66700
           90405         2.66657
           90406         2.68332
           90407         2.68038
           90408         2.95556
           90409         2.69225
           90410         2.68633
           90411         2.65825
           90412         2.66918
           90413         4.40910
           90414         4.69910
           90415         2.66558
           90416         1.58143
           90417     744.500E-03
           90418         1.24698
           90419     316.105E-03
           90420     329.158E-03
           90421         2.57793
           90422         2.76708
           90423         3.07476
           90424         2.96798
           90425     137.096E-03
           90426     38.2238E-03
           90427     11.5545E-03
           90428     9.62179E-03
           90429         2.54169
           90430         2.61942
           90431     399.678E-03
           90432         7.58216
           90433         6.97928
           90434         7.20781
           90435         8.63181
           90436         8.11909
           90437         8.34793
           90438         7.28775
           90439         6.63565
           90440         4.88795
           90441         4.80153
           90442         4.65552
           90443         4.56697
           90444         4.25418
           90445     519.808E-03
           90446         5.89315
           90447         7.55775
           90448         7.42571
           90449     475.583E-03
           90450     447.248E-03
           90451     482.108E-03
           90452         7.07599
           90453         6.84647
           90454         7.23183
           90455         6.33857
           90456     404.638E-03
           90457     347.182E-03
           90458     252.536E-03
           90459         8.60731
           90460         7.17164
           90461     188.338E-03
           90462         4.62832
           90463     93.5141E-03
           90464     164.279E-03
           90465     535.602E-03
           90466         3.23662
           90467         2.30295
           90468         2.22460
           90469         2.12165
           90470         2.17701
           90471         3.98654
           90472         4.24061
           90473         2.24135
           90474         2.38401
           90475         2.23704
           90476         5.92110
           90477         5.92068
           90478         6.94566
           90479         7.13596
           90480         2.38930
           90481         7.28105
           90482         7.50216
           90483         2.37298
           90484         7.11086
           90485         7.11899
           90486         6.95785
           90487         2.71644
           90488         2.78464
           90489         2.76649
           90490         2.84674
           90491         2.75496
           90492         2.72876
           90493         2.48816
           90494         2.68135
           90495         3.37150
           90496         2.62490
           90497         3.20001
           90498         2.59636
           90499         3.17654
           90500         7.63848
           90501         7.77031
           90502         2.51100
           90503         8.08880
           90504         2.67773
           90505         2.62553
           90506         2.77754
           90507         4.26317
           90508         4.14386
           90509         4.41248
           90510         2.70582
           90511         5.87973
           90512         5.78243
           90513         2.69157
           90514         7.14100
           90515         2.71527
           90516         2.95298
           90517         3.13150
           90518         2.65284
           90519         4.15263
           90520         2.73427
           90521         2.72624
           90522         3.97794
           90523         3.83823
           90524         2.68055
           90525         2.68291
           90526         2.67807
           90527         4.18582
           90528     176.774E-03
           90529     256.161E-03
           90530     203.912E-03
           90531     259.334E-03
           90532         3.60045
           90533     742.004E-03
           90534     55.2847E-03
           90535     227.926E-03
           90536     157.624E-03
           90537     791.386E-03
           90538         1.00513
           90539     889.448E-03
           90540         1.01814
           90541         3.27527
           90542     438.691E-03
           90543         3.14741
           90544     610.959E-03
           90545         1.03315
           90546         6.36889
           90547         6.35154
           90548         6.39954
           90549     791.858E-03
           90550     489.566E-03
           90551     350.110E-03
           90552     313.906E-03
           90553     575.380E-03
           90554         2.61934
           90555     353.310E-03
           90556     651.856E-03
           90557     13.2268E-03
           90558     27.6942E-03
           90559         2.80794
           90560     18.7721E-03
           90561         2.66613
           90562         2.65899
           90563         2.65643
           90564         1.93611
           90565         1.79395
           90566         2.82341
           90567         2.64839
           90568         2.66912
           90569         2.66944
           90570         6.05966
           90571         2.68813
           90572         2.71843
           90573         2.70524
           90574         2.71173
           90575         2.74925
           90576         7.10197
           90577         8.31015
           90578         2.79800
           90579         2.57027
           90580         2.55982
           90581         2.40329
           90582         2.55177
           90583         4.04848
           90584         4.27226
           90585         4.10203
           90586     346.409E-03
           90587     484.506E-03
           90588     446.364E-03
           90589         4.82699
           90590         4.37447
           90591     298.376E-03
           90592         7.10643
           90593     457.450E-03
           90594     79.6388E-03
           90595     55.4164E-03
           90596         6.20853
           90597     99.0174E-03
           90598     49.4713E-03
           90599         6.31626
           90600     55.5154E-03
           90601         5.44185
           90602     7.47637E-03
           90603     7.00231E-03
           90604     866.282E-03
           90605     22.4642E-03
           90606     11.3373E-03
           90607     32.7038E-03
           90608     15.7801E-03
           90609     48.9565E-03
           90610     87.0554E-03
           90611     70.1890E-03
           90612     290.575E-03
           90613     85.5941E-03
           90614     82.0050E-03
           90615         5.81117
           90616         5.89820
           90617         5.31485
           90618     376.309E-03
           90619         6.79449
           90620         6.95872
           90621     115.553E-03
           90622         6.42950
           90623     103.764E-03
           90624         6.11067
           90625         6.27886
           90626         4.99564
           90627         5.23018
           90628         5.45151
           90629         5.41285
           90630         7.98698
           90631         5.73798
           90632         6.32797
           90633         6.69559
           90634         6.59885
           90635         6.20403
           90636         6.59885
           90637         6.10697
           90638         6.48017
           90639         6.15159
           90640         5.73955
           90641         6.75032
           90642         2.72776
           90643         2.73721
           90644         1.76785
           90645         5.73134
           90646     22.4638E-03
           90647     14.1999E-03
           90648         7.48798
           90649         5.36126
           90650         3.88958
           90651     15.9559E-03
           90652     906.392E-03
           90653         1.48336
           90654         4.64503
           90655         4.78861
           90656         5.10597
           90657         5.05654
           90658     86.6262E-03
           90659         4.20400
           90660         4.94798
           90661         4.77096
           90662         2.56891
           90663         2.35966
           90664         2.59955
           90665         2.23078
           90666         2.19632
           90667         2.65538
           90668         2.34923
           90669         2.40191
           90670         2.62406
           90671         2.33379
           90672         2.66906
           90673         2.66066
           90674         2.66528
           90675         2.33131
           90676         2.79224
           90677         2.47117
           90678         2.78126
           90679         2.73552
           90680         2.78221
           90681         2.78427
           90682         2.62819
           90683         2.72042
           90684         2.77503
           90685         2.60526
           90686         2.60718
           90687         2.60965
           90688         2.87267
           90689         2.58539
           90690         2.58125
           90691         2.57053
           90692         4.67428
           90693         4.75233
           90694         4.62770
           90695     187.974E-03
           90696     137.645E-03
           90697     105.676E-03
           90698     451.527E-03
           90699         2.49320
           90700         2.72038
           90701         5.19400
           90702         2.49990
           90703         2.46699
           90704         2.10533
           90705         2.49531
           90706         2.46474
           90707         2.41464
           90708         2.38343
           90709         2.36827
           90710         6.25541
           90711         2.61352
           90712         2.42542
           90713         2.40474
           90714         2.59340
           90715         2.61275
           90716         2.35001
           90717         5.22450
           90718         5.41734
           90719         2.14947
           90720         2.31991
           90721         2.30127
           90722         2.32609
           90723         2.84648
           90724         2.53813
           90725         2.46559
           90726         2.51544
           90727         2.48242
           90728         2.54243
           90729         2.54816
           90730         2.48129
           90731         2.44966
           90732         2.17108
           90733         5.22147
           90734         2.53330
           90735         2.65228
           90736         5.20848
           90737         2.15837
           90738         2.19296
           90739         5.23385
           90740         2.73126
           90741         5.53853
           90742         2.27534
           90743         2.00702
           90744         2.58222
           90745         5.37641
           90746         5.23176
           90747         5.46131
           90748         5.21755
           90749         5.04272
           90750         4.35221
           90751         4.29287
           90752         4.76100
           90753         7.80565
           90754         5.34424
           90755         7.67195
           90756         5.19866
           90757         5.38438
           90758         5.43539
           90759         2.78441
           90760         2.89193
           90761         2.87426
           90762         2.93063
           90763         5.15585
           90764         2.48300
           90765         5.58367
           90766         5.71961
           90767         5.48965
           90768         5.73583
           90769         2.60935
           90770         5.66229
           90771         5.41400
           90772         5.67667
           90773         5.90722
           90774         5.94883
           90775         5.66694
           90776     318.494E-03
           90777         5.73918
           90778         5.71232
           90779         5.71225
           90780     359.389E-03
           90781         5.87275
           90782         6.43517
           90783         5.92881
           90784         6.42321
           90785         6.47735
           90786         6.43382
           90787         5.79394
           90788         5.91890
           90789         5.91776
           90790         6.28119
           90791         1.76309
           90792         6.26816
           90793         6.21921
           90794         5.98465
           90795         6.05207
           90796         6.16869
           90797         6.02355
           90798         6.13574
           90799         3.44005
           90800         6.12511
           90801         6.05970
           90802         6.28049
           90803         5.72824
           90804         5.90436
           90805         5.75467
           90806         5.77149
           90807         5.36917
           90808         5.29038
           90809         5.80065
           90810         6.38995
           90811         6.22597
           90812         6.62211
           90813         5.68749
           90814         5.48085
           90815         5.58010
           90816         6.73919
           90817         4.51577
           90818         4.59495
           90819         5.01367
           90820         4.08888
           90821         7.64423
           90822         5.81867
           90823         5.20587
           90824         4.99374
           90825         4.90845
           90826         5.31191
           90827         6.00977
           90828         6.69146
           90829         6.60091
           90830         6.66472
           90831         6.75697
           90832         5.84758
           90833         6.33678
           90834         5.95659
           90835         6.03915
           90836         5.91154
           90837         4.81305
           90838         5.11756
           90839         6.45042
           90840         6.48228
           90841         5.40848
           90842         5.59531
           90843         6.16768
           90844         5.26669
           90845         5.55993
           90846         5.53428
           90847         5.53170
           90848         5.53648
           90849         5.55419
           90850         5.38581
           90851         4.49019
           90852         4.68936
           90853         5.84757
           90854         4.01581
           90855         3.95495
           90856         3.98894
           90857         4.26420
           90858         4.29525
           90859         3.97806
           90860         4.05441
           90861         4.30230
           90862         2.98175
           90863         2.93670
           90864         2.95935
           90865         4.52233
           90866         4.47803
           90867         4.62397
           90868         4.00864
           90869         2.27268
           90870         4.30992
           90871         2.18852
           90872         2.19602
           90873         4.74043
           90874         4.60855
           90875         2.01417
           90876         4.81750
           90877         4.88233
           90878         5.39982
           90879         2.01349
           90880         5.28914
           90881         6.56081
           90882         1.98899
           90883         1.96493
           90884         6.69811
           90885         6.46201
           90886         6.14004
           90887         6.09454
           90888         4.33670
           90889         1.94554
           90890         1.39706
           90891         1.37724
           90892         5.09988
           90893         4.97533
           90894         5.09645
           90895         4.51950
           90896         4.61530
           90897         1.38407
           90898         4.79569
           90899         1.20171
           90900         1.04007
           90901         5.23535
           90902         4.40706
           90903         5.32079
           90904         4.13247
           90905         4.36904
           90906         4.31478
           90907         4.30372
           90908     586.302E-03
           90909     585.045E-03
           90910     613.908E-03
           90911         1.18214
           90912         1.21568
           90913         1.24706
           90914         2.82970
           90915         3.23569
           90916         1.77085
           90917         1.77711
           90918         3.39414
           90919         3.42327
           90920         1.88166
           90921         1.87838
           90922         2.80522
           90923         2.92507
           90924         4.59658
           90925         3.73974
           90926         2.31108
           90927         4.01054
           90928         2.81334
           90929         2.83603
           90930         3.13272
           90931         2.42805
           90932         2.85885
           90933         2.94836
           90934         2.93371
           90935         3.02781
           90936         2.89487
           90937         3.05023
           90938         2.57258
           90939         2.78774
           90940         2.76438
           90941         2.57395
           90942         2.49618
           90943         2.90156
           90944         2.98209
           90945         3.00365
           90946         3.16937
           90947         3.17234
           90948         3.18820
           90949         2.70211
           90950         2.73920
           90951         2.53285
           90952         2.42178
           90953         2.41111
           90954         2.29928
           90955         2.48830
           90956         2.47514
           90957         2.44364
           90958         2.35609
           90959         2.46538
           90960         2.46066
           90961         3.34682
           90962         3.47801
           90963         3.63912
           90964         2.37295
           90965         2.18984
           90966         4.30223
           90967         2.15677
           90968         2.38548
           90969         2.35092
           90970         2.35281
           90971         2.33873
           90972         2.30870
           90973         2.43416
           90974         2.29214
           90975         2.25026
           90976         2.38445
           90977         2.25541
           90978         2.27448
           90979         4.12598
           90980         2.42237
           90981         2.49971
           90982         4.21901
           90983         4.30359
           90984         4.88942
           90985         4.95175
           90986         2.14045
           90987         2.07669
           90988         2.20360
           90989         2.54794
           90990         2.53968
           90991         2.23737
           90992         2.19751
           90993         2.08289
           90994         2.05136
           90995         2.32526
           90996         2.38573
           90997         2.53494
           90998         1.91936
           90999         1.94277
           91000         2.11918
           91001         2.87140
           91002         1.94694
           91003         1.99816
           91004         2.57585
           91005         1.47829
           91006         2.50110
           91007         2.51389
           91008         2.62379
           91009         2.74187
           91010         2.49507
           91011         1.79455
           91012         1.70845
           91013         2.24797
           91014     835.906E-03
           91015         1.17199
           91016         2.18141
           91017         2.07224
           91018         2.18474
           91019         1.19821
           91020     169.942E-03
           91021         6.48245
           91022         2.39892
           91023         2.38999
           91024         2.29089
           91025         2.32192
           91026         1.24822
           91027         2.65590
           91028         2.60726
           91029         2.49680
           91030         2.69205
           91031         2.67951
           91032         2.44476
           91033         2.62368
           91034         2.70234
           91035         2.69919
           91036         2.70256
           91037         4.79395
           91038         2.73246
           91039         2.69337
           91040         5.03125
           91041         7.43587
           91042         6.91612
           91043         5.53556
           91044         5.26432
           91045         5.24829
           91046         5.22706
           91047         5.47421
           91048         5.45997
           91049         5.18415
           91050         5.64192
           91051         5.51383
           91052         3.97047
           91053         4.11017
           91054         4.01765
           91055         5.15283
           91056         5.08157
           91057         7.19039
           91058         6.91619
           91059         6.14945
           91060         6.89639
           91061         2.83770
           91062         2.69513
           91063         5.81029
           91064         4.34444
           91065         7.07851
           91066         3.91275
           91067         7.11671
           91068         8.14746
           91069         6.65059
           91070         7.28395
           91071         7.58333
           91072         5.14628
           91073         4.99554
           91074         4.78760
           91075         4.88907
           91076         5.57386
           91077         5.61687
           91078         5.46242
           91079         5.49748
           91080         6.59009
           91081         5.48037
           91082         5.54482
           91083         5.63549
           91084         5.75049
           91085         6.18410
           91086         6.34726
           91087         5.89901
           91088         6.30910
           91089         5.84144
           91090         5.56698
           91091         5.56141
           91092         6.11105
           91093         6.10977
           91094         6.43430
           91095         5.64798
           91096         6.79625
           91097         6.16170
           91098         7.80972
           91099         5.79536
           91100         5.73852
           91101         5.79148
           91102         6.51026
           91103         5.72746
           91104         5.72797
           91105         5.04901
           91106         5.51610
           91107         5.66452
           91108         5.62675
           91109         5.11911
           91110         5.58223
           91111         4.13458
           91112         4.29931
           91113         4.72123
           91114         5.10627
           91115         3.77773
           91116         2.69224
           91117         4.12959
           91118         4.25462
           91119         3.43392
           91120         3.51577
           91121         3.59728
           91122         3.55926
           91123         4.23683
           91124         3.56296
           91125         3.71217
           91126         3.47005
           91127         3.38966
           91128         3.17570
           91129         3.85252
           91130         3.27258
           91131         3.34525
           91132         3.88582
           91133         3.15031
           91134         3.55934
           91135         6.78133
           91136         3.44407
           91137         3.48372
           91138         3.51891
           91139         3.49468
           91140         3.47464
           91141         2.85767
           91142         2.87060
           91143         3.05912
           91144         3.27542
           91145         2.85833
           91146         3.31795
           91147         2.83412
           91148         3.29206
           91149         3.22930
           91150         2.74371
           91151         2.70909
           91152         2.70799
           91153         2.64088
           91154         2.39343
           91155         2.36010
           91156         2.51920
           91157         2.47856
           91158         2.31242
           91159         2.36121
           91160         2.26578
           91161         2.28973
           91162         2.24458
           91163         2.22772
           91164         2.10089
           91165         2.20502
           91166         2.38514
           91167         2.37955
           91168         2.03923
           91169         2.20628
           91170         2.22073
           91171         2.44176
           91172         2.26573
           91173         2.00530
           91174         1.99933
           91175         1.87441
           91176         1.77444
           91177         1.77282
           91178         2.17457
           91179         2.20529
           91180         1.89467
           91181         1.77441
           91182         1.57844
           91183         1.10916
           91184         1.89306
           91185         1.90470
           91186         1.66198
           91187         1.69328
           91188         1.67153
           91189         5.37940
           91190         1.48375
           91191         2.46067
           91192         1.02799
           91193         1.30857
           91194     846.504E-03
           91195         1.25873
           91196     262.042E-03
           91197     220.961E-03
           91198     891.339E-03
           91199         1.26015
           91200         2.21601
           91201     787.310E-03
           91202     867.132E-03
           91203         1.05318
           91204     499.651E-03
           91205     463.947E-03
           91206         1.20983
           91207     353.863E-03
           91208     831.159E-03
           91209         1.10863
           91210     165.127E-03
           91211     105.071E-03
           91212         1.11837
           91213         3.31317
           91214         4.72917
           91215         5.06699
           91216         3.63246
           91217         5.23908
           91218         5.48459
           91219         5.66213
           91220         5.84012
           91221         5.86919
           91222         5.95950
           91223         6.38072
           91224         6.57911
           91225         5.12945
           91226         5.14600
           91227         5.06952
           91228         5.22571
           91229         5.53587
           91230         5.52916
           91231         5.43101
           91232         5.22922
           91233         5.58871
           91234         5.75354
           91235         5.75428
           91236         5.84392
           91237         5.79395
           91238         5.76982
           91239         5.84640
           91240         5.09075
           91241         5.49311
           91242         5.98436
           91243         5.88433
           91244         4.77659
           91245         7.01193
           91246         5.79638
           91247         5.73455
           91248         4.67526
           91249         3.51257
           91250         5.86422
           91251         3.82782
           91252         4.03895
           91253         4.08559
           91254         4.22263
           91255         3.73746
           91256         3.84149
           91257         3.85315
           91258         4.01813
           91259         3.57127
           91260         3.66868
           91261         3.49112
           91262         3.83508
           91263         4.31711
           91264         4.19050
           91265         3.34898
           91266         5.40464
           91267         3.43329
           91268         5.60684
           91269         4.92930
           91270         3.57291
           91271         4.85238
           91272         4.73667
           91273         2.92659
           91274         3.05919
           91275         3.01876
           91276         4.61020
           91277         2.69996
           91278         2.64830
           91279         2.67546
           91280         2.61309
           91281         4.02816
           91282         2.00781
           91283         6.01996
           91284         4.06775
           91285         2.01925
           91286         3.72999
           91287         2.41055
           91288         2.38897
           91289         3.31656
           91290     931.625E-03
           91291         1.30866
           91292         1.14797
           91293         3.48610
           91294         3.57030
           91295         1.31936
           91296         3.27500
           91297         3.27964
           91298     751.471E-03
           91299     841.966E-03
           91300         3.22495
           91301     596.266E-03
           91302         2.94641
           91303     346.524E-03
           91304         5.65761
           91305     585.549E-03
           91306         2.43968
           91307         2.28452
           91308         2.24195
           91309         2.16614
           91310         2.16388
           91311         4.45438
           91312         2.09188
           91313         2.12789
           91314         1.73002
           91315         5.82986
           91316         4.99654
           91317         6.08090
           91318         5.79871
           91319         5.75249
           91320         6.01806
           91321         5.16405
           91322         5.06104
           91323         5.24460
           91324     476.559E-03
           91325         5.24257
           91326         5.34096
           91327         5.33244
           91328         5.35829
           91329         5.00922
           91330         5.02430
           91331         5.35282
           91332         5.30375
           91333         5.31811
           91334         5.41864
           91335         6.76385
           91336         2.72644
           91337         2.74955
           91338         5.55933
           91339         6.65163
           91340     413.142E-03
           91341         6.65835
           91342         6.89923
           91343         6.93510
           91344         6.73306
           91345         6.51198
           91346         5.71884
           91347     868.537E-03
           91348         1.01870
           91349         6.46953
           91350         4.45859
           91351         5.01310
           91352         5.01698
           91353         6.10738
           91354         1.74789
           91355         5.79086
           91356         5.69641
           91357         5.50759
           91358         5.87661
           91359         5.69524
           91360         4.86842
           91361         4.82184
           91362         4.94951
           91363         4.58788
           91364         4.72136
           91365         4.13566
           91366         5.96318
           91367         5.50930
           91368         1.85708
           91369         3.65686
           91370         3.80894
           91371         4.17825
           91372         4.28423
           91373         4.24151
           91374         4.71789
           91375         3.95421
           91376         3.78229
           91377         4.36394
           91378         4.41750
           91379         4.38745
           91380         4.95377
           91381         5.90900
           91382         5.97823
           91383         3.95282
           91384         3.49364
           91385         3.46131
           91386         4.03679
           91387         2.90430
           91388         2.50017
           91389         2.50693
           91390         2.65626
           91391         5.48206
           91392         1.50105
           91393         1.57223
           91394         1.54119
           91395         1.82645
           91396         1.62524
           91397         5.34061
           91398         5.14114
           91399         1.09205
           91400         5.71783
           91401     881.500E-03
           91402     827.502E-03
           91403         5.99445
           91404         5.71081
           91405     772.741E-03
           91406     784.506E-03
           91407         5.98813
           91408         5.92633
           91409     495.094E-03
           91410     293.643E-03
           91411         6.52135
           91412         6.62067
           91413         6.37078
           91414     987.979E-03
           91415         4.85920
           91416         4.76983
           91417     161.786E-03
           91418     310.517E-03
           91419         6.07468
           91420     176.832E-03
           91421     32.9081E-03
           91422     11.0382E-03
           91423         7.17698
           91424         7.50959
           91425         6.44283
           91426     402.708E-03
           91427         6.47700
           91428     450.532E-03
           91429     731.551E-03
           91430         6.34367
           91431         1.14702
           91432         6.04200
           91433         2.20179
           91434         1.87369
           91435         5.89614
           91436         4.23838
           91437         4.35331
           91438         2.48438
           91439         2.49390
           91440         2.94188
           91441         2.96822
           91442         3.21564
           91443         3.74362
           91444         3.97685
           91445         3.81798
           91446         3.79129
           91447         4.69319
           91448         4.77106
           91449         3.56293
           91450         3.71938
           91451         3.66941
           91452         3.18700
           91453         2.99835
           91454         6.57605
           91455         5.70681
           91456         3.09723
           91457         3.41169
           91458         5.85118
           91459         2.97810
           91460         5.54503
           91461         5.47444
           91462         4.79845
           91463         2.90331
           91464         3.03221
           91465         3.06027
           91466         1.64454
           91467         2.89784
           91468         2.93088
           91469         2.84123
           91470         2.85648
           91471         2.83363
           91472         2.84680
           91473         2.58277
           91474         2.57717
           91475         2.55053
           91476         2.55007
           91477         2.54751
           91478         2.57151
           91479         2.48724
           91480         4.23579
           91481         5.98482
           91482         8.09631
           91483         8.19608
           91484         8.03455
           91485         8.19107
           91486         5.87064
           91487         2.43450
           91488         2.24567
           91489         2.30805
           91490         2.33701
           91491         2.17386
           91492         5.50456
           91493         1.90683
           91494         2.56994
           91495         1.84883
           91496         2.59491
           91497         1.89194
           91498         1.36231
           91499         2.05396
           91500         1.99975
           91501         2.13657
           91502     26.5441E-03
           91503     181.148E-03
           91504     1.03397E-03
           91505         1.83507
           91506         1.66496
           91507         1.67246
           91508     804.343E-03
           91509         1.23384
           91510     403.119E-03
           91511     407.497E-03
           91512     368.861E-03
           91513         5.76383
           91514         1.35656
           91515         1.79039
           91516         2.44196
           91517         1.79404
           91518     368.532E-03
           91519         1.47399
           91520         3.62929
           91521         3.09706
           91522         2.73277
           91523         3.49154
           91524         2.10912
           91525         2.18776
           91526         6.68481
           91527         4.91319
           91528         4.34893
           91529         4.40938
           91530         4.42258
           91531         4.36663
           91532         3.72250
           91533         6.39704
           91534         5.33397
           91535         5.05401
           91536         4.37420
           91537         4.77033
           91538         8.58242
           91539         6.30452
           91540         5.56135
           91541         5.29002
           91542         5.34067
           91543         5.27045
           91544         5.39215
           91545         8.21136
           91546         5.81004
           91547         6.01000
           91548         6.62231
           91549         4.73866
           91550         7.34322
           91551         7.52666
           91552         6.72398
           91553         3.55245
           91554         3.12670
           91555         3.39593
           91556         4.93769
           91557         1.03353
           91558         1.20139
           91559     633.797E-03
           91560     459.836E-03
           91561         1.12395
           91562         2.31621
           91563         2.40616
           91564     81.2532E-03
           91565         1.48498
           91566         2.91552
           91567         1.43941
           91568         5.97656
           91569         4.87328
           91570         4.84945
           91571         7.39234
           91572         6.07404
           91573         5.60374
           91574         2.58592
           91575         2.78654
           91576     189.409E-03
           91577         3.53319
           91578     18.3990E-03
           91579     19.7020E-03
           91580         2.39007
           91581     19.7325E-03
           91582     21.3698E-03
           91583     17.1895E-03
           91584     9.94604E-03
           91585     20.0174E-03
           91586     37.5628E-03
           91587         3.28175
           91588     108.121E-03
           91589         4.84411
           91590     397.286E-03
           91591     681.599E-03
           91592         1.39778
           91593         5.42461
           91594         5.37344
           91595     160.195E-03
           91596         1.02051
           91597     893.596E-03
           91598     286.005E-03
           91599         5.46664
           91600     268.461E-03
           91601         2.43603
           91602         5.48085
           91603     59.1904E-03
           91604     91.8915E-03
           91605         5.41930
           91606         5.39235
           91607         6.05696
           91608     13.3487E-03
           91609         6.59766
           91610     31.8748E-03
           91611         6.14287
           91612     23.0966E-03
           91613         6.90974
           91614         6.68266
           91615         7.41270
           91616         6.24855
           91617         6.46803
           91618         6.19639
           91619         5.56415
           91620         7.50314
           91621     21.6027E-03
           91622     46.7590E-03
           91623     38.0994E-03
           91624     32.2970E-03
           91625         1.04121
           91626         1.12844
           91627         4.80280
           91628         3.06463
           91629     81.1961E-03
           91630     95.3916E-03
           91631     288.046E-03
           91632     898.230E-03
           91633         6.97336
           91634     122.634E-03
           91635     168.701E-03
           91636     169.038E-03
           91637         6.10676
           91638         5.72634
           91639         6.35281
           91640         6.53040
           91641     342.361E-03
           91642         5.32558
           91643     541.499E-03
           91644     51.9490E-03
           91645         4.09386
           91646     938.888E-03
           91647     188.475E-03
           91648         3.03791
           91649         2.87098
           91650         4.78191
           91651         1.20746
           91652         4.89194
           91653         4.67964
           91654         4.64022
           91655         4.05873
           91656         2.83790
           91657         4.40394
           91658         4.61592
           91659         4.25679
           91660         2.70918
           91661         2.64387
           91662         4.20232
           91663         3.21552
           91664         3.50509
           91665         4.38662
           91666         3.34465
           91667         3.33683
           91668         5.00396
           91669         5.41886
           91670         5.04733
           91671         8.18880
           91672         5.74157
           91673         2.93925
           91674         9.02300
           91675         2.79328
           91676         2.66619
           91677         2.76760
           91678     21.8525E-03
           91679         2.44703
           91680         2.17232
           91681     48.2547E-03
           91682         2.23578
           91683         2.22986
           91684         2.26242
           91685     13.7595E-03
           91686         2.17338
           91687         1.11968
           91688     739.281E-03
           91689     797.519E-03
           91690     557.643E-03
           91691     541.516E-03
           91692     478.676E-03
           91693     671.768E-03
           91694         1.77539
           91695         1.52623
           91696         1.41013
           91697         2.75674
           91698         5.41503
           91699         3.55791
           91700         5.48984
           91701         4.48975
           91702         4.34189
           91703         5.83963
           91704         3.07153
           91705         3.10280
           91706         2.92723
           91707         3.11060
           91708         3.13721
           91709         2.78338
           91710         2.78939
           91711         4.23751
           91712         4.24400
           91713         4.68832
           91714         2.78647
           91715         4.81025
           91716         4.66815
           91717         2.81499
           91718         2.93379
           91719         6.90177
           91720         2.86065
           91721         4.75595
           91722         5.15425
           91723         2.67904
           91724         6.10668
           91725         2.62930
           91726         5.04190
           91727         4.99516
           91728         5.29292
           91729         4.70509
           91730         4.58536
           91731         4.84654
           91732         7.52315
           91733         7.14804
           91734         4.46842
           91735         3.87608
           91736         3.78508
           91737         3.93049
           91738         3.24330
           91739         3.37531
           91740         3.52694
           91741         3.31575
           91742         5.45126
           91743         2.72858
           91744         4.55310
           91745         1.38236
           91746         1.32109
           91747         4.69019
           91748         4.63251
           91749         2.44775
           91750         3.34199
           91751         2.77051
           91752         2.80903
           91753         2.91547
           91754         2.89385
           91755         5.52663
           91756         2.56789
           91757         2.68318
           91758         1.08140
           91759         1.07676
           91760         2.56515
           91761         2.57098
           91762         2.56624
           91763         2.56827
           91764         2.57343
           91765         2.57731
           91766         2.58522
           91767         2.56895
           91768         2.57875
           91769         2.61503
           91770         2.50436
           91771         2.52749
           91772         2.45270
           91773         3.38547
           91774         2.36748
           91775         2.11716
           91776         7.31465
           91777         2.32527
           91778         2.06341
           91779         2.03387
           91780         1.96665
           91781         6.21920
           91782         4.47706
           91783         2.22671
           91784     100.710E-03
           91785         2.15646
           91786         2.56489
           91787         2.52204
           91788         2.60930
           91789         6.00564
           91790         5.94524
           91791         3.25164
           91792         2.18630
           91793         2.13898
           91794         2.18406
           91795         5.41780
           91796         6.13570
           91797         6.43097
           91798         6.02066
           91799         6.59720
           91800         5.61100
           91801         5.53460
           91802         6.21153
           91803         2.69944
           91804         2.10594
           91805         4.89248
           91806         6.04344
           91807     655.269E-03
           91808         4.46011
           91809         4.95257
           91810         4.40318
           91811         5.51139
           91812         5.73797
           91813         2.20024
           91814         3.09073
           91815         1.21954
           91816         4.66538
           91817         1.61832
           91818         6.20795
           91819         4.18709
           91820         4.10074
           91821         4.15199
           91822         2.94312
           91823         2.60020
           91824         2.86997
           91825         5.70598
           91826         2.29657
           91827         2.37060
           91828         2.36588
           91829         5.47556
           91830         2.80792
           91831         2.38635
           91832         2.30766
           91833         2.27102
           91834         2.31469
           91835         4.94106
           91836         2.22689
           91837         2.30965
           91838         2.33353
           91839         2.49280
           91840         1.85537
           91841         1.79696
           91842         5.57644
           91843         5.72775
           91844         5.99715
           91845         4.85013
           91846         4.69099
           91847         3.63984
           91848         3.67273
           91849         7.07081
           91850         7.02890
           91851     474.013E-03
           91852         4.95373
           91853         3.98836
           91854     613.854E-03
           91855         2.55920
           91856         2.99431
           91857         3.12385
           91858         3.00295
           91859         3.26306
           91860         3.26490
           91861         4.53174
           91862         3.70196
           91863         2.29962
           91864         2.47569
           91865         6.03352
           91866         4.31469
           91867         2.83150
           91868         3.12434
           91869         7.32542
           91870         5.52810
           91871         2.22622
           91872         2.21683
           91873         5.36639
           91874         5.22292
           91875         2.51058
           91876         2.54902
           91877         2.50021
           91878         2.27437
           91879         2.29489
           91880         5.85012
           91881         4.79924
           91882         7.71917
           91883         7.97638
           91884         3.12915
           91885         5.60107
           91886         5.54278
           91887         2.52956
           91888         2.47886
           91889         2.65726
           91890         2.51535
           91891         5.51638
           91892         4.99854
           91893         6.08995
           91894         3.24417
           91895         1.12100
           91896         3.39798
           91897         5.94232
           91898         5.77677
           91899         5.70211
           91900         3.18069
           91901         4.58413
           91902         4.71584
           91903     727.792E-03
           91904         3.38157
           91905         4.38738
           91906         2.29438
           91907         3.64646
           91908         2.96427
           91909         5.47067
           91910         2.82087
           91911         1.02144
           91912         5.89710
           91913         2.77068
           91914         1.06798
           91915         1.00771
           91916         1.03770
           91917     939.472E-03
           91918         2.46018
           91919         2.42603
           91920         2.21351
           91921         2.60823
           91922         2.60609
           91923         2.60608
           91924         2.24581
           91925         4.19440
           91926     822.675E-03
           91927         1.10536
           91928         3.39098
           91929         2.76981
           91930         5.89959
           91931         5.78340
           91932         3.12116
           91933         1.80640
           91934         1.91494
           91935         2.05761
           91936         1.97968
           91937         3.21120
           91938         2.11953
           91939         2.23418
           91940         3.48075
           91941         5.78248
           91942         5.31937
           91943         5.24982
           91944         5.16539
           91945         3.01450
           91946         5.68430
           91947         3.11093
           91948         3.22417
           91949         2.93095
           91950         6.48910
           91951         2.91651
           91952         3.21905
           91953         3.29477
           91954         3.24753
           91955         2.95557
           91956         2.66840
           91957         2.69882
           91958         2.70986
           91959         4.85310
           91960         2.64699
           91961         4.31277
           91962         3.47828
           91963         3.40490
           91964         3.26900
           91965         3.42549
           91966         3.35376
           91967         3.64470
           91968         3.56907
           91969         2.59518
           91970         2.59679
           91971         2.59302
           91972         2.59311
           91973         2.59936
           91974         2.57248
           91975         2.53268
           91976         5.29736
           91977         5.38253
           91978         3.06257
           91979         2.55951
           91980         1.81275
           91981         2.14350
           91982         2.52549
           91983         5.50092
           91984         5.50485
           91985         2.55972
           91986         2.34134
           91987         2.38440
           91988         2.31466
           91989         2.39373
           91990         2.55963
           91991         2.18483
           91992         1.28954
           91993     713.443E-03
           91994         4.87884
           91995         4.87416
           91996         5.45103
           91997         5.27886
           91998         5.37309
           91999         5.10887
           92000         1.50863
           92001     923.072E-03
           92002         3.30798
           92003         4.30048
           92004         1.12116
           92005         5.25776
           92006         6.46236
           92007         1.30312
           92008         1.34671
           92009         4.32532
           92010         1.33439
           92011         5.54533
           92012         1.51922
           92013         4.11265
           92014         3.42147
           92015         2.29286
           92016         4.57909
           92017         4.31531
           92018         2.22047
           92019         3.87313
           92020         3.48614
           92021         2.90409
           92022         2.81423
           92023         1.92143
           92024         5.89435
           92025         5.97601
           92026         2.03078
           92027         2.02960
           92028         5.37009
           92029         2.15408
           92030         2.35019
           92031         2.00306
           92032         4.12532
           92033         6.31830
           92034         3.00215
           92035         3.58841
           92036         3.82338
           92037         3.14159
           92038         3.53133
           92039         3.33188
           92040         3.18391
           92041         3.22712
           92042         3.30476
           92043         5.69235
           92044         2.30872
           92045         2.85380
           92046         2.60502
           92047         4.55486
           92048         2.50123
           92049         5.78810
           92050         2.42613
           92051         2.45734
           92052         2.52562
           92053         5.84902
           92054         2.12098
           92055         2.82720
           92056         2.42577
           92057         5.88967
           92058         2.52759
           92059         2.84430
           92060         2.20184
           92061         2.07243
           92062         2.24517
           92063         2.87507
           92064         2.80062
           92065         5.31644
           92066         4.85138
           92067         2.35306
           92068         2.49848
           92069         2.49887
           92070         2.57550
           92071         1.73052
           92072         5.71083
           92073         2.52385
           92074         2.16245
           92075         2.57333
           92076         2.57431
           92077         2.58689
           92078         4.01665
           92079         3.14889
           92080         2.79831
           92081         2.46795
           92082         2.71553
           92083         2.89198
           92084         2.90969
           92085         5.97581
           92086         6.04321
           92087         2.56964
           92088         2.90175
           92089         5.20099
           92090         5.17416
           92091         5.16112
           92092         5.18267
           92093         5.54747
           92094         2.39256
           92095         4.63279
           92096         4.22591
           92097         4.31584
           92098         2.72340
           92099         2.96299
           92100         3.03520
           92101         3.17877
           92102         2.57700
           92103         2.63053
           92104         2.31321
           92105         5.77527
           92106         2.59581
           92107         5.23489
           92108         2.59423
           92109         2.59995
           92110         4.66129
           92111         2.59298
           92112         2.63510
           92113         2.63564
           92114         2.63765
           92115         2.64090
           92116         2.62795
           92117         5.47364
           92118         5.05181
           92119         2.63035
           92120         2.62817
           92121         4.45185
           92122         2.61974
           92123         2.59127
           92124         5.63512
           92125         3.03214
           92126         3.06159
           92127         2.59955
           92128         2.60818
           92129         2.61630
           92130         3.10403
           92131         2.64121
           92132         2.29388
           92133         1.96736
           92134         2.69219
           92135         2.22524
           92136         2.86562
           92137         3.04517
           92138         1.96636
           92139         2.05965
           92140         3.27628
           92141         3.14817
           92142         1.99806
           92143         4.08702
           92144         1.87951
           92145         1.88804
           92146         2.40143
           92147         2.41711
           92148         1.87914
           92149         4.42160
           92150         1.88568
           92151         5.57665
           92152         2.05033
           92153         3.50600
           92154         2.43284
           92155         2.07102
           92156         2.09818
           92157         2.09556
           92158         2.04692
           92159         2.27308
           92160         2.37085
           92161         2.17469
           92162         3.37767
           92163         5.38940
           92164         5.19397
           92165         5.23964
           92166         5.24373
           92167         3.62942
           92168         2.76819
           92169         2.76656
           92170         2.56410
           92171         2.45701
           92172         2.46396
           92173         2.39067
           92174         2.39168
           92175         2.65563
           92176         2.40246
           92177         2.68861
           92178         2.65567
           92179         2.93605
           92180         2.59078
           92181         2.62160
           92182         2.73772
           92183         2.31626
           92184         1.96351
           92185         2.47248
           92186         2.67913
           92187         2.07814
           92188         5.40304
           92189         2.31092
           92190         2.81240
           92191         2.62647
           92192         2.54315
           92193         2.59705
           92194         2.61162
           92195         2.40265
           92196         2.74528
           92197         2.72775
           92198         2.71636
           92199         2.70860
           92200         2.70619
           92201         2.76749
           92202         2.75366
           92203         2.70553
           92204         2.64727
           92205         2.58918
           92206         2.58696
           92207         2.70073
           92208         2.57101
           92209         2.57060
           92210         2.67328
           92211         2.54440
           92212         2.51959
           92213         2.45613
           92214         2.70825
           92215         5.44514
           92216         2.54338
           92217         2.59001
           92218         2.58309
           92219         2.65529
           92220         2.85399
           92221         2.58715
           92222         2.66560
           92223         2.33154
           92224         2.32791
           92225         2.56850
           92226         2.57233
           92227         2.56222
           92228         2.56557
           92229         2.60546
           92230         2.62351
           92231         2.63888
           92232         2.54297
           92233         2.65387
           92234         2.66901
           92235         2.77454
           92236         2.36346
           92237         5.64177
           92238         2.63161
           92239         2.60085
           92240         2.59385
           92241         2.73286
           92242         2.52896
           92243         2.53275
           92244         2.76402
           92245         2.78265
           92246         2.76107
           92247         2.14082
           92248         2.54849
           92249         2.35214
           92250         2.47375
           92251         2.64704
           92252         2.61777
           92253         2.63622
           92254         2.37880
           92255         2.81498
           92256         2.84563
           92257         2.83873
           92258         2.60733
           92259         3.24882
           92260         3.13405
           92261         2.56606
           92262         2.83105
           92263         2.59681
           92264         2.56812
           92265         2.94189
           92266         2.29930
           92267         2.69434
           92268         2.62695
           92269         2.53796
           92270         2.53145
           92271         2.53639
           92272         2.58787
           92273         2.60204
           92274         2.62975
           92275         2.64107
           92276         2.64989
           92277         2.34649
           92278         2.55697
           92279         2.54051
           92280         2.61257
           92281         2.59641
           92282         2.61345
           92283         2.61486
           92284         5.85374
           92285         2.60345
           92286         2.31101
           92287         2.29184
           92288         6.95607
           92289         2.51160
           92290         2.61719
           92291         2.61324
           92292         2.60980
           92293         2.45396
           92294         2.63633
           92295         2.60798
           92296         2.60955
           92297         2.59803
           92298         2.61177
           92299         2.43940
           92300         2.47544
           92301         2.45740
           92302         2.45419
           92303         2.58812
           92304         2.58151
           92305         2.49582
           92306         2.52790
           92307         2.54201
           92308         2.57652
           92309         2.69659
           92310         2.68470
           92311         2.64139
           92312         2.63779
           92313         2.63807
           92314         2.61913
           92315         2.92607
           92316         2.69698
           92317         3.00314
           92318         2.67280
           92319         3.94184
           92320         4.18700
           92321     27.7586E-03
           92322     22.9662E-03
           92323     22.1373E-03
           92324     51.7334E-03
           92325         1.95389
           92326         1.97161
           92327         6.35359
           92328         3.26553
           92329         2.95410
           92330         3.16990
           92331     295.167E-03
           92332         2.27319
           92333         2.38841
           92334         1.94092
           92335     283.598E-03
           92336         1.91339
           92337         1.86609
           92338         1.84809
           92339         1.84675
           92340         2.01401
           92341         2.05444
           92342     315.026E-03
           92343     606.729E-03
           92344     605.883E-03
           92345         2.22842
           92346         2.23525
           92347         1.22442
           92348         1.21112
           92349         1.23143
           92350         2.50873
           92351         2.49056
           92352         2.45494
           92353         2.45537
           92354         5.29002
           92355         1.35442
           92356         1.32530
           92357         1.50525
           92358         1.51712
           92359         1.41302
           92360         2.57684
           92361         1.84510
           92362         1.84062
           92363         1.95370
           92364         2.53890
           92365         1.95204
           92366         1.87217
           92367         1.79403
           92368         1.71552
           92369         2.54948
           92370         2.50836
           92371         2.24214
           92372         2.08474
           92373         2.55560
           92374         1.95190
           92375         2.30474
           92376         2.28651
           92377         2.52570
           92378         2.60178
           92379         2.60955
           92380         2.37264
           92381         2.51063
           92382         2.60830
           92383         2.49640
           92384         2.61957
           92385         2.59099
           92386         2.59073
           92387         2.70596
           92388         2.59781
           92389         2.59557
           92390         2.91846
           92391         2.95474
           92392         3.03993
           92393         2.87370
           92394         2.22852
           92395         2.58932
           92396         2.59854
           92397         3.15415
           92398         3.05929
           92399         3.15402
           92400         3.24276
           92401         2.65004
           92402         3.06543
           92403         2.63782
           92404         3.34506
           92405         2.62263
           92406         3.47262
           92407         2.62502
           92408         3.73891
           92409         3.58390
           92410         2.82796
           92411         2.64719
           92412         2.65121
           92413         2.65950
           92414         2.66184
           92415         2.67918
           92416         2.58945
           92417         4.94940
           92418         5.45472
           92419         5.56264
           92420         4.93487
           92421         4.13429
           92422         4.89072
           92423         2.65672
           92424         4.73042
           92425         2.63412
           92426         5.13008
           92427         2.66699
           92428         2.61967
           92429         2.86824
           92430         5.27242
           92431         5.92864
           92432         6.02713
           92433         2.60278
           92434         2.60146
           92435         7.81971
           92436         7.92095
           92437         2.66725
           92438         2.60492
           92439         2.60613
           92440         5.87946
           92441         2.60359
           92442         6.69612
           92443         6.79745
           92444         2.59406
           92445         5.75271
           92446         2.61247
           92447         2.61332
           92448         6.75643
           92449         2.63730
           92450         6.79032
           92451         7.24518
           92452         7.73251
           92453         6.60900
           92454         2.60643
           92455         6.94078
           92456         6.69893
           92457         6.40418
           92458         2.66419
           92459         7.44167
           92460         2.64759
           92461         2.65275
           92462         7.08578
           92463         6.72249
           92464         7.04707
           92465         8.38410
           92466         2.69237
           92467         7.61525
           92468         5.74002
           92469         8.74961
           92470         8.38284
           92471         2.93259
           92472         2.59093
           92473         2.59416
           92474         8.28296
           92475         8.05285
           92476         8.18133
           92477         7.49013
           92478         8.07996
           92479         2.60340
           92480         2.57664
           92481         2.56465
           92482         2.54221
           92483         2.55702
           92484         2.59133
           92485         8.02425
           92486         7.75961
           92487         8.55609
           92488         8.63463
           92489         2.64234
           92490         2.62069
           92491         9.22080
           92492         2.61322
           92493         8.55431
           92494         8.48567
           92495         8.27327
           92496         2.63330
           92497         9.17686
           92498         2.64086
           92499         2.65537
           92500         9.20536
           92501         9.22760
           92502         5.97665
           92503         9.21566
           92504         2.68189
           92505         2.65194
           92506         8.41690
           92507         2.59256
           92508         2.59803
           92509         2.59025
           92510         6.75644
           92511         9.15723
           92512         7.77118
           92513         2.59013
           92514         8.81506
           92515         6.54566
           92516         9.05371
           92517         8.76742
           92518         2.57759
           92519         2.55183
           92520         2.56061
           92521         2.56062
           92522         8.90505
           92523         8.33139
           92524         6.92028
           92525         2.59440
           92526         8.19061
           92527         8.19340
           92528         7.81596
           92529         6.86552
           92530         6.50771
           92531         2.58369
           92532         5.56719
           92533         2.59796
           92534         2.66602
           92535         2.67143
           92536         4.79268
           92537         2.74991
           92538         3.30434
           92539         7.16197
           92540         4.51426
           92541         4.44065
           92542         2.52823
           92543     740.901E-03
           92544         4.68919
           92545         2.53224
           92546         2.52510
           92547         2.57727
           92548         2.51071
           92549         5.00331
           92550         2.52644
           92551         5.31111
           92552         2.81078
           92553         2.76770
           92554         2.65617
           92555         4.69745
           92556         3.66467
           92557         2.61733
           92558         2.55886
           92559         4.68023
           92560         5.46600
           92561         5.20782
           92562         4.49628
           92563         2.61894
           92564         2.58868
           92565         2.58885
           92566         2.56884
           92567         2.67613
           92568         2.66601
           92569         2.97238
           92570         1.31980
           92571     613.535E-03
           92572         2.80540
           92573         2.71118
           92574     304.393E-03
           92575     370.846E-03
           92576     364.801E-03
           92577     438.391E-03
           92578         2.54199
           92579         2.54795
           92580         2.55586
           92581     540.156E-03
           92582     258.728E-03
           92583     22.8470E-03
           92584         2.53789
           92585         2.51807
           92586     26.1711E-03
           92587         2.63943
           92588     40.6842E-03
           92589     104.814E-03
           92590     84.2829E-03
           92591     39.9636E-03
           92592         2.87657
           92593     45.1550E-03
           92594         2.78013
           92595         2.80901
           92596         2.05709
           92597         2.93260
           92598         5.09314
           92599         2.68478
           92600         7.43603
           92601         3.88452
           92602         2.59732
           92603         2.15530
           92604         2.65817
           92605         2.24504
           92606         2.21643
           92607         2.65669
           92608         1.34551
           92609         1.54042
           92610         1.80478
           92611         1.76915
           92612         3.03588
           92613         4.84131
           92614         5.51367
           92615         2.49329
           92616         1.69782
           92617         2.91267
           92618         2.38464
           92619         4.58210
           92620         3.39055
           92621         2.31475
           92622         2.49194
           92623         3.71944
           92624         2.48474
           92625         3.78400
           92626         4.48690
           92627         4.63598
           92628         3.94483
           92629         4.24553
           92630         4.80978
           92631         5.99157
           92632         2.55571
           92633         4.28814
           92634         5.77418
           92635         5.63428
           92636         4.64797
           92637         2.56379
           92638         2.58282
           92639         5.38568
           92640         5.47135
           92641         2.65082
           92642         5.15132
           92643         5.36745
           92644         5.45615
           92645         5.52864
           92646         7.03699
           92647         5.18571
           92648         2.68357
           92649         5.59768
           92650         2.83995
           92651         5.97451
           92652         5.52260
           92653         5.47453
           92654         5.50682
           92655         5.54725
           92656         5.70464
           92657         5.63719
           92658         5.18723
           92659         5.38868
           92660         3.10179
           92661         5.02684
           92662         5.66786
           92663         5.15271
           92664         2.67288
           92665         2.87423
           92666         5.14652
           92667         5.29190
           92668         5.25396
           92669         5.34967
           92670         5.40325
           92671         5.31025
           92672         5.28323
           92673         5.34285
           92674         5.41078
           92675         5.20979
           92676         2.41273
           92677         2.51887
           92678         5.29974
           92679         2.49584
           92680         5.41047
           92681         5.47794
           92682         5.22968
           92683         5.27798
           92684         5.39740
           92685         4.98750
           92686         2.28718
           92687         4.58384
           92688         3.64602
           92689         3.20472
           92690         4.47900
           92691         4.94128
           92692         4.68580
           92693         2.70966
           92694         5.26134
           92695         2.59134
           92696         5.43064
           92697         5.40559
           92698         7.49827
           92699         2.26125
           92700         2.61229
           92701         2.69126
           92702         2.70373
           92703         2.69924
           92704         2.69759
           92705         2.69308
           92706         5.16999
           92707         2.68427
           92708         2.68270
           92709     82.1264E-03
           92710         6.42486
           92711         5.70426
           92712         5.58485
           92713         6.57872
           92714         7.61474
           92715         7.76776
           92716         8.22890
           92717         7.05281
           92718         5.75346
           92719         2.07293
           92720         2.68820
           92721         2.61340
           92722         2.72812
           92723         4.58862
           92724         4.45923
           92725         6.43759
           92726         4.61258
           92727     805.321E-03
           92728         4.83147
           92729     894.151E-03
           92730         4.47993
           92731         1.12145
           92732         1.37112
           92733         1.25239
           92734         4.44022
           92735         1.67375
           92736         1.45154
           92737     988.363E-03
           92738         2.38934
           92739         2.68833
           92740         2.83497
           92741         2.48881
           92742         2.48250
           92743         2.18295
           92744         1.32130
           92745         2.29883
           92746         2.12745
           92747         1.72339
           92748         2.81008
           92749         2.86424
           92750         2.03812
           92751         2.06122
           92752         2.08657
           92753         1.55501
           92754         1.37663
           92755         1.78111
           92756         1.72383
           92757         1.74008
           92758         2.71882
           92759         1.97071
           92760     870.923E-03
           92761     855.027E-03
           92762     837.954E-03
           92763     751.428E-03
           92764     873.303E-03
           92765         1.13381
           92766     630.053E-03
           92767     803.897E-03
           92768         1.23226
           92769     99.8462E-03
           92770     54.1081E-03
           92771         1.37947
           92772     331.051E-03
           92773     115.446E-03
           92774         1.09996
           92775     974.237E-03
           92776         2.20705
           92777         8.40295
           92778         1.71673
           92779         1.68439
           92780         1.40778
           92781     115.252E-03
           92782         1.57702
           92783         1.27703
           92784     641.316E-03
           92785     683.128E-03
           92786         2.40684
           92787     732.776E-03
           92788     437.984E-03
           92789     670.590E-03
           92790         4.74968
           92791     831.459E-03
           92792     882.447E-03
           92793     18.7957E-03
           92794         4.34864
           92795     40.0516E-03
           92796     197.182E-03
           92797     309.078E-03
           92798         1.15734
           92799     257.770E-03
           92800     62.6046E-03
           92801     944.445E-03
           92802     705.760E-03
           92803     201.880E-03
           92804     455.291E-03
           92805     433.332E-03
           92806         1.61955
           92807         2.12915
           92808         2.09395
           92809         2.61981
           92810         2.78946
           92811     759.983E-03
           92812         2.95565
           92813     633.744E-03
           92814         2.88165
           92815     675.669E-03
           92816         3.05314
           92817     423.143E-03
           92818         3.12627
           92819         3.59217
           92820     310.933E-03
           92821         3.64082
           92822         1.09164
           92823         1.25275
           92824         3.57876
           92825     788.699E-03
           92826     693.240E-03
           92827         1.30441
           92828         3.91193
           92829         1.04466
           92830         1.14603
           92831         1.48794
           92832         1.05316
           92833         4.41557
           92834         4.61190
           92835         4.32691
           92836     441.753E-03
           92837     394.182E-03
           92838         5.00618
           92839         4.66220
           92840         5.37320
           92841         5.89303
           92842     606.131E-03
           92843     453.864E-03
           92844         6.14469
           92845         6.18574
           92846     642.655E-03
           92847     851.086E-03
           92848         3.57508
           92849         6.68988
           92850         1.57485
           92851     862.708E-03
           92852         6.59854
           92853         1.49914
           92854         4.16515
           92855         4.14496
           92856     741.307E-03
           92857         6.21418
           92858     802.764E-03
           92859         6.11626
           92860         6.18256
           92861         6.25875
           92862         7.75466
           92863         7.08072
           92864         7.10666
           92865         4.98271
           92866         5.90375
           92867         6.39227
           92868         6.32329
           92869         6.27617
           92870         6.22902
           92871         6.86963
           92872         6.38479
           92873         6.31350
           92874         6.43737
           92875         6.48567
           92876         6.05833
           92877         6.17743
           92878         7.25588
           92879         7.74221
           92880         5.91975
           92881         5.76599
           92882         5.69873
           92883         5.68741
           92884         5.72771
           92885         5.47110
           92886         5.65009
           92887         5.91353
           92888         5.61796
           92889         5.39678
           92890         6.92638
           92891         6.71680
           92892         5.71149
           92893         5.70984
           92894         5.44984
           92895         5.34456
           92896         5.46230
           92897         5.68352
           92898         5.64927
           92899         5.66873
           92900         5.84278
           92901         5.80679
           92902         5.82938
           92903         5.66139
           92904         5.52025
           92905         5.53079
           92906         5.37234
           92907     339.189E-03
           92908         5.69339
           92909         6.90052
           92910         2.17243
           92911         6.19295
           92912         1.81173
           92913         1.92514
           92914         1.99961
           92915         6.61885
           92916         6.76609
           92917         6.96539
           92918         3.01879
           92919         5.64253
           92920         4.82743
           92921         4.89972
           92922         4.85514
           92923         4.75438
           92924         4.63304
           92925         7.07387
           92926         7.92202
           92927         4.42910
           92928         7.12487
           92929         4.37249
           92930         6.49123
           92931         4.57508
           92932         4.84685
           92933         6.64885
           92934         6.54740
           92935         7.42074
           92936     497.933E-03
           92937         7.22917
           92938         7.84314
           92939         6.89630
           92940         1.22214
           92941         1.11209
           92942         6.87583
           92943         6.76716
           92944         7.18708
           92945         1.04043
           92946         6.98021
           92947         1.46627
           92948         6.21733
           92949         1.37847
           92950         1.28194
           92951         5.89030
           92952         5.66966
           92953         5.66226
           92954         5.98871
           92955         2.93097
           92956         3.02828
           92957         2.57672
           92958         4.64909
           92959         2.61571
           92960         2.64187
           92961         6.06306
           92962         2.90811
           92963         3.48451
           92964         5.69117
           92965         5.46248
           92966         5.67968
           92967         3.51362
           92968         3.52445
           92969         3.44730
           92970         4.71748
           92971         5.07769
           92972         5.15215
           92973         4.79759
           92974         4.95977
           92975         5.36223
           92976         4.52822
           92977         5.16769
           92978         5.08614
           92979         4.48340
           92980         5.89644
           92981         4.95940
           92982         4.59507
           92983         5.57426
           92984         5.79298
           92985         4.61574
           92986         5.85191
           92987         4.40967
           92988         5.34205
           92989         3.91802
           92990         3.91100
           92991         3.78598
           92992         7.29817
           92993         6.52767
           92994         5.87005
           92995         4.22309
           92996         7.13866
           92997         6.45880
           92998         4.45031
           92999         6.17778
           93000         6.41757
           93001         6.41316
           93002         5.01261
           93003         3.86045
           93004         5.30922
           93005         5.09258
           93006         7.46956
           93007         5.53228
           93008         3.57860
           93009         3.73836
           93010         5.21201
           93011         3.43642
           93012         3.47356
           93013         4.74857
           93014         5.61000
           93015         5.39233
           93016         4.30074
           93017         4.32630
           93018         3.78511
           93019         3.85041
           93020         4.24864
           93021         4.75447
           93022         5.54048
           93023         5.51090
           93024         5.39295
           93025         2.60765
           93026         4.00692
           93027         2.01486
           93028         1.95734
           93029         2.04897
           93030         2.35527
           93031         2.33579
           93032         1.91951
           93033         2.30103
           93034         2.15080
           93035         2.38604
           93036         2.38548
           93037         2.62319
           93038         2.58335
           93039         2.53631
           93040         2.44553
           93041         2.52370
           93042         2.53001
           93043         2.62582
           93044         2.35335
           93045         2.36769
           93046         2.48975
           93047         5.06039
           93048         2.43451
           93049         2.46499
           93050         2.49598
           93051         2.62274
           93052         2.75448
           93053         2.53347
           93054         2.55203
           93055         2.80123
           93056         2.81395
           93057         2.67867
           93058         4.65775
           93059         2.62012
           93060         2.59604
           93061         5.85078
           93062         2.90060
           93063         3.15029
           93064         2.84361
           93065         2.71187
           93066         2.80985
           93067         2.71227
           93068         2.68823
           93069         2.75751
           93070         2.76802
           93071         2.73559
           93072         2.81058
           93073         2.75050
           93074         2.70730
           93075         2.69844
           93076         2.70903
           93077         2.68730
           93078         2.63471
           93079         1.73537
           93080         2.60518
           93081         2.62237
           93082         2.40432
           93083         2.42218
           93084         2.01015
           93085         2.65360
           93086         2.65954
           93087         2.06533
           93088         2.63835
           93089         2.07542
           93090         2.11539
           93091         2.19010
           93092         2.24654
           93093         3.02493
           93094         2.67470
           93095         2.29431
           93096         2.42240
           93097         2.61653
           93098         2.16559
           93099         2.16456
           93100         2.31893
           93101         3.30636
           93102         2.56715
           93103         2.90714
           93104         2.90316
           93105         3.30934
           93106         3.15898
           93107         2.81374
           93108         3.39624
           93109         1.53849
           93110         3.42602
           93111         2.95005
           93112         1.41068
           93113         1.93533
           93114     384.458E-03
           93115         3.18507
           93116         2.90311
           93117         3.03814
           93118         2.51385
           93119         2.43610
           93120         3.06609
           93121         2.25187
           93122         2.27622
           93123         2.45823
           93124         2.20616
           93125         2.22282
           93126         2.50152
           93127         2.94194
           93128         1.98115
           93129         2.13451
           93130         1.97890
           93131         5.02447
           93132         2.08319
           93133         2.42714
           93134         1.94104
           93135         1.77847
           93136         1.84390
           93137         5.19213
           93138         4.86033
           93139         5.18837
           93140         1.94375
           93141         1.91098
           93142         5.17754
           93143         2.07826
           93144         1.86807
           93145         1.71122
           93146         2.44482
           93147         2.35891
           93148         2.50056
           93149         4.92697
           93150         4.64372
           93151         2.03026
           93152         2.27290
           93153         2.42392
           93154         5.51204
           93155         5.67184
           93156         2.65890
           93157         4.29576
           93158         2.70920
           93159         4.12668
           93160         5.55989
           93161         2.84262
           93162         3.05530
           93163         3.54910
           93164         3.84833
           93165         3.83819
           93166         5.73690
           93167         5.79456
           93168         5.92941
           93169         5.08576
           93170         3.66290
           93171         5.87815
           93172         5.00593
           93173         5.60674
           93174         2.60306
           93175         2.78286
           93176         2.58644
           93177         2.93706
           93178         5.44841
           93179         2.61743
           93180         2.61105
           93181         5.93232
           93182         7.50844
           93183         2.90294
           93184         5.33427
           93185         8.57588
           93186         2.79829
           93187         2.80135
           93188         2.81378
           93189         5.12947
           93190         7.99155
           93191         5.77994
           93192         6.46875
           93193         2.45324
           93194         6.41695
           93195         6.47484
           93196         2.38162
           93197         2.36518
           93198         4.51745
           93199         6.34370
           93200         2.48889
           93201         4.45519
           93202         4.48554
           93203         5.07565
           93204         5.65763
           93205         1.44145
           93206         1.44282
           93207         3.88888
           93208         3.60911
           93209         1.96331
           93210         2.95220
           93211         2.83634
           93212         2.70578
           93213         2.70360
           93214         3.66930
           93215         2.75218
           93216         2.94315
           93217         2.86910
           93218         2.86200
           93219         2.86538
           93220         2.35987
           93221         1.61267
           93222         1.69300
           93223         2.35133
           93224         2.48318
           93225         1.59833
           93226         2.44919
           93227         2.60260
           93228         1.10898
           93229         1.08907
           93230         1.04054
           93231         3.56165
           93232         4.26412
           93233         4.28064
           93234         3.59188
           93235         3.70943
           93236         1.38035
           93237         1.68360
           93238         4.20099
           93239         4.17297
           93240         4.26658
           93241         1.58745
           93242         4.58243
           93243         6.40188
           93244         6.19017
           93245         1.69082
           93246         5.05344
           93247         6.31546
           93248         1.75475
           93249         6.09380
           93250         5.51764
           93251         6.30046
           93252         2.54894
           93253         2.43343
           93254         1.39036
           93255         6.88814
           93256         5.55417
           93257         5.80319
           93258         4.33696
           93259         1.40368
           93260         5.07206
           93261         1.71601
           93262         1.77285
           93263         1.87496
           93264         3.22266
           93265         1.80738
           93266         3.57579
           93267         3.42938
           93268         2.92682
           93269         2.12046
           93270         3.11758
           93271         3.18155
           93272         1.95658
           93273         3.33275
           93274         2.77867
           93275         2.27654
           93276         2.57910
           93277         2.56821
           93278         2.71388
           93279         1.90017
           93280         2.27990
           93281         2.36968
           93282         2.12476
           93283         2.56583
           93284         6.86069
           93285         2.17988
           93286         6.54558
           93287         6.45558
           93288         5.77659
           93289         1.85244
           93290         1.86213
           93291         1.84615
           93292         1.90222
           93293         1.90134
           93294         2.38394
           93295         2.37509
           93296         2.37646
           93297         2.45847
           93298         3.43969
           93299         2.48199
           93300         3.54135
           93301         2.45798
           93302         2.55907
           93303         2.48050
           93304         2.44049
           93305         2.63172
           93306         2.50544
           93307         2.86055
           93308         3.20771
           93309         5.72537
           93310         2.73516
           93311         4.60717
           93312         5.78303
           93313         2.77430
           93314         6.42892
           93315         4.63800
           93316         3.48770
           93317         4.58566
           93318         2.92290
           93319         4.59344
           93320         5.08864
           93321         2.59805
           93322         2.60804
           93323         2.74474
           93324         5.00160
           93325         5.04098
           93326         3.65567
           93327         2.83176
           93328         2.75562
           93329         3.62855
           93330         3.52658
           93331         4.12303
           93332         3.17006
           93333         3.21447
           93334         2.98296
           93335         3.35777
           93336         3.40181
           93337         3.32030
           93338         3.35812
           93339         3.40215
           93340         3.41143
           93341         3.44616
           93342         2.99167
           93343         2.75379
           93344         2.87627
           93345         3.32606
           93346         3.30935
           93347         3.25573
           93348         2.81071
           93349         2.85399
           93350         3.13893
           93351         3.16028
           93352         2.89141
           93353         2.83667
           93354         2.87169
           93355         2.77622
           93356         2.73196
           93357         3.05519
           93358         3.51922
           93359         2.91901
           93360         2.97243
           93361         3.49162
           93362         3.00452
           93363         4.18574
           93364         5.14430
           93365         4.16175
           93366         4.60772
           93367         5.69866
           93368         4.31293
           93369         3.81695
           93370         4.10573
           93371         3.44965
           93372         3.73313
           93373         3.29770
           93374         4.18998
           93375         4.18878
           93376         3.11402
           93377         3.48839
           93378         3.35172
           93379         3.34958
           93380         3.28016
           93381         3.12569
           93382         2.86209
           93383         3.53737
           93384         3.45782
           93385         5.45330
           93386         2.72061
           93387         2.76303
           93388         2.82627
           93389         3.54173
           93390         3.35996
           93391         4.65813
           93392         3.97008
           93393         6.23051
           93394         3.24826
           93395         3.04004
           93396         3.62816
           93397         2.70801
           93398         3.94586
           93399         2.57736
           93400         1.85261
           93401         1.98372
           93402         1.77036
           93403         2.30163
           93404         1.99168
           93405         2.49441
           93406         2.28587
           93407         2.05143
           93408         2.49382
           93409         2.42731
           93410         2.38942
           93411         2.36546
           93412         3.77123
           93413         2.66296
           93414         2.65720
           93415         2.65531
           93416         2.64221
           93417         2.55744
           93418         2.64817
           93419         2.62317
           93420         2.64372
           93421         2.65690
           93422         7.31239
           93423         2.60656
           93424         2.52416
           93425         2.67248
           93426         4.67980
           93427         5.03700
           93428         2.66689
           93429         2.65882
           93430         2.65722
           93431         2.66067
           93432         2.65647
           93433         2.67517
           93434         6.21003
           93435         2.72546
           93436         2.84197
           93437         2.82095
           93438         8.02524
           93439         2.55982
           93440         2.58147
           93441         5.59951
           93442         2.60165
           93443         2.46957
           93444         2.63531
           93445         2.66281
           93446         2.72318
           93447         4.33524
           93448         7.61638
           93449         4.92934
           93450         1.69206
           93451         5.89124
           93452         2.07294
           93453         5.73432
           93454         2.32312
           93455         2.05147
           93456         2.12877
           93457         5.81722
           93458         2.64890
           93459         5.83100
           93460         2.63287
           93461         2.58754
           93462         2.59785
           93463         5.40638
           93464         1.32647
           93465         1.02256
           93466         4.79118
           93467     354.456E-03
           93468         1.69421
           93469     559.842E-03
           93470     950.827E-03
           93471         2.27298
           93472         6.06466
           93473         2.24429
           93474         1.92717
           93475         2.81457
           93476         2.32292
           93477         2.50906
           93478         2.44672
           93479         2.69316
           93480         2.91053
           93481         2.45760
           93482         1.87062
           93483         1.72170
           93484         1.93420
           93485         1.15167
           93486         1.21128
           93487         1.70183
           93488         2.06716
           93489         1.55500
           93490     375.986E-03
           93491     754.737E-03
           93492     194.565E-03
           93493         2.26649
           93494     653.840E-03
           93495         2.51331
           93496     935.835E-03
           93497         2.78088
           93498         2.84032
           93499     513.807E-03
           93500         1.44578
           93501         4.86626
           93502         2.91426
           93503         2.78866
           93504         1.25817
           93505         1.05599
           93506         1.94357
           93507         1.90397
           93508     246.417E-03
           93509     13.1904E-03
           93510     57.0657E-03
           93511     116.208E-03
           93512     18.1286E-03
           93513     49.1408E-03
           93514     30.7406E-03
           93515     38.5182E-03
           93516     53.5920E-03
           93517     11.4477E-03
           93518     31.2628E-03
           93519     39.0207E-03
           93520     53.9302E-03
           93521     10.3594E-03
           93522     6.67019E-03
           93523     46.9355E-03
           93524     52.8978E-03
           93525     29.0087E-03
           93526     20.4970E-03
           93527     78.4334E-03
           93528     599.593E-03
           93529     648.719E-03
           93530     169.029E-03
           93531         2.97868
           93532     204.639E-03
           93533         2.91972
           93534         3.04842
           93535         3.11863
           93536     705.006E-03
           93537         2.99078
           93538     46.1502E-03
           93539     22.6187E-03
           93540     54.6000E-03
           93541     18.5180E-03
           93542     126.935E-03
           93543     340.128E-03
           93544     369.474E-03
           93545     302.171E-03
           93546     327.838E-03
           93547         6.20955
           93548         6.48808
           93549         1.06026
           93550     19.0827E-03
           93551         6.40533
           93552     243.152E-03
           93553         6.68694
           93554     988.904E-03
           93555         1.36982
           93556         5.08007
           93557     89.6282E-03
           93558         2.12367
           93559     358.489E-03
           93560         1.53045
           93561         1.33185
           93562         5.87900
           93563     565.674E-03
           93564         6.27782
           93565         6.39324
           93566     638.697E-03
           93567         1.44884
           93568         2.26213
           93569         2.32317
           93570         2.36901
           93571         2.80960
           93572         2.06527
           93573         2.16939
           93574         1.82501
           93575         1.93595
           93576         2.35051
           93577         2.89092
           93578         2.74403
           93579         2.88709
           93580         2.41466
           93581         2.52864
           93582         1.96077
           93583         1.87983
           93584         2.58582
           93585         2.21231
           93586         2.04845
           93587         2.09414
           93588         2.23007
           93589         2.34125
           93590         2.45916
           93591         2.62104
           93592     31.6331E-03
           93593     503.102E-03
           93594     545.162E-03
           93595         2.38897
           93596     360.017E-03
           93597         2.50544
           93598         2.46744
           93599         2.15329
           93600         2.55566
           93601     20.1604E-03
           93602     18.7308E-03
           93603     13.1945E-03
           93604     343.791E-03
           93605     299.708E-03
           93606     15.5281E-03
           93607         2.43615
           93608     95.4667E-03
           93609         2.52001
           93610     230.643E-03
           93611     81.0566E-03
           93612     358.951E-03
           93613     16.5905E-03
           93614         2.70579
           93615         2.71188
           93616         2.71179
           93617         2.70557
           93618         1.30852
           93619         2.70663
           93620         2.69740
           93621         2.62129
           93622         2.61453
           93623     330.531E-03
           93624         2.86058
           93625     239.493E-03
           93626     420.574E-03
           93627         1.42195
           93628         1.27987
           93629     308.237E-03
           93630     955.048E-03
           93631         1.45817
           93632         1.22928
           93633         1.37277
           93634         2.77546
           93635     746.826E-03
           93636     322.828E-03
           93637         2.67316
           93638     169.551E-03
           93639         2.65754
           93640     70.3050E-03
           93641         2.62503
           93642         2.60531
           93643     327.283E-03
           93644     66.1307E-03
           93645     342.201E-03
           93646     570.756E-03
           93647     167.625E-03
           93648     589.564E-03
           93649     459.974E-03
           93650     935.745E-03
           93651         2.70813
           93652         2.01744
           93653         2.78335
           93654         2.89495
           93655         2.87703
           93656         2.67226
           93657         2.51802
           93658         3.02418
           93659         2.64838
           93660         2.82452
           93661         2.69714
           93662         2.72355
           93663         1.01899
           93664     935.737E-03
           93665         1.04136
           93666         1.67429
           93667         1.27488
           93668         1.65781
           93669     973.139E-03
           93670         1.99401
           93671         1.97609
           93672         1.87234
           93673         2.22924
           93674         1.89155
           93675         3.07839
           93676         1.53472
           93677         2.20046
           93678         2.56922
           93679         1.35514
           93680         1.74700
           93681         2.87428
           93682         3.04214
           93683     951.456E-03
           93684     208.961E-03
           93685         3.17312
           93686         3.14353
           93687         1.09786
           93688         3.28541
           93689         1.63438
           93690         1.67004
           93691         1.66030
           93692         1.56806
           93693         2.89388
           93694         2.86358
           93695         1.68134
           93696         1.10926
           93697         1.77861
           93698         1.68254
           93699         3.01749
           93700         2.98764
           93701         3.10008
           93702         1.62235
           93703         3.21050
           93704         1.92398
           93705         2.10032
           93706         1.81021
           93707         3.00773
           93708         2.19110
           93709         2.35595
           93710         2.41442
           93711         4.02312
           93712         3.80199
           93713         4.24477
           93714         5.15820
           93715         4.75877
           93716         4.02617
           93717         3.64302
           93718         3.88911
           93719         3.32910
           93720         3.39124
           93721         4.04748
           93722         2.49923
           93723         7.11131
           93724         2.44187
           93725         2.84181
           93726         2.66915
           93727         2.46390
           93728         2.33876
           93729         5.61519
           93730         2.49602
           93731         5.48336
           93732         2.31175
           93733         2.34045
           93734         2.36142
           93735         2.69581
           93736         2.47220
           93737     941.572E-03
           93738         2.46825
           93739         5.35102
           93740         5.18581
           93741         5.78184
           93742         7.20144
           93743     342.138E-03
           93744         4.91035
           93745         4.74435
           93746         4.60595
           93747         3.37780
           93748     137.460E-03
           93749         2.81214
           93750         2.97037
           93751         2.90312
           93752         2.49550
           93753         6.71894
           93754         2.35656
           93755         7.16193
           93756         2.43391
           93757         5.52915
           93758         5.67811
           93759         2.95221
           93760         5.78814
           93761         2.37626
           93762         2.28826
           93763         2.25946
           93764     303.463E-03
           93765         6.60967
           93766         6.40745
           93767         6.19174
           93768         7.73106
           93769         5.74816
           93770         6.22668
           93771         5.70144
           93772         8.53333
           93773         5.52726
           93774         5.22870
           93775         5.60661
           93776         5.21279
           93777         5.36508
           93778         7.10525


  Minimum            924.710E-06
         At Node           73878

  Maximum                36.2250
         At Node              48

           Total     336.242E+03


