********************************************************************************
Field Output Report, written Tue Feb  6 13:12:46 2024

Source 1
---------

   ODB: C:/Users/Daniel Gutierrez/Desktop/Back up 28-06-23/Imperial College/Imperial 2023-2024/AVD/pt2/github sims/AVD/iter 1.3/Job-MESH-7.odb
   Step: Loading down with g
   Frame: Increment      1: Step Time =    1.000

Loc 1 : Nodal values from source 1

Output sorted by column "Node Label".

Field Output reported at nodes for part: BLANK-1
   Computation algorithm: EXTRAPOLATE_COMPUTE_AVERAGE
   Averaged at nodes
   Averaging regions: ODB_REGIONS

      Node Label         S.Mises
                          @Loc 1
---------------------------------
               1         17.5026
               2         19.4702
               3         17.5799
               4         21.1603
               5         7.96361
               6         8.74464
               7         5.31151
               8     643.427E-03
               9         7.49840
              10     422.137E-03
              11         3.55390
              12     9.00039E-03
              13     10.8892E-03
              14     9.28304E-03
              15     9.97115E-03
              16     2.09562E-03
              17     4.40986E-03
              18     2.24055E-03
              19     4.87812E-03
              20         11.2541
              21         16.4136
              22         19.4990
              23         16.2580
              24         10.8192
              25         17.7960
              26         23.2245
              27         10.2129
              28         16.3501
              29         21.3535
              30         17.2836
              31         10.8173
              32         15.5294
              33         25.3429
              34         6.85485
              35         1.97022
              36         1.34529
              37         5.80535
              38         17.4087
              39         28.6129
              40         29.5028
              41         7.12267
              42         1.96527
              43         1.50100
              44         4.62655
              45         15.6480
              46         29.8327
              47         29.9694
              48         4.29650
              49         4.57926
              50         5.12252
              51         8.51577
              52         14.1287
              53         18.1395
              54         13.9621
              55         4.36597
              56         4.39590
              57         5.34844
              58         8.21274
              59         14.0058
              60         17.4197
              61         15.3765
              62         6.37383
              63         7.35314
              64         8.07518
              65         8.42878
              66         8.34566
              67         7.79476
              68         6.84076
              69         5.90581
              70         5.51648
              71         6.05677
              72         7.09854
              73         8.05362
              74         8.61580
              75         8.62833
              76         8.17612
              77         7.38289
              78         6.32856
              79         5.20228
              80         4.10140
              81         3.14360
              82         2.56752
              83         2.60662
              84         3.23605
              85         4.23087
              86     650.385E-03
              87     469.010E-03
              88     897.390E-03
              89         2.27408
              90         3.71286
              91         5.18959
              92         6.54518
              93         7.62094
              94         8.08277
              95         7.92228
              96         7.34844
              97         6.85730
              98         6.89727
              99         7.33756
             100         7.67769
             101         6.77188
             102         5.64907
             103         4.31299
             104         2.98001
             105         1.75479
             106     911.209E-03
             107         1.40966
             108         1.73020
             109         1.17652
             110         1.07660
             111     722.691E-03
             112     892.469E-03
             113         1.37819
             114         1.96245
             115         2.56234
             116         3.07446
             117         3.43942
             118         3.53164
             119         3.49558
             120         3.57086
             121         3.72939
             122         3.83834
             123         3.72117
             124         3.32678
             125         2.75099
             126         2.09534
             127         1.40963
             128     768.971E-03
             129     369.789E-03
             130     624.543E-03
             131     528.650E-03
             132     41.4401E-03
             133     102.792E-03
             134     97.7151E-03
             135     31.0920E-03
             136     85.0455E-03
             137     247.178E-03
             138     419.323E-03
             139     551.940E-03
             140     601.240E-03
             141     502.079E-03
             142     192.089E-03
             143     341.609E-03
             144     953.733E-03
             145         1.34334
             146     731.868E-03
             147         1.93392
             148         2.29066
             149         1.74691
             150         1.00383
             151     388.651E-03
             152     50.1926E-03
             153     149.575E-03
             154     167.998E-03
             155     99.3371E-03
             156     7.35397E-03
             157     69.6721E-03
             158     101.872E-03
             159     86.9823E-03
             160     36.5109E-03
             161     37.5559E-03
             162     95.8539E-03
             163     109.054E-03
             164     70.2130E-03
             165     11.8187E-03
             166     99.5186E-03
             167     156.712E-03
             168     135.282E-03
             169     48.9509E-03
             170     440.467E-03
             171         1.06492
             172         1.81168
             173         2.12685
             174         1.69941
             175     460.404E-03
             176     840.897E-03
             177         1.24145
             178     891.167E-03
             179     304.185E-03
             180     248.130E-03
             181     546.806E-03
             182     620.654E-03
             183     550.754E-03
             184     408.267E-03
             185     243.884E-03
             186     87.7816E-03
             187     38.6281E-03
             188     96.9412E-03
             189     92.1905E-03
             190     40.4424E-03
             191     43.8762E-03
             192     102.917E-03
             193     112.734E-03
             194     48.1779E-03
             195     109.478E-03
             196     361.651E-03
             197     709.520E-03
             198         1.13638
             199         1.64057
             200         2.20526
             201         2.81748
             202         3.48084
             203         4.15780
             204         4.85484
             205         5.55643
             206         6.24972
             207         6.92044
             208         7.54692
             209         8.11087
             210         8.61001
             211         8.98194
             212         9.25005
             213         9.39838
             214         9.43448
             215         9.34709
             216         9.16555
             217         8.90871
             218         8.59760
             219         8.25428
             220         7.89077
             221         7.53061
             222         7.17475
             223         6.83184
             224         6.50579
             225         6.19254
             226         5.89968
             227         5.62508
             228         5.36259
             229         5.11133
             230         4.86815
             231         4.63520
             232         4.40833
             233         4.18659
             234         3.96852
             235         3.75151
             236         3.53706
             237         3.32299
             238         3.10866
             239         2.89328
             240         2.67635
             241         2.45667
             242         2.23623
             243         2.01281
             244         1.78634
             245         1.55955
             246         1.33293
             247         1.10979
             248     889.905E-03
             249     684.202E-03
             250     495.790E-03
             251     327.090E-03
             252     186.652E-03
             253     78.2040E-03
             254     5.35026E-03
             255     37.7427E-03
             256     48.1338E-03
             257     36.4766E-03
             258     13.7900E-03
             259     14.3874E-03
             260     36.7086E-03
             261     50.0456E-03
             262     40.0803E-03
             263     8.61904E-03
             264     74.2159E-03
             265     184.090E-03
             266     325.815E-03
             267     494.407E-03
             268     686.615E-03
             269     892.738E-03
             270         1.10942
             271         1.33422
             272         1.56047
             273         1.78778
             274         2.01392
             275         2.23692
             276         2.45709
             277         2.67669
             278         2.89360
             279         3.10899
             280         3.32341
             281         3.53741
             282         3.75212
             283         3.96753
             284         4.18660
             285         4.40852
             286         4.63597
             287         4.86954
             288         5.10984
             289         5.36135
             290         5.62516
             291         5.90135
             292         6.19625
             293         6.50314
             294         6.83187
             295         7.17543
             296         7.53267
             297         7.89740
             298         8.25412
             299         8.59708
             300         8.90620
             301         9.15990
             302         9.33932
             303         9.42030
             304         9.39883
             305         9.24970
             306         8.98097
             307         8.59091
             308         8.11851
             309         7.54879
             310         6.91961
             311         6.24914
             312         5.55413
             313         4.85003
             314         4.15610
             315         3.46999
             316         2.82109
             317         2.19491
             318         1.63009
             319         1.12535
             320     697.229E-03
             321     357.197E-03
             322     113.127E-03
             323     41.3451E-03
             324     104.343E-03
             325     96.7804E-03
             326     42.7173E-03
             327     16.3235E-03
             328     41.2823E-03
             329     54.1941E-03
             330     45.4135E-03
             331     6.23409E-03
             332     72.0190E-03
             333     182.618E-03
             334     323.547E-03
             335     491.644E-03
             336     680.188E-03
             337     887.744E-03
             338         1.10763
             339         1.33715
             340         1.57155
             341         1.80865
             342         2.04626
             343         2.28245
             344         2.51768
             345         2.75101
             346         2.98285
             347         3.21331
             348         3.44343
             349         3.67226
             350         3.90193
             351         4.13204
             352         4.36576
             353         4.60111
             354         4.84150
             355         5.08616
             356         5.33864
             357         5.59911
             358         5.86972
             359         6.15111
             360         6.44219
             361         6.74370
             362         7.05752
             363         7.38122
             364         7.70412
             365         8.02561
             366         8.33524
             367         8.61983
             368         8.86682
             369         9.05838
             370         9.18666
             371         9.23000
             372         9.16885
             373         9.00785
             374         8.72794
             375         8.36299
             376         7.90927
             377         7.37944
             378         6.79018
             379         6.16223
             380         5.50039
             381         4.82415
             382         4.14869
             383         3.48447
             384         2.84736
             385         2.23609
             386         1.68086
             387         1.18162
             388     752.399E-03
             389     413.112E-03
             390     158.362E-03
             391     29.1861E-03
             392     100.678E-03
             393     98.5361E-03
             394     48.6411E-03
             395     12.1479E-03
             396     32.8793E-03
             397     48.9472E-03
             398     47.2388E-03
             399     38.5784E-03
             400     36.4108E-03
             401     57.6244E-03
             402     127.181E-03
             403     278.235E-03
             404     541.539E-03
             405     945.281E-03
             406         1.35984
             407         1.57820
             408         1.17135
             409     299.619E-03
             410     656.109E-03
             411         1.01075
             412     888.849E-03
             413     578.985E-03
             414     288.034E-03
             415     72.6551E-03
             416     26.2907E-03
             417     50.5488E-03
             418     35.8856E-03
             419     6.51307E-03
             420     25.4177E-03
             421     47.2166E-03
             422     51.7982E-03
             423     37.9541E-03
             424     13.4918E-03
             425     16.7170E-03
             426     44.0317E-03
             427     58.2990E-03
             428     44.9080E-03
             429     8.11395E-03
             430     76.0382E-03
             431     184.406E-03
             432     321.925E-03
             433     490.073E-03
             434     680.267E-03
             435     887.608E-03
             436         1.11010
             437         1.33872
             438         1.57318
             439         1.80991
             440         2.04710
             441         2.28454
             442         2.51952
             443         2.75304
             444         2.98484
             445         3.21506
             446         3.44412
             447         3.67319
             448         3.90241
             449         4.13277
             450         4.36498
             451         4.60162
             452         4.84163
             453         5.08838
             454         5.34068
             455         5.60140
             456         5.87240
             457         6.15113
             458         6.44242
             459         6.74773
             460         7.06018
             461         7.37950
             462         7.70776
             463         8.03036
             464         8.34098
             465         8.62757
             466         8.87585
             467         9.06959
             468         9.19224
             469         9.21850
             470         9.15842
             471         8.99237
             472         8.74015
             473         8.37025
             474         7.91485
             475         7.38303
             476         6.79256
             477         6.15178
             478         5.49026
             479         4.81497
             480         4.14049
             481         3.47881
             482         2.83850
             483         2.23829
             484         1.68376
             485         1.18641
             486     761.604E-03
             487     410.925E-03
             488     144.195E-03
             489     22.5920E-03
             490     95.6960E-03
             491     100.075E-03
             492     45.4921E-03
             493     14.0380E-03
             494     40.5754E-03
             495     54.6018E-03
             496     49.1276E-03
             497     25.9599E-03
             498     7.48515E-03
             499     39.7093E-03
             500     47.7580E-03
             501     19.3352E-03
             502     98.2238E-03
             503     295.879E-03
             504     612.998E-03
             505     920.950E-03
             506         1.07991
             507     598.693E-03
             508         1.30836
             509         1.61294
             510         1.31907
             511     899.333E-03
             512     529.044E-03
             513     261.561E-03
             514     111.475E-03
             515     50.1664E-03
             516     34.4009E-03
             517     39.1920E-03
             518     47.5219E-03
             519     46.9644E-03
             520     33.2691E-03
             521     10.5994E-03
             522         7.19315
             523         9.00850
             524         13.8611
             525         10.1074
             526         8.66503
             527         10.4309
             528         10.4827
             529         9.54331
             530         7.43373
             531         4.47979
             532         3.23226
             533         4.92846
             534         10.8209
             535         7.71488
             536         6.25044
             537         10.7731
             538         7.30586
             539         6.86748
             540         11.1280
             541         13.9102
             542         8.57174
             543         9.98317
             544         9.26974
             545         7.28073
             546         6.56465
             547         8.66660
             548         9.97174
             549         9.75362
             550         8.19918
             551         5.92411
             552         3.74485
             553         3.84202
             554         5.75632
             555         11.4420
             556         5.18161
             557         11.2513
             558         12.2574
             559         7.97482
             560         7.90580
             561         8.97687
             562         11.1645
             563         2.30816
             564         1.09446
             565         1.91079
             566         1.48228
             567     707.430E-03
             568         3.58749
             569         7.56447
             570         9.55509
             571         8.86169
             572         8.35840
             573         9.19464
             574         8.39232
             575         6.09197
             576         3.08645
             577         1.95026
             578         14.2223
             579         12.1820
             580         13.3586
             581         8.83009
             582         2.41200
             583         8.62613
             584     839.067E-03
             585         2.18975
             586         5.58914
             587         8.40516
             588         9.67418
             589         8.59362
             590         8.30344
             591         9.21022
             592         7.76510
             593         4.78679
             594     765.346E-03
             595         1.51287
             596         1.39756
             597         4.39379
             598         10.9070
             599         10.7059
             600         11.4770
             601         4.65334
             602         1.36102
             603         10.6763
             604         5.40532
             605         4.18184
             606         4.26417
             607         4.12588
             608         4.69020
             609         4.47329
             610         2.98201
             611         2.34831
             612     676.694E-03
             613         1.76214
             614         2.02708
             615         2.36678
             616         2.99836
             617         6.06254
             618         6.98948
             619         6.23553
             620         1.66317
             621     785.981E-03
             622         1.27767
             623     982.279E-03
             624         2.97200
             625         1.06088
             626     986.103E-03
             627         2.15816
             628         3.46591
             629         4.42733
             630         4.28453
             631         4.51414
             632         4.47755
             633         3.80209
             634         1.37504
             635     557.022E-03
             636         1.03683
             637         1.28603
             638         4.04275
             639         5.53469
             640         6.00445
             641         1.75595
             642         3.24636
             643         5.93316
             644         1.41724
             645         1.83547
             646         1.20314
             647         5.14026
             648         3.31546
             649         2.87202
             650         2.70775
             651         2.65709
             652         2.64856
             653         2.65829
             654         2.66123
             655         2.65863
             656         2.63160
             657         2.59337
             658         2.52289
             659         2.42967
             660         2.31334
             661         2.14763
             662         2.01793
             663         2.01604
             664         2.48098
             665         5.51660
             666         11.7339
             667         6.33688
             668         5.35844
             669         5.23613
             670         5.35236
             671         5.75906
             672         6.82569
             673         10.1307
             674         2.41664
             675         2.41542
             676         7.55097
             677         8.48120
             678         6.67716
             679         5.69241
             680         5.31658
             681         5.26751
             682         5.56282
             683         6.76099
             684         10.5163
             685         11.4126
             686         5.69172
             687         2.83153
             688         2.30379
             689         2.20030
             690         2.32604
             691         2.42891
             692         2.50582
             693         2.56877
             694         2.60229
             695         2.61465
             696         2.60995
             697         2.59663
             698         2.57436
             699         2.55239
             700         2.54159
             701         2.56108
             702         2.71299
             703         3.06551
             704         3.99052
             705         3.76141
             706         1.07211
             707         6.02582
             708         3.24201
             709         2.78603
             710         2.63021
             711         2.60388
             712         2.61161
             713         2.61686
             714         2.62727
             715         2.62468
             716         2.60474
             717         2.56562
             718         2.50756
             719         2.40189
             720         2.27072
             721         2.10237
             722         1.96178
             723         1.88097
             724         2.20531
             725         4.40315
             726         5.79179
             727         5.04678
             728         5.02463
             729         5.18544
             730         5.56669
             731         6.47799
             732         11.5806
             733         1.92252
             734     140.133E-03
             735     576.484E-03
             736         1.26205
             737         1.93340
             738         2.82302
             739         3.92455
             740         4.90468
             741         5.75045
             742         6.39068
             743         7.08036
             744         7.33014
             745         7.34972
             746         7.16540
             747         6.86019
             748         6.46537
             749         5.98012
             750         5.41894
             751         4.93753
             752         4.48776
             753         4.06093
             754         3.66179
             755         3.28975
             756         2.92367
             757         2.51396
             758         2.15951
             759         1.78572
             760         1.40140
             761         1.00209
             762     691.014E-03
             763     373.033E-03
             764     169.814E-03
             765     20.2090E-03
             766     479.237E-03
             767         1.12474
             768         2.20228
             769         2.89036
             770         3.60862
             771         4.40429
             772         4.94509
             773         5.42289
             774         5.76590
             775         5.98544
             776         6.05966
             777         5.96638
             778         5.80580
             779         5.61105
             780         5.30079
             781         4.98751
             782         4.58719
             783         4.27544
             784         3.94680
             785         3.61923
             786         3.35022
             787         3.01500
             788         2.74197
             789         2.50723
             790         2.22629
             791         1.95747
             792         1.70379
             793         1.38182
             794         1.06173
             795     684.306E-03
             796     400.036E-03
             797     140.281E-03
             798     940.413E-03
             799         1.90208
             800         2.86108
             801         3.77397
             802         4.45858
             803         4.92172
             804         5.28706
             805         5.52827
             806         5.66275
             807         5.63602
             808         5.48430
             809         5.16068
             810         4.86467
             811         4.60695
             812         4.37479
             813         4.19221
             814         3.93300
             815         3.70477
             816         3.49725
             817         3.29754
             818         3.10665
             819         2.88621
             820         2.70636
             821         2.53629
             822         2.36621
             823         2.19770
             824         1.99913
             825         1.74426
             826         1.41497
             827         1.07442
             828     695.655E-03
             829     257.708E-03
             830         1.32929
             831         2.69624
             832         4.05737
             833         4.76977
             834         5.21583
             835         5.42241
             836         5.62017
             837         5.84633
             838         5.94950
             839         5.80947
             840         5.38143
             841         4.77648
             842         4.16539
             843         3.70711
             844         3.55428
             845         3.39935
             846         3.27482
             847         3.21699
             848         3.09554
             849         3.02206
             850         2.92728
             851         2.80289
             852         2.70636
             853         2.60813
             854         2.51142
             855         2.42470
             856         2.34077
             857         2.19732
             858         1.94250
             859         1.58522
             860     959.812E-03
             861     399.441E-03
             862         1.89592
             863         4.05184
             864         5.52740
             865         5.75180
             866         5.75973
             867         5.70880
             868         5.78070
             869         6.04854
             870         6.56900
             871         6.73207
             872         6.05190
             873         4.73540
             874         3.59573
             875         3.07810
             876         2.89227
             877         2.88315
             878         2.82858
             879         2.85079
             880         2.84198
             881         2.82089
             882         2.78958
             883         2.74853
             884         2.70191
             885         2.66194
             886         2.62257
             887         2.60079
             888         2.57488
             889         2.56876
             890         2.50779
             891         2.24207
             892         1.56540
             893     660.859E-03
             894         2.43583
             895         6.08918
             896         7.66409
             897         6.72241
             898         5.96583
             899         5.64625
             900         5.61584
             901         5.99058
             902         7.07554
             903         9.00169
             904         7.84694
             905         5.23684
             906         3.26463
             907         2.59335
             908         2.35182
             909         2.39847
             910         2.50617
             911         2.58882
             912         2.64646
             913         2.68167
             914         2.69525
             915         2.69733
             916         2.68783
             917         2.67473
             918         2.66199
             919         2.66256
             920         2.70319
             921         2.82122
             922         3.08886
             923         3.38697
             924         2.91906
             925     904.786E-03
             926         1.85996
             927         4.44770
             928         5.96943
             929         5.93753
             930         5.64592
             931         5.46124
             932         5.53407
             933         5.86609
             934         6.59160
             935         7.54465
             936         6.92194
             937         5.18679
             938         3.58508
             939         2.92191
             940         2.66814
             941         2.67906
             942         2.74710
             943         2.70581
             944         2.72208
             945         2.70480
             946         2.67287
             947         2.61807
             948         2.56920
             949         2.51863
             950         2.46186
             951         2.44012
             952         2.43512
             953         2.44761
             954         2.52003
             955         2.55700
             956         1.88155
             957     795.313E-03
             958         1.13953
             959         2.72775
             960         4.29412
             961         4.85688
             962         5.15919
             963         5.36171
             964         5.52427
             965         5.76119
             966         6.12171
             967         6.18297
             968         5.65321
             969         4.77349
             970         4.08628
             971         3.54340
             972         3.36798
             973         3.21992
             974         3.14479
             975         3.07539
             976         2.98073
             977         2.88073
             978         2.76661
             979         2.65725
             980         2.54930
             981         2.45313
             982         2.37527
             983         2.28849
             984         2.19682
             985         2.13562
             986         1.97486
             987         1.70181
             988         1.05758
             989     398.448E-03
             990     726.119E-03
             991         1.75009
             992         2.89619
             993         3.81535
             994         4.38545
             995         4.89560
             996         5.25179
             997         5.52913
             998         5.73048
             999         5.74423
            1000         5.54529
            1001         5.20889
            1002         4.80362
            1003         4.48080
            1004         4.21531
            1005         4.00630
            1006         3.77390
            1007         3.54289
            1008         3.33632
            1009         3.13754
            1010         2.94887
            1011         2.72367
            1012         2.55249
            1013         2.38596
            1014         2.22899
            1015         2.08203
            1016         1.90814
            1017         1.72486
            1018         1.43950
            1019         1.02414
            1020     633.792E-03
            1021     210.425E-03
            1022     436.284E-03
            1023         1.15600
            1024         2.09937
            1025         2.87495
            1026         3.60099
            1027         4.39935
            1028         4.94610
            1029         5.45866
            1030         5.85205
            1031         6.05812
            1032         6.16535
            1033         6.01984
            1034         5.75854
            1035         5.50736
            1036         5.15462
            1037         4.81002
            1038         4.39836
            1039         4.09380
            1040         3.77146
            1041         3.45255
            1042         3.20363
            1043         2.87315
            1044         2.60560
            1045         2.35788
            1046         2.10996
            1047         1.86181
            1048         1.63046
            1049         1.31550
            1050         1.02975
            1051     748.129E-03
            1052     321.034E-03
            1053     93.7169E-03
            1054     80.9232E-03
            1055     469.710E-03
            1056         1.18219
            1057         1.89381
            1058         2.80351
            1059         3.92201
            1060         4.92889
            1061         5.82634
            1062         6.58738
            1063         7.20098
            1064         7.40136
            1065         7.40572
            1066         7.15370
            1067         6.77379
            1068         6.31621
            1069         5.78576
            1070         5.20487
            1071         4.73278
            1072         4.29605
            1073         3.88363
            1074         3.49534
            1075         3.15371
            1076         2.81012
            1077         2.40227
            1078         2.07521
            1079         1.72384
            1080         1.35496
            1081     957.590E-03
            1082     634.119E-03
            1083     387.941E-03
            1084     145.347E-03
            1085     20.1180E-03
            1086         2.04153
            1087         7.22936
            1088         12.0815
            1089         6.68959
            1090         12.4289
            1091         7.41038
            1092         6.97078
            1093         10.3884
            1094         14.6637
            1095         12.1622
            1096         11.9759
            1097         9.99699
            1098         2.88912
            1099         2.69699
            1100         15.2745
            1101         8.44549
            1102         15.3984
            1103         15.4960
            1104         3.15306
            1105     47.5800E-03
            1106         1.33160
            1107     665.232E-03
            1108     388.788E-03
            1109     51.3589E-03
            1110         1.60768
            1111         1.05063
            1112     894.202E-03
            1113     113.254E-03
            1114     26.6234E-03
            1115     24.0739E-03
            1116     97.6976E-03
            1117     169.571E-03
            1118     188.589E-03
            1119     340.254E-03
            1120     47.4249E-03
            1121     284.178E-03
            1122     639.881E-03
            1123     860.517E-03
            1124         1.05164
            1125         1.07223
            1126     570.215E-03
            1127     10.4242E-03
            1128     28.5700E-03
            1129     73.7053E-03
            1130     193.972E-03
            1131     542.102E-03
            1132     767.483E-03
            1133     549.903E-03
            1134     481.952E-03
            1135     310.835E-03
            1136     154.762E-03
            1137     486.295E-03
            1138     776.626E-03
            1139     906.958E-03
            1140     972.241E-03
            1141     557.948E-03
            1142         1.22004
            1143     838.839E-03
            1144     844.043E-03
            1145     504.923E-03
            1146     418.905E-03
            1147     216.113E-03
            1148     25.5285E-03
            1149     23.5897E-03
            1150     9.63691E-03
            1151     60.8997E-03
            1152     111.764E-03
            1153     332.763E-03
            1154     714.011E-03
            1155     966.240E-03
            1156         1.00912
            1157     433.555E-03
            1158     284.060E-03
            1159     179.312E-03
            1160     141.900E-03
            1161     61.0744E-03
            1162     10.5811E-03
            1163         2.71925
            1164         1.87331
            1165         1.08361
            1166     94.5698E-03
            1167         3.79035
            1168         4.68232
            1169         5.67162
            1170     39.9284E-03
            1171     407.262E-03
            1172     553.393E-03
            1173         1.25504
            1174         2.08849
            1175         2.93603
            1176         3.57781
            1177         4.45168
            1178         5.41060
            1179     343.418E-03
            1180     893.267E-03
            1181         7.44732
            1182         8.26965
            1183         8.37926
            1184         6.55621
            1185         5.45203
            1186         3.18459
            1187         4.26497
            1188         2.14036
            1189         8.13490
            1190         7.66951
            1191         7.09477
            1192         6.50260
            1193     160.888E-03
            1194     599.142E-03
            1195         1.24980
            1196         1.66652
            1197         2.57125
            1198         3.73727
            1199         4.86229
            1200         6.02052
            1201         7.04710
            1202         7.81566
            1203         8.10536
            1204         8.37533
            1205         8.29314
            1206         7.91917
            1207         7.38746
            1208         6.79640
            1209         6.28782
            1210     39.1038E-03
            1211     39.4910E-03
            1212         2.30083
            1213         3.83737
            1214         3.43679
            1215         1.44615
            1216     33.4642E-03
            1217     20.8481E-03
            1218         2.60081
            1219         1.71066
            1220         1.29993
            1221         8.21773
            1222         8.24086
            1223         6.50348
            1224         6.96933
            1225     7.94836E-03
            1226     276.553E-03
            1227     709.513E-03
            1228         3.36141
            1229         4.22606
            1230         5.16071
            1231         7.49186
            1232         7.93476
            1233         7.92830
            1234         6.88440
            1235         5.93932
            1236         4.83233
            1237         3.74078
            1238     666.089E-03
            1239     195.769E-03
            1240     30.0482E-03
            1241         5.71292
            1242         5.18613
            1243         4.70848
            1244         4.26251
            1245         3.03614
            1246         2.42705
            1247         2.03137
            1248         1.62276
            1249         1.23425
            1250     837.626E-03
            1251     533.564E-03
            1252     390.740E-03
            1253     179.084E-03
            1254     23.4001E-03
            1255     172.104E-03
            1256     853.369E-03
            1257         1.65835
            1258         2.51076
            1259         3.15223
            1260         4.00638
            1261         4.91758
            1262         5.94566
            1263         6.07544
            1264         6.70261
            1265         7.23670
            1266         7.72872
            1267         8.09858
            1268         8.27014
            1269         8.10629
            1270         7.63489
            1271         7.26549
            1272         6.44189
            1273         5.39907
            1274         4.25525
            1275         3.20190
            1276         2.17572
            1277     952.466E-03
            1278     400.347E-03
            1279     63.0182E-03
            1280         5.85469
            1281         5.44225
            1282         4.94355
            1283         4.48271
            1284         4.04736
            1285         3.63459
            1286         3.23344
            1287         2.83344
            1288         2.62425
            1289         2.23054
            1290         1.82744
            1291         1.41778
            1292         1.05905
            1293     690.595E-03
            1294     273.306E-03
            1295     93.8719E-03
            1296     7.66883E-03
            1297         1.70862
            1298         1.65528
            1299         5.00419
            1300         4.35106
            1301         11.2483
            1302         8.29634
            1303         4.47699
            1304         7.06117
            1305         5.51478
            1306         8.56560
            1307         6.33703
            1308         11.8608
            1309         6.25821
            1310         12.8528
            1311         9.71688
            1312         7.85249
            1313         12.6552
            1314         12.3652
            1315         13.8319
            1316     747.474E-03
            1317         1.66510
            1318         1.66499
            1319         1.29398
            1320     891.706E-03
            1321     934.009E-03
            1322         1.53393
            1323         1.28579
            1324     574.353E-03
            1325     567.311E-03
            1326         7.84606
            1327         3.52461
            1328         4.34488
            1329         5.26930
            1330         2.19824
            1331     247.362E-03
            1332         3.11357
            1333         2.23029
            1334     72.7450E-03
            1335     468.727E-03
            1336         3.91770
            1337         7.18209
            1338         6.72009
            1339         6.21839
            1340         6.39691
            1341         6.84316
            1342         7.23014
            1343         7.60549
            1344         7.30538
            1345         7.66074
            1346         7.51968
            1347         5.05424
            1348         4.58812
            1349         4.15805
            1350         3.37692
            1351         2.98784
            1352         7.42336
            1353         4.79035
            1354     733.916E-03
            1355         7.48314
            1356         3.74494
            1357         6.06187
            1358         1.25593
            1359         3.24380
            1360         3.54370
            1361         1.21069
            1362         2.79080
            1363         1.02850
            1364         2.68320
            1365         8.14108
            1366         4.43828
            1367         7.47235
            1368         9.86421
            1369         9.29739
            1370         8.89223
            1371         9.88323
            1372         2.53513
            1373         9.00668
            1374         4.73698
            1375         4.94021
            1376         2.56035
            1377     885.266E-03
            1378         2.58392
            1379         5.74570
            1380         5.91372
            1381     598.260E-03
            1382         6.08239
            1383         6.20475
            1384         4.29267
            1385         4.48366
            1386         3.92308
            1387         5.83085
            1388         5.14289
            1389         2.88015
            1390         9.21570
            1391         7.98208
            1392         6.45527
            1393         3.90127
            1394         4.08006
            1395         6.51526
            1396     631.731E-03
            1397     420.331E-03
            1398         1.77240
            1399     769.934E-03
            1400         1.55177
            1401         1.38744
            1402     516.927E-03
            1403         1.18841
            1404         6.70232
            1405         3.50005
            1406         3.67400
            1407         6.67485
            1408     336.149E-03
            1409     103.604E-03
            1410         1.16401
            1411         3.20914
            1412         3.34904
            1413         6.91047
            1414         6.83418
            1415         6.89917
            1416         6.95025
            1417         2.93822
            1418         3.06883
            1419     356.200E-03
            1420         1.24872
            1421     397.530E-03
            1422         1.01801
            1423     650.735E-03
            1424     737.377E-03
            1425         1.89513
            1426         1.84357
            1427         6.72818
            1428         3.84709
            1429         8.22766
            1430         1.71995
            1431         9.96991
            1432         4.15650
            1433         6.47037
            1434         6.46757
            1435         2.94694
            1436         4.10846
            1437         1.29494
            1438         3.09513
            1439         1.08927
            1440         2.89190
            1441         7.91697
            1442         4.38856
            1443         4.58083
            1444         2.40295
            1445     837.071E-03
            1446         2.43587
            1447         5.66259
            1448         5.80948
            1449         4.50109
            1450         3.62841
            1451     527.031E-03
            1452         6.04327
            1453         6.13838
            1454         3.99689
            1455         4.17924
            1456         2.06187
            1457         3.18023
            1458         6.28698
            1459         9.52615
            1460         6.33116
            1461         3.62354
            1462         3.79562
            1463         6.36081
            1464         8.42242
            1465         6.65741
            1466         3.23736
            1467         3.45621
            1468         6.52811
            1469     179.151E-03
            1470     506.758E-03
            1471     166.366E-03
            1472     47.7419E-03
            1473         6.76336
            1474         2.82547
            1475         8.15097
            1476         2.95372
            1477         5.80209
            1478     227.758E-03
            1479     677.939E-03
            1480     288.561E-03
            1481     866.091E-03
            1482         6.33379
            1483         2.78821
            1484         6.40070
            1485         2.64753
            1486         7.35456
            1487         4.44393
            1488         6.54194
            1489         3.92752
            1490         9.04413
            1491         8.12889
            1492         2.50136
            1493         4.37109
            1494         4.72043
            1495         1.73616
            1496         4.15160
            1497         7.30064
            1498         4.39466
            1499     611.005E-03
            1500         1.07137
            1501         1.85609
            1502         3.01822
            1503         5.39486
            1504         4.58590
            1505         1.79378
            1506         3.00260
            1507         5.23136
            1508         5.76651
            1509         3.99622
            1510     338.408E-03
            1511     709.541E-03
            1512         5.64812
            1513         4.17775
            1514         6.23342
            1515         10.8267
            1516         3.64944
            1517         6.01821
            1518         5.95675
            1519         3.82189
            1520         8.32108
            1521         1.19060
            1522         1.05444
            1523         2.98962
            1524         2.81228
            1525         7.47054
            1526         4.73146
            1527         1.96942
            1528         6.85022
            1529         2.94912
            1530         7.25307
            1531         3.50989
            1532         4.45507
            1533     777.572E-03
            1534         4.44365
            1535         1.52997
            1536         1.57790
            1537     456.727E-03
            1538         1.39459
            1539         1.45362
            1540         1.90110
            1541         5.45640
            1542         5.41042
            1543         1.96737
            1544         2.06453
            1545     714.429E-03
            1546         2.03354
            1547     774.496E-03
            1548         2.41728
            1549         2.25853
            1550         6.35196
            1551         6.23548
            1552         2.35184
            1553     766.993E-03
            1554     870.806E-03
            1555     248.428E-03
            1556     227.345E-03
            1557         3.70601
            1558         5.44424
            1559         5.52440
            1560         3.53682
            1561         4.01025
            1562         5.14457
            1563     919.539E-03
            1564         3.83476
            1565         5.27329
            1566         7.86341
            1567         6.37597
            1568         7.87522
            1569         6.40930
            1570         2.92211
            1571         8.90774
            1572         6.48276
            1573         2.76439
            1574         4.76463
            1575         4.25764
            1576         3.44505
            1577         4.92681
            1578         4.07825
            1579         3.45109
            1580         1.26616
            1581         6.16449
            1582     959.742E-03
            1583         4.48273
            1584         4.47453
            1585         1.59453
            1586         1.65923
            1587         1.91249
            1588         5.25545
            1589         5.22433
            1590         1.99907
            1591         2.23929
            1592         5.20902
            1593         6.41472
            1594         1.91287
            1595         2.77175
            1596         5.24426
            1597         6.77836
            1598         2.61610
            1599         2.21307
            1600         5.96434
            1601         5.87992
            1602         2.33996
            1603         1.06590
            1604     311.215E-03
            1605         3.34440
            1606         7.28016
            1607         2.85403
            1608         4.45018
            1609     793.971E-03
            1610         2.31668
            1611         2.26114
            1612         3.10127
            1613         1.09076
            1614         4.71589
            1615         5.50615
            1616         3.08715
            1617         4.91553
            1618         5.32764
            1619     469.057E-03
            1620     820.064E-03
            1621         5.53185
            1622         4.29941
            1623         3.85261
            1624         5.88195
            1625         2.69922
            1626     314.829E-03
            1627     898.566E-03
            1628         6.46054
            1629         3.04507
            1630         2.07085
            1631         5.90804
            1632         1.75972
            1633     589.936E-03
            1634         1.66730
            1635     584.640E-03
            1636         3.56291
            1637         6.06764
            1638         6.07444
            1639         3.39940
            1640         5.34279
            1641         2.61223
            1642         5.31630
            1643         3.29522
            1644         3.45889
            1645         5.26108
            1646         6.16754
            1647         3.55366
            1648         5.10485
            1649         3.72270
            1650         4.99216
            1651     864.812E-03
            1652         7.65468
            1653         6.89763
            1654         2.71701
            1655         4.83611
            1656         3.81089
            1657         3.32985
            1658         1.22576
            1659         4.68613
            1660         3.98345
            1661         3.33732
            1662         4.94318
            1663         4.86470
            1664         4.85333
            1665         1.77498
            1666         1.85631
            1667         2.07924
            1668         5.54994
            1669         5.50911
            1670         2.17950
            1671         1.93319
            1672         5.47575
            1673         2.12710
            1674         5.47188
            1675         5.50388
            1676         6.16591
            1677         2.46196
            1678         6.19939
            1679         2.54225
            1680     848.240E-03
            1681     229.034E-03
            1682     572.705E-03
            1683         1.75958
            1684         3.63968
            1685         5.74627
            1686         2.57058
            1687     527.618E-03
            1688         1.43883
            1689         5.98430
            1690         1.95902
            1691         6.34034
            1692         1.12878
            1693     328.162E-03
            1694     915.689E-03
            1695     277.248E-03
            1696         5.96019
            1697         2.85099
            1698         3.41443
            1699         5.61681
            1700         5.62654
            1701         3.25450
            1702         6.69745
            1703         11.0963
            1704         8.88221
            1705         1.66575
            1706         3.27208
            1707         5.18148
            1708         5.19695
            1709         3.11235
            1710         2.12251
            1711         2.23730
            1712         3.94205
            1713         5.87051
            1714         6.35601
            1715     402.397E-03
            1716         1.31022
            1717         6.66257
            1718         3.12585
            1719         2.81150
            1720         4.97249
            1721         3.32779
            1722         3.49121
            1723         4.88065
            1724         6.51906
            1725         5.78837
            1726         3.56119
            1727         4.73005
            1728         3.72827
            1729         4.59029
            1730     614.993E-03
            1731         1.13092
            1732         7.05597
            1733         4.12469
            1734         5.56753
            1735         4.49082
            1736         3.78591
            1737         3.88655
            1738         2.75771
            1739         1.47126
            1740     977.927E-03
            1741         4.32137
            1742         3.95235
            1743         2.73453
            1744         3.88665
            1745         4.61154
            1746         1.77659
            1747         4.60900
            1748         1.69695
            1749         1.41163
            1750         7.10511
            1751         3.99376
            1752         5.29980
            1753         2.10152
            1754         1.99866
            1755         5.27396
            1756         5.83145
            1757         2.40612
            1758         1.24360
            1759     461.123E-03
            1760     105.075E-03
            1761     369.957E-03
            1762         4.26882
            1763         5.64488
            1764         5.78795
            1765         2.64785
            1766         2.47918
            1767     411.964E-03
            1768         1.12406
            1769         1.73391
            1770         5.93492
            1771         1.90808
            1772         2.27114
            1773         7.23798
            1774         1.49053
            1775     444.839E-03
            1776         5.82081
            1777         2.71875
            1778         6.01244
            1779         6.40193
            1780     492.129E-03
            1781         1.34725
            1782         7.06645
            1783         5.87458
            1784         3.16355
            1785         1.73088
            1786         2.41325
            1787         5.41524
            1788         2.13312
            1789         1.43186
            1790         7.18220
            1791         2.62814
            1792         6.05977
            1793         2.50190
            1794         5.99404
            1795         3.38368
            1796     505.573E-03
            1797         1.60705
            1798         2.37564
            1799         5.63615
            1800         5.22233
            1801         2.01367
            1802         2.12414
            1803         5.23204
            1804         5.23844
            1805         4.70090
            1806         5.23843
            1807         1.81646
            1808         4.80365
            1809         1.90666
            1810         4.79614
            1811         6.57382
            1812         1.31094
            1813     734.163E-03
            1814         2.06573
            1815     710.506E-03
            1816         2.12417
            1817         1.23118
            1818     340.337E-03
            1819         2.98547
            1820         4.82956
            1821         4.82253
            1822         3.14500
            1823         8.07767
            1824         3.24906
            1825         5.50189
            1826         5.48708
            1827         3.09488
            1828         2.53267
            1829         1.93837
            1830         5.62470
            1831         5.94157
            1832         4.51549
            1833         3.15181
            1834         6.05704
            1835         5.94855
            1836     789.647E-03
            1837         1.16668
            1838         6.45649
            1839         4.14594
            1840         3.96937
            1841         4.60991
            1842         4.03361
            1843         3.92652
            1844         3.17303
            1845         1.47197
            1846         1.16240
            1847         4.43373
            1848         4.20784
            1849         3.90700
            1850         3.19401
            1851         4.24634
            1852         1.59462
            1853         4.24751
            1854         1.52914
            1855         1.90758
            1856         5.08616
            1857     270.512E-03
            1858     691.459E-03
            1859     53.2851E-03
            1860     169.938E-03
            1861         5.67840
            1862         2.47224
            1863         6.18034
            1864         6.27289
            1865         5.72636
            1866         2.80905
            1867         6.58791
            1868         1.35981
            1869         4.25996
            1870         3.32816
            1871         2.77763
            1872         6.98352
            1873         2.53096
            1874         1.17196
            1875         1.26758
            1876         2.61528
            1877         5.85204
            1878         6.81942
            1879         3.88987
            1880         3.65841
            1881         4.33719
            1882         4.06661
            1883         3.50679
            1884         4.30285
            1885         1.68062
            1886         3.11579
            1887         2.09267
            1888         4.46619
            1889         5.65637
            1890         2.21209
            1891         1.91897
            1892         5.75747
            1893         2.28166
            1894         5.68436
            1895         2.47888
            1896         6.02333
            1897         2.58070
            1898     443.644E-03
            1899         1.46391
            1900         2.50882
            1901         5.71807
            1902         2.28893
            1903         5.45559
            1904         5.43281
            1905         2.15884
            1906         2.61588
            1907         5.75830
            1908         4.69952
            1909         2.07560
            1910         5.09109
            1911         1.97008
            1912         5.10302
            1913         7.27923
            1914     754.367E-03
            1915     163.971E-03
            1916         2.99917
            1917         4.48377
            1918         4.41051
            1919         3.15211
            1920         2.12175
            1921         3.03520
            1922         5.35174
            1923         6.28138
            1924         3.58554
            1925         2.62577
            1926     923.389E-03
            1927     385.735E-03
            1928     79.2251E-03
            1929         5.68127
            1930         2.39931
            1931         6.72406
            1932         5.79249
            1933         2.94070
            1934         7.03237
            1935         1.30862
            1936         2.26123
            1937         1.33675
            1938         6.63444
            1939         3.77414
            1940         3.44567
            1941         4.32212
            1942         3.94457
            1943         3.29666
            1944         4.25837
            1945         1.68887
            1946         2.91797
            1947         1.57889
            1948         4.19701
            1949         4.16341
            1950         4.49168
            1951         4.18576
            1952         4.31026
            1953         4.34113
            1954         5.56241
            1955         2.23389
            1956         5.15600
            1957         1.39086
            1958         3.64632
            1959         3.69916
            1960         5.57756
            1961         3.13056
            1962         1.31442
            1963         1.00888
            1964         4.56662
            1965         6.11080
            1966     981.378E-03
            1967         4.15431
            1968         3.14754
            1969         1.65024
            1970         2.61767
            1971         5.54594
            1972         2.77727
            1973         5.67399
            1974         2.55338
            1975         4.78796
            1976         2.05802
            1977         6.24104
            1978         3.52149
            1979         6.38502
            1980         3.17234
            1981         5.57454
            1982         2.98649
            1983         4.29466
            1984         6.24213
            1985         3.77669
            1986         5.62920
            1987         3.03820
            1988         2.61867
            1989         6.37756
            1990         2.22689
            1991         6.26552
            1992         3.12099
            1993         5.96640
            1994         6.27797
            1995     35.9756E-03
            1996     230.444E-03
            1997         5.57160
            1998         2.27479
            1999         6.00332
            2000         2.35377
            2001         2.00458
            2002         3.04533
            2003         3.67283
            2004         5.82321
            2005         2.63026
            2006         5.29407
            2007         2.73015
            2008         5.51117
            2009         5.66094
            2010         2.54530
            2011         6.70360
            2012     241.719E-03
            2013     938.457E-03
            2014         2.23055
            2015         5.33422
            2016         5.34503
            2017         2.10898
            2018         4.19804
            2019         5.14479
            2020         2.04187
            2021         4.99613
            2022         1.94130
            2023         5.02084
            2024     87.8232E-03
            2025     503.213E-03
            2026         4.57723
            2027         2.87569
            2028         4.54706
            2029         4.40804
            2030         4.52698
            2031         3.30659
            2032         3.02904
            2033         5.20733
            2034         2.63352
            2035         1.62176
            2036     967.852E-03
            2037         1.70312
            2038         3.48301
            2039         3.37813
            2040         4.80052
            2041         3.66517
            2042         3.23860
            2043         4.77743
            2044         1.92268
            2045         2.94188
            2046         1.47731
            2047         4.02125
            2048         4.60260
            2049         4.78909
            2050         4.01615
            2051         4.98646
            2052         3.48276
            2053         4.10563
            2054         1.18657
            2055         5.06085
            2056         5.85238
            2057         6.41988
            2058         3.82604
            2059         3.12246
            2060         2.70626
            2061         5.86095
            2062         2.28904
            2063         3.75559
            2064         3.27950
            2065         2.32603
            2066         5.62647
            2067         3.12937
            2068         5.45633
            2069         6.18612
            2070         5.61406
            2071         2.42348
            2072     705.345E-03
            2073         2.07127
            2074         2.15209
            2075     726.682E-03
            2076         2.60610
            2077         1.23351
            2078         2.99911
            2079         4.10966
            2080         3.00840
            2081         5.61440
            2082         4.30620
            2083         4.20451
            2084         5.62361
            2085         2.83612
            2086         5.33933
            2087         5.34956
            2088         2.99150
            2089         6.13165
            2090         6.60859
            2091         3.02781
            2092         6.01318
            2093         2.84156
            2094         5.93724
            2095         6.24492
            2096         3.91544
            2097         4.09192
            2098         2.32688
            2099         5.66061
            2100         1.99841
            2101         3.28425
            2102         6.36437
            2103         5.73254
            2104         1.89899
            2105         6.08859
            2106         5.49329
            2107         5.56256
            2108         5.80707
            2109         2.49339
            2110         7.61884
            2111         5.47435
            2112         4.33888
            2113         1.88257
            2114         4.71820
            2115         1.79885
            2116         4.73084
            2117         2.87138
            2118         4.84625
            2119         3.99428
            2120         3.02976
            2121         3.13975
            2122         5.47868
            2123         5.12950
            2124         1.60920
            2125     909.414E-03
            2126         3.59674
            2127         3.57414
            2128         4.72442
            2129         3.00709
            2130         4.82017
            2131         1.69744
            2132         1.23645
            2133         3.48088
            2134         4.49300
            2135         4.89014
            2136         5.30691
            2137         3.47179
            2138         4.48701
            2139         4.97300
            2140         3.29162
            2141         4.00901
            2142         2.92777
            2143         2.78855
            2144         1.47298
            2145         5.68589
            2146         5.96733
            2147         2.47822
            2148         5.69842
            2149         2.50077
            2150         2.75823
            2151         5.85673
            2152         2.17718
            2153         2.36997
            2154         3.03065
            2155         3.46848
            2156         5.92415
            2157         2.33075
            2158         5.46296
            2159         2.71996
            2160         6.09116
            2161         3.59377
            2162         3.57469
            2163         5.76475
            2164         2.85921
            2165         2.80740
            2166         5.66338
            2167         5.04874
            2168         2.96290
            2169         6.30242
            2170         5.24146
            2171         2.06798
            2172         2.18308
            2173         5.19360
            2174         3.26303
            2175         3.65153
            2176         5.09387
            2177         3.77422
            2178         2.86876
            2179         2.88437
            2180         5.32708
            2181         3.34250
            2182         2.60091
            2183         5.58417
            2184         5.83001
            2185         5.66897
            2186         1.62002
            2187         5.26196
            2188         2.42076
            2189         5.13321
            2190         7.68460
            2191         2.86654
            2192         2.75058
            2193         4.85358
            2194         3.75453
            2195         3.64842
            2196         1.87883
            2197         2.15575
            2198         1.71826
            2199         5.79504
            2200         5.61505
            2201         2.02456
            2202         6.90386
            2203         5.56054
            2204         5.31164
            2205         5.75453
            2206         2.43993
            2207         3.88788
            2208         5.03797
            2209         5.28882
            2210         1.78168
            2211         1.39850
            2212         4.63073
            2213         3.90844
            2214         5.11820
            2215         5.08862
            2216         3.90158
            2217         5.72105
            2218         2.75445
            2219         5.38927
            2220         2.91194
            2221         2.78317
            2222         1.57986
            2223         2.81902
            2224         5.57524
            2225         2.15869
            2226         2.98528
            2227         3.84057
            2228         5.80092
            2229         5.93869
            2230         5.88922
            2231         2.73053
            2232         6.02468
            2233         5.46825
            2234         2.19302
            2235         2.31657
            2236         5.40786
            2237         3.07791
            2238         3.23729
            2239         1.76130
            2240         2.66629
            2241         3.67001
            2242         2.51345
            2243         2.59494
            2244         6.00994
            2245         5.38375
            2246         3.12506
            2247         3.09063
            2248         2.56862
            2249         2.44218
            2250         5.64661
            2251         1.16300
            2252         5.67015
            2253         2.30388
            2254         5.38640
            2255         3.28678
            2256         3.00335
            2257         3.31598
            2258         2.16158
            2259         5.22465
            2260         2.74215
            2261         5.89949
            2262         2.69361
            2263         2.83835
            2264         3.45427
            2265         2.17860
            2266         3.43923
            2267         2.94133
            2268         1.19344
            2269         3.44123
            2270         5.36352
            2271         5.56718
            2272         3.42973
            2273         3.14562
            2274         6.18698
            2275         5.61344
            2276         2.57829
            2277         5.20239
            2278         2.66244
            2279         5.41840
            2280         5.59057
            2281         1.53776
            2282         2.57138
            2283         5.26143
            2284         9.87703
            2285         2.66311
            2286         2.74447
            2287         4.64300
            2288         5.46924
            2289         6.58086
            2290         5.34743
            2291         5.23201
            2292         2.99700
            2293         2.84345
            2294         2.71988
            2295         2.87630
            2296         4.09487
            2297         5.77749
            2298         5.74248
            2299         2.72533
            2300         5.43827
            2301         2.19001
            2302         2.32156
            2303         5.36170
            2304     942.839E-03
            2305         1.79645
            2306         2.55791
            2307         5.49813
            2308         2.20579
            2309         2.53245
            2310         2.42518
            2311         5.58750
            2312         5.81818
            2313         2.38254
            2314         1.96755
            2315         2.87966
            2316         3.20292
            2317         2.23650
            2318         2.70488
            2319         5.90292
            2320         2.76106
            2321         3.45921
            2322         2.36132
            2323         4.99960
            2324         5.75407
            2325         2.39568
            2326         5.62984
            2327         3.87718
            2328         3.62922
            2329         1.97992
            2330         5.01181
            2331         3.65072
            2332         2.99181
            2333         3.01878
            2334         5.45945
            2335         6.22717
            2336         2.84411
            2337         3.49380
            2338         3.39482
            2339         1.93294
            2340         2.39240
            2341         2.66461
            2342         2.97250
            2343         3.24076
            2344         2.28748
            2345         5.51040
            2346         2.91701
            2347         3.12979
            2348         1.29617
            2349         5.44326
            2350         5.09759
            2351         2.76305
            2352         10.9295
            2353         3.39476
            2354         3.59571
            2355         3.15659
            2356         3.30601
            2357         1.96718
            2358         5.82227
            2359         3.78863
            2360         3.44083
            2361         2.68834
            2362         6.04598
            2363         2.77090
            2364         1.90695
            2365         5.44506
            2366         1.96338
            2367         5.32831
            2368         5.40453
            2369         7.29964
            2370         6.26539
            2371         2.83971
            2372         5.21535
            2373         2.45624
            2374         5.18664
            2375         3.20759
            2376         2.88266
            2377         2.72579
            2378         5.73180
            2379         5.22335
            2380         2.07254
            2381         2.53510
            2382         2.73026
            2383         6.00394
            2384         2.58489
            2385         5.06044
            2386         5.91181
            2387         5.65510
            2388         2.30626
            2389         3.12317
            2390         3.13708
            2391         5.38330
            2392         2.85144
            2393         5.51310
            2394         2.91837
            2395         2.68510
            2396         5.35628
            2397         2.29353
            2398         2.38167
            2399         5.46297
            2400         2.80988
            2401         3.01348
            2402         5.08932
            2403         2.80104
            2404         5.56548
            2405         2.43164
            2406         6.01497
            2407         2.77276
            2408         2.66523
            2409         1.45808
            2410         2.32306
            2411         2.69840
            2412         4.95045
            2413         2.59196
            2414         2.67594
            2415         3.17645
            2416         5.82085
            2417         2.67838
            2418         5.65655
            2419         1.24028
            2420         2.29959
            2421         5.58147
            2422         5.45007
            2423         2.44278
            2424         2.57750
            2425         2.50912
            2426         2.93757
            2427         5.77600
            2428         2.51340
            2429         5.72227
            2430         2.40513
            2431         5.15055
            2432         2.79456
            2433         5.17071
            2434         2.78508
            2435         5.46023
            2436         5.55850
            2437         2.91677
            2438         3.04377
            2439         1.93592
            2440         2.88837
            2441         2.54941
            2442         2.76748
            2443         2.07007
            2444         5.68407
            2445         2.68486
            2446         2.31547
            2447         2.49883
            2448         6.19365
            2449         5.11705
            2450         2.63197
            2451         5.28837
            2452         2.15275
            2453         2.69776
            2454         2.59539
            2455         2.74457
            2456         2.64427
            2457         2.67557
            2458         2.64836
            2459         2.36942
            2460         2.52240
            2461         5.54954
            2462         2.93476
            2463         2.80834
            2464         3.08011
            2465         2.91562
            2466         2.76463
            2467         5.45246
            2468         2.67499
            2469         5.45340
            2470         2.57138
            2471         2.73762
            2472         2.65073
            2473         2.60288
            2474         2.42804
            2475         2.55666
            2476         2.47657
            2477         2.63331
            2478         2.02309
            2479         2.78263
            2480         6.24228
            2481         2.79640
            2482         2.61738
            2483         3.03673
            2484         2.93825
            2485         2.76104
            2486         2.65474
            2487         5.05708
            2488         5.72034
            2489         2.29068
            2490         1.81560
            2491         2.14309
            2492         2.05720
            2493         2.16095
            2494         2.69711
            2495         4.91488
            2496         1.96111
            2497         2.58252
            2498         2.71513
            2499         2.62542
            2500         2.65138
            2501         2.39255
            2502         2.35731
            2503         5.44395
            2504         2.79407
            2505         2.67141
            2506         2.68488
            2507         2.88940
            2508         5.66159
            2509         2.67369
            2510         2.66865
            2511         2.54237
            2512         2.58067
            2513         5.44481
            2514         2.47188
            2515         2.75046
            2516         2.61229
            2517         2.66661
            2518         2.05729
            2519         5.32865
            2520         2.95393
            2521         5.52135
            2522         2.62652
            2523         2.70364
            2524         2.59037
            2525         2.83105
            2526         2.70633
            2527         2.73091
            2528         2.61317
            2529         2.56994
            2530         2.63022
            2531         2.53575
            2532         2.70398
            2533         5.63845
            2534         2.68331
            2535         5.71256
            2536         2.63662
            2537         2.49009
            2538         5.14116
            2539         2.20939
            2540         2.68450
            2541         2.71566
            2542         4.61209
            2543         1.82062
            2544         2.60048
            2545         2.63642
            2546         2.41841
            2547         2.33191
            2548         5.60461
            2549         2.65145
            2550         2.78690
            2551         2.57839
            2552         2.09592
            2553         2.64160
            2554         2.63305
            2555         2.66690
            2556         2.50601
            2557         2.78552
            2558         2.51942
            2559         2.60932
            2560         2.39417
            2561         3.10658
            2562         2.67277
            2563         5.27543
            2564         2.60704
            2565         2.51002
            2566         2.64449
            2567         2.09771
            2568         2.73837
            2569         2.56918
            2570         2.66767
            2571         2.60019
            2572         2.57719
            2573         2.61504
            2574         2.72434
            2575         2.46771
            2576         2.62938
            2577         2.55397
            2578         2.16140
            2579         2.62231
            2580         2.19090
            2581         2.59851
            2582         2.63114
            2583         2.63200
            2584         2.60412
            2585         2.51656
            2586         2.64224
            2587         2.30882
            2588         2.47782
            2589         2.28219
            2590         2.65897
            2591         5.72042
            2592         2.49732
            2593         2.30940
            2594         2.63077
            2595         5.78621
            2596         2.66457
            2597         2.71363
            2598         2.51405
            2599         3.34230
            2600         2.73761
            2601         2.57599
            2602         3.20176
            2603         2.45929
            2604         2.56828
            2605         2.66031
            2606         2.49796
            2607         2.70080
            2608         2.54125
            2609         2.65407
            2610         2.61942
            2611         2.61252
            2612         2.52917
            2613         2.60897
            2614         2.67856
            2615         2.57318
            2616         2.42088
            2617         2.40250
            2618         2.54577
            2619         2.61237
            2620         2.68499
            2621         2.18638
            2622         2.64849
            2623         2.65652
            2624         2.23462
            2625         2.49538
            2626         2.58468
            2627         2.67541
            2628         2.58874
            2629         2.82605
            2630         2.52274
            2631         2.59874
            2632         2.61173
            2633         2.59789
            2634         2.68231
            2635         2.54454
            2636         2.61120
            2637         2.67608
            2638         2.32126
            2639         2.44436
            2640         2.63899
            2641         2.62250
            2642         2.56415
            2643         2.60466
            2644         2.25253
            2645         2.15308
            2646         2.63098
            2647         2.66177
            2648         2.41005
            2649         2.58682
            2650         2.50487
            2651         2.71669
            2652         2.59656
            2653         2.62053
            2654         2.66736
            2655         2.49076
            2656         2.57568
            2657         2.35420
            2658         2.52573
            2659         2.62990
            2660         2.57583
            2661         2.42165
            2662         2.33201
            2663         2.54941
            2664         2.64767
            2665         2.45598
            2666         2.66895
            2667         2.65938
            2668         2.53745
            2669         2.66591
            2670         2.58986
            2671         2.67061
            2672         2.47489
            2673         2.61464
            2674         2.67349
            2675         5.94219
            2676         2.32002
            2677         2.65166
            2678         2.56541
            2679         2.46210
            2680         2.61382
            2681         2.21777
            2682         2.40867
            2683         2.65411
            2684         2.52335
            2685         2.60367
            2686         2.58821
            2687         2.35542
            2688         2.57128
            2689         2.66631
            2690         2.61490
            2691         2.50210
            2692         2.58371
            2693         2.50676
            2694         2.65619
            2695         2.50408
            2696         2.60904
            2697         2.59438
            2698         2.35239
            2699         2.61376
            2700         2.63535
            2701         2.65185
            2702         2.27735
            2703         2.66009
            2704         2.59998
            2705         2.63333
            2706         2.66004
            2707         2.64460
            2708         2.45528
            2709         2.67654
            2710         2.63203
            2711         2.60184
            2712         2.39464
            2713         2.63982
            2714         2.63978
            2715         2.33414
            2716         2.62472
            2717         2.65363
            2718         2.47127
            2719         2.64307
            2720         2.43269
            2721         2.23287
            2722         2.62533
            2723         2.63636
            2724         7.53118
            2725         2.64103
            2726     723.766E-03
            2727     251.492E-03
            2728         2.20181
            2729         2.88081
            2730         2.00342
            2731         5.66264
            2732         5.10500
            2733         4.11562
            2734         6.52492
            2735     161.034E-03
            2736     478.114E-03
            2737         2.83562
            2738         1.52216
            2739         7.04605
            2740         2.62670
            2741     478.607E-03
            2742         2.99357
            2743         6.62005
            2744         2.59118
            2745         5.66397
            2746         2.29979
            2747         1.60949
            2748         3.76673
            2749     510.882E-03
            2750         5.95189
            2751         2.56239
            2752         2.45905
            2753         6.41620
            2754         3.06029
            2755     650.684E-03
            2756         3.70812
            2757         1.91454
            2758         5.20980
            2759         5.78736
            2760         5.75307
            2761         5.71175
            2762         5.74558
            2763         6.07100
            2764         6.45337
            2765         6.68166
            2766         6.20756
            2767         4.87382
            2768         3.71953
            2769         3.08562
            2770         2.86567
            2771         2.80437
            2772         2.81133
            2773         2.81867
            2774         2.83175
            2775         2.81531
            2776         2.79389
            2777         2.74634
            2778         2.70066
            2779         2.65908
            2780         2.61975
            2781         2.60064
            2782         2.57037
            2783         2.57745
            2784         2.52417
            2785         2.20003
            2786         1.48571
            2787         1.29178
            2788         2.69559
            2789         3.93744
            2790         4.77911
            2791         5.23693
            2792         5.42902
            2793         5.59927
            2794         5.87153
            2795         6.04765
            2796         5.93551
            2797         5.58438
            2798         4.84170
            2799         4.15770
            2800         3.78375
            2801         3.53142
            2802         3.40647
            2803         3.30859
            2804         3.20727
            2805         3.08306
            2806         3.01374
            2807         2.92006
            2808         2.80678
            2809         2.68939
            2810         2.60609
            2811         2.52125
            2812         2.43308
            2813         2.33348
            2814         2.18670
            2815         1.93773
            2816         1.57400
            2817         1.04647
            2818     390.820E-03
            2819     886.963E-03
            2820         1.99836
            2821         2.92204
            2822         3.90008
            2823         4.45849
            2824         4.89222
            2825         5.30137
            2826         5.54479
            2827         5.66346
            2828         5.63016
            2829         5.40894
            2830         5.22677
            2831         4.80726
            2832         4.60849
            2833         4.29681
            2834         4.10781
            2835         3.95978
            2836         3.69999
            2837         3.48249
            2838         3.29273
            2839         3.10667
            2840         2.89308
            2841         2.68582
            2842         2.52413
            2843         2.37072
            2844         2.22431
            2845         2.01294
            2846         1.72778
            2847         1.42950
            2848         1.06949
            2849     636.777E-03
            2850     248.818E-03
            2851     487.767E-03
            2852         1.23608
            2853         2.07075
            2854         2.95316
            2855         3.66828
            2856         4.37007
            2857         4.96234
            2858         5.38477
            2859         5.69706
            2860         5.99601
            2861         6.16420
            2862         5.98642
            2863         5.71146
            2864         5.51945
            2865         5.24457
            2866         4.94654
            2867         4.60684
            2868         4.32234
            2869         3.90851
            2870         3.63504
            2871         3.38144
            2872         3.04853
            2873         2.70280
            2874         2.46375
            2875         2.22995
            2876         1.95786
            2877         1.70655
            2878         1.39448
            2879         1.08727
            2880     743.299E-03
            2881     437.161E-03
            2882     126.495E-03
            2883     108.431E-03
            2884     547.353E-03
            2885         1.18477
            2886         1.94472
            2887         2.78015
            2888         3.83853
            2889         4.89708
            2890         5.76404
            2891         6.48188
            2892         7.07416
            2893         7.35937
            2894         7.44878
            2895         7.18844
            2896         6.88931
            2897         6.47601
            2898         6.01387
            2899         5.47164
            2900         4.93118
            2901         4.49280
            2902         4.07349
            2903         3.65321
            2904         3.32528
            2905         2.93165
            2906         2.53800
            2907         2.16121
            2908         1.78609
            2909         1.41709
            2910         1.01608
            2911     666.580E-03
            2912     380.732E-03
            2913     153.482E-03
            2914     18.9664E-03
            2915         3.08501
            2916         2.85297
            2917         2.69573
            2918         2.66300
            2919         2.66255
            2920         2.67342
            2921         2.68423
            2922         2.69302
            2923         2.69639
            2924         2.67852
            2925         2.64429
            2926         2.58903
            2927         2.49456
            2928         2.39637
            2929         2.36366
            2930         2.53362
            2931         3.20649
            2932         7.14541
            2933         6.07848
            2934         5.61247
            2935         5.61327
            2936         5.96817
            2937         6.56751
            2938         3.30385
            2939         2.85905
            2940         2.70063
            2941         2.65028
            2942         2.64750
            2943         2.65264
            2944         2.65959
            2945         2.65506
            2946         2.63369
            2947         2.59515
            2948         2.53395
            2949         2.42966
            2950         2.30074
            2951         2.15122
            2952         2.00467
            2953         2.02030
            2954         2.48785
            2955         2.77037
            2956         2.63688
            2957         2.60055
            2958         2.60601
            2959         2.61885
            2960         2.62914
            2961         2.62539
            2962         2.60484
            2963         2.56688
            2964         2.50480
            2965         2.40028
            2966         2.26783
            2967         2.11015
            2968         1.95729
            2969         1.89032
            2970         3.09092
            2971         2.67765
            2972         2.57085
            2973         2.54085
            2974         2.55354
            2975         2.57645
            2976         2.59920
            2977         2.61066
            2978         2.61312
            2979         2.59824
            2980         2.55402
            2981         2.50451
            2982         2.40295
            2983         2.28968
            2984         2.19449
            2985         2.26928
            2986         3.04925
            2987     884.379E-03
            2988         2.39450
            2989         2.62664
            2990         2.46845
            2991         2.43682
            2992         2.44492
            2993         2.48856
            2994         2.52550
            2995         2.56996
            2996         2.61894
            2997         2.66869
            2998         2.71265
            2999         2.72128
            3000         2.70527
            3001         2.69697
            3002         2.67562
            3003         2.73791
            3004         2.88417
            3005         3.47459
            3006         4.98007
            3007         7.64969
            3008         6.68460
            3009         5.86925
            3010         5.52157
            3011         5.46574
            3012         5.64437
            3013         6.07836
            3014         6.09844
            3015         1.74891
            3016         6.65534
            3017         5.65062
            3018         5.32145
            3019         5.27946
            3020         5.54230
            3021     348.737E-03
            3022         1.07897
            3023         1.69588
            3024         1.95604
            3025         2.12917
            3026         2.23026
            3027         2.30356
            3028         2.36981
            3029         2.44777
            3030         2.55034
            3031         2.65452
            3032         2.79008
            3033         2.86031
            3034         2.97590
            3035         3.07446
            3036         3.17182
            3037         3.19156
            3038         3.40244
            3039         3.58213
            3040         4.04529
            3041         4.79242
            3042         5.67195
            3043         6.08422
            3044         6.14483
            3045         5.80980
            3046         5.51620
            3047         5.34365
            3048         5.21703
            3049         4.94959
            3050         4.21329
            3051         2.82092
            3052         1.17133
            3053     187.063E-03
            3054     643.131E-03
            3055         1.09085
            3056         1.41578
            3057         1.73606
            3058         1.96489
            3059         2.08701
            3060         2.22673
            3061         2.37156
            3062         2.55158
            3063         2.73962
            3064         2.94928
            3065         3.13372
            3066         3.32677
            3067         3.52840
            3068         3.79061
            3069         3.95221
            3070         4.18921
            3071         4.36375
            3072         4.84081
            3073         5.10204
            3074         5.50525
            3075         5.75653
            3076         5.74058
            3077         5.52149
            3078         5.28449
            3079         4.91987
            3080         4.53343
            3081         3.90963
            3082         2.90378
            3083         1.88699
            3084     724.544E-03
            3085     99.0327E-03
            3086     412.771E-03
            3087     716.630E-03
            3088         1.02707
            3089         1.35317
            3090         1.63339
            3091         1.82372
            3092         2.12022
            3093         2.33121
            3094         2.58166
            3095         2.89866
            3096         3.21913
            3097         3.46723
            3098         3.75011
            3099         4.07972
            3100         4.42086
            3101         4.77912
            3102         5.09876
            3103         5.44944
            3104         5.69160
            3105         6.04625
            3106         6.06685
            3107         6.03099
            3108         5.80283
            3109         5.45279
            3110         4.95004
            3111         4.36466
            3112         3.66333
            3113         3.00568
            3114         2.09203
            3115         1.14828
            3116     428.169E-03
            3117     15.9858E-03
            3118     139.782E-03
            3119     360.653E-03
            3120     639.948E-03
            3121     988.371E-03
            3122         1.37247
            3123         1.72118
            3124         2.07961
            3125         2.44688
            3126         2.81137
            3127         3.18520
            3128         3.49423
            3129         3.89760
            3130         4.30269
            3131         4.73060
            3132         5.26646
            3133         5.82579
            3134         6.29308
            3135         6.77852
            3136         7.22624
            3137         7.47043
            3138         7.39421
            3139         7.10961
            3140         6.59113
            3141         5.82603
            3142         4.92275
            3143         3.83263
            3144         2.76049
            3145         1.92648
            3146         1.13856
            3147     479.885E-03
            3148     83.1752E-03
            3149         5.54385
            3150         5.21631
            3151         5.04429
            3152         5.03848
            3153         6.73887
            3154         5.78376
            3155         5.32941
            3156         5.18290
            3157         5.46073
            3158         3.00797
            3159         4.20903
            3160     913.064E-03
            3161     55.3827E-03
            3162     10.4993E-03
            3163     318.867E-03
            3164     541.905E-03
            3165     179.190E-03
            3166     42.3477E-03
            3167     23.3546E-03
            3168     28.1323E-03
            3169     213.386E-03
            3170     391.812E-03
            3171     469.051E-03
            3172     515.771E-03
            3173     12.7941E-03
            3174     28.9375E-03
            3175     92.8731E-03
            3176     709.250E-03
            3177     701.983E-03
            3178     505.932E-03
            3179     306.576E-03
            3180     121.946E-03
            3181     51.5753E-03
            3182         1.08306
            3183     992.613E-03
            3184     419.509E-03
            3185     10.8342E-03
            3186     57.6559E-03
            3187     129.912E-03
            3188     188.703E-03
            3189     292.617E-03
            3190     792.576E-03
            3191         1.10465
            3192     326.342E-03
            3193     226.203E-03
            3194     162.037E-03
            3195     94.0695E-03
            3196     22.4489E-03
            3197     26.3135E-03
            3198     48.2522E-03
            3199     40.7943E-03
            3200     750.921E-03
            3201     443.022E-03
            3202     153.431E-03
            3203     293.093E-03
            3204     599.594E-03
            3205     880.375E-03
            3206         2.04462
            3207         3.10968
            3208         3.14647
            3209         1.33879
            3210         2.60753
            3211         3.37978
            3212     719.610E-03
            3213         4.06324
            3214         4.86576
            3215         6.69988
            3216         7.07988
            3217         5.23857
            3218         5.92137
            3219         3.82309
            3220         5.27483
            3221         3.22509
            3222         7.19900
            3223         6.12389
            3224         6.70656
            3225         7.23369
            3226         2.12069
            3227         7.61864
            3228         5.67541
            3229         5.41259
            3230         4.45610
            3231         3.58989
            3232         2.08953
            3233         1.23522
            3234     546.329E-03
            3235     33.4436E-03
            3236     92.3203E-03
            3237     401.092E-03
            3238         1.02522
            3239         1.87399
            3240         2.73618
            3241         2.95303
            3242         3.79136
            3243         4.68595
            3244         5.68838
            3245     150.557E-03
            3246         6.79180
            3247         7.38573
            3248         7.94254
            3249         8.32226
            3250         8.39218
            3251         8.11020
            3252         7.06889
            3253         6.02475
            3254         4.85077
            3255         3.73098
            3256         2.66961
            3257         1.67283
            3258     576.037E-03
            3259     333.929E-03
            3260     886.015E-03
            3261         1.25356
            3262         2.13807
            3263         3.23555
            3264         4.23920
            3265         5.44635
            3266         6.57261
            3267         7.50010
            3268         7.84632
            3269         8.29404
            3270         8.40638
            3271         8.16605
            3272         7.67536
            3273         7.08675
            3274         6.49853
            3275         6.20199
            3276     39.3348E-03
            3277     32.3260E-03
            3278         3.25051
            3279         4.22795
            3280         5.39581
            3281     46.8675E-03
            3282     379.767E-03
            3283     933.481E-03
            3284         2.17191
            3285         6.46215
            3286         7.33401
            3287         8.11521
            3288         2.64767
            3289         3.25368
            3290         8.25619
            3291         8.11103
            3292         7.73941
            3293         7.24193
            3294         6.69396
            3295         6.14155
            3296         4.91776
            3297         4.00424
            3298         3.16781
            3299         2.52097
            3300         1.66018
            3301     846.731E-03
            3302     172.004E-03
            3303     21.7025E-03
            3304         2.23833
            3305     267.435E-03
            3306     699.699E-03
            3307     88.4896E-03
            3308     9.32013E-03
            3309         1.01075
            3310         1.41899
            3311         1.82679
            3312         3.63696
            3313         4.05034
            3314         4.48710
            3315         4.94331
            3316         5.46231
            3317         5.92014
            3318     9.07647E-03
            3319     276.439E-03
            3320     709.986E-03
            3321         1.44662
            3322         2.30566
            3323         3.38396
            3324         4.22816
            3325         5.15937
            3326         5.97374
            3327         6.41474
            3328         6.97233
            3329         7.50250
            3330         7.94573
            3331         8.23732
            3332         8.21987
            3333         7.92660
            3334         7.69131
            3335         6.92910
            3336         5.94704
            3337         4.81912
            3338         3.73815
            3339         2.69551
            3340         1.71041
            3341         1.29485
            3342     617.845E-03
            3343     184.041E-03
            3344     29.6213E-03
            3345         5.74566
            3346         5.19197
            3347         4.71035
            3348         4.26795
            3349         3.83807
            3350         3.44767
            3351         3.05159
            3352         2.85086
            3353         2.44363
            3354         2.03209
            3355         1.62224
            3356         1.21379
            3357     836.321E-03
            3358     534.494E-03
            3359     390.224E-03
            3360     162.946E-03
            3361     30.6953E-03
            3362     20.1115E-03
            3363         3.06828
            3364         1.79888
            3365         1.30926
            3366         6.69515
            3367         2.25499
            3368         7.19079
            3369         6.09084
            3370         6.99566
            3371         4.99550
            3372         3.47548
            3373         2.20831
            3374         6.32742
            3375         3.17203
            3376         5.28357
            3377         6.82436
            3378         5.95429
            3379         7.24942
            3380         2.42721
            3381         6.22433
            3382         1.93247
            3383         4.65021
            3384         6.47520
            3385         1.85814
            3386         1.88480
            3387         6.30073
            3388     520.742E-03
            3389     383.409E-03
            3390     196.914E-03
            3391         1.00681
            3392     229.115E-03
            3393         3.36532
            3394         5.28302
            3395         4.36106
            3396         3.52330
            3397         2.75717
            3398         1.41111
            3399         2.20251
            3400         3.16028
            3401         2.22669
            3402         7.24336
            3403         3.03402
            3404         7.26056
            3405         6.86670
            3406         6.40226
            3407         5.89273
            3408         4.78675
            3409         3.91860
            3410         3.16297
            3411     223.036E-03
            3412     747.814E-03
            3413         4.17488
            3414         4.58807
            3415         5.07315
            3416         5.68924
            3417         6.21992
            3418         7.52382
            3419         7.42083
            3420         7.06746
            3421         7.48971
            3422         7.71358
            3423         7.60117
            3424         7.22498
            3425         6.70174
            3426         3.75081
            3427         3.37531
            3428         3.17757
            3429     768.915E-03
            3430         2.82722
            3431         6.63941
            3432         5.92670
            3433     734.511E-03
            3434         6.03794
            3435         6.45216
            3436         4.73573
            3437         6.59548
            3438         2.11292
            3439         6.26154
            3440         2.98042
            3441         1.58172
            3442         5.13660
            3443         2.33563
            3444         2.83581
            3445         1.15999
            3446         1.19154
            3447         4.42272
            3448         4.41127
            3449         1.53366
            3450         1.58229
            3451     453.342E-03
            3452     475.600E-03
            3453         1.44216
            3454         1.90062
            3455         5.45353
            3456         5.40688
            3457         1.97038
            3458         2.85848
            3459         2.27802
            3460         6.37183
            3461         6.27473
            3462         2.36056
            3463     693.132E-03
            3464     751.244E-03
            3465     209.665E-03
            3466         2.96678
            3467         3.93060
            3468         3.90774
            3469         5.39525
            3470         5.97182
            3471         6.13720
            3472         2.65816
            3473     198.590E-03
            3474     247.756E-03
            3475         6.95271
            3476     48.5132E-03
            3477     56.1489E-03
            3478         1.18346
            3479         3.07526
            3480     408.243E-03
            3481         1.36608
            3482     766.041E-03
            3483     265.097E-03
            3484     967.223E-03
            3485     110.609E-03
            3486     486.694E-03
            3487     155.828E-03
            3488     599.010E-03
            3489         3.00125
            3490     48.7459E-03
            3491     35.5059E-03
            3492     226.684E-03
            3493         6.44249
            3494         6.19457
            3495         1.92599
            3496         1.27328
            3497         5.28132
            3498         1.31840
            3499         3.43437
            3500         5.47320
            3501         3.44706
            3502         5.76041
            3503         5.94520
            3504         6.00384
            3505         2.88506
            3506     902.036E-03
            3507         1.58574
            3508         5.71488
            3509         4.74942
            3510         1.65394
            3511     935.839E-03
            3512         4.46196
            3513         2.61934
            3514         4.94837
            3515         2.62131
            3516         5.90124
            3517         4.45957
            3518         2.92346
            3519         6.23437
            3520     622.493E-03
            3521         6.22120
            3522         1.90270
            3523         1.91180
            3524         6.02340
            3525         5.25496
            3526         4.28672
            3527         1.99988
            3528     663.377E-03
            3529         4.46276
            3530         1.88204
            3531         6.28944
            3532         6.21602
            3533         5.22662
            3534         1.45728
            3535         2.36906
            3536         1.23703
            3537     396.646E-03
            3538         6.03608
            3539     313.475E-03
            3540     974.279E-03
            3541     335.362E-03
            3542         1.04957
            3543         5.97667
            3544         6.57311
            3545         2.23830
            3546         3.94689
            3547         2.33147
            3548         4.12576
            3549         1.97452
            3550     691.720E-03
            3551         6.60689
            3552         5.88675
            3553         1.12869
            3554         1.39647
            3555     440.720E-03
            3556     229.927E-03
            3557         5.19236
            3558         5.18201
            3559     344.213E-03
            3560     119.433E-03
            3561         6.44960
            3562         6.90625
            3563         2.57558
            3564         3.51765
            3565         2.67634
            3566         3.68314
            3567         2.62747
            3568     930.814E-03
            3569     271.683E-03
            3570         6.71737
            3571         6.36918
            3572         6.17237
            3573         6.27965
            3574         6.87369
            3575     715.524E-03
            3576         4.47950
            3577     102.398E-03
            3578         3.04756
            3579         2.67765
            3580     449.922E-03
            3581         4.24091
            3582         2.77127
            3583         3.55086
            3584         7.00955
            3585         6.70375
            3586         3.15683
            3587         2.91490
            3588         3.30717
            3589         3.05689
            3590         2.65085
            3591         6.70775
            3592         6.67569
            3593         3.56103
            3594         3.43239
            3595         2.80701
            3596         4.52351
            3597         2.11762
            3598     822.768E-03
            3599         1.40216
            3600         2.03069
            3601         5.97060
            3602         2.30668
            3603         4.24054
            3604         2.81565
            3605         6.38989
            3606         6.60091
            3607         5.93826
            3608         3.35006
            3609         5.24898
            3610         1.49096
            3611         5.25724
            3612         1.55450
            3613         3.23072
            3614         5.43868
            3615     849.314E-03
            3616         3.23688
            3617         1.76467
            3618         5.59431
            3619         1.85548
            3620         4.38235
            3621     899.856E-03
            3622         1.27244
            3623         4.86039
            3624         2.52555
            3625         4.57248
            3626     405.609E-03
            3627         2.48071
            3628     535.707E-03
            3629         5.80845
            3630         5.38381
            3631         2.08688
            3632         1.60917
            3633         6.03132
            3634         5.55545
            3635         3.98929
            3636         2.18577
            3637     565.878E-03
            3638         4.16030
            3639         1.63340
            3640         4.86133
            3641     261.574E-03
            3642         5.92304
            3643     764.524E-03
            3644     284.889E-03
            3645         6.05213
            3646         2.38895
            3647         6.39422
            3648         3.65251
            3649         2.47595
            3650     900.465E-03
            3651         3.82326
            3652         5.62784
            3653         6.13494
            3654     881.097E-03
            3655         5.46984
            3656     266.267E-03
            3657         1.41710
            3658         6.40770
            3659         6.65289
            3660         2.68033
            3661     438.083E-03
            3662         3.27902
            3663         2.40007
            3664         2.83697
            3665         3.43721
            3666         3.97651
            3667         1.23941
            3668         2.50955
            3669         3.13454
            3670         2.88398
            3671         2.73628
            3672         6.34607
            3673         3.30190
            3674         5.95047
            3675         2.67046
            3676     701.510E-03
            3677         6.70571
            3678         1.98791
            3679         6.54934
            3680         5.72374
            3681         2.93878
            3682         1.04741
            3683         1.78931
            3684         4.71145
            3685         4.99756
            3686         3.24781
            3687     973.740E-03
            3688         6.01805
            3689         6.00197
            3690         2.30243
            3691         2.74040
            3692     495.898E-03
            3693     812.648E-03
            3694     236.719E-03
            3695         2.62481
            3696         5.82598
            3697         2.25632
            3698         1.88155
            3699         5.93835
            3700         2.06524
            3701         1.90964
            3702         2.61963
            3703     679.859E-03
            3704         5.83841
            3705         4.36331
            3706         1.02201
            3707         2.71176
            3708         5.34110
            3709         4.66111
            3710         6.09020
            3711         5.59342
            3712         2.63793
            3713         5.07271
            3714         2.95373
            3715         5.03954
            3716         1.47731
            3717         5.62022
            3718         5.12486
            3719         5.80315
            3720         2.04251
            3721         2.70797
            3722         2.65711
            3723         2.51829
            3724         1.92207
            3725         1.42776
            3726         1.08658
            3727         4.82882
            3728         1.48262
            3729     448.387E-03
            3730     720.053E-03
            3731         1.67980
            3732         3.80436
            3733         6.01020
            3734         5.18393
            3735         1.76855
            3736         4.39895
            3737         1.12910
            3738         4.60065
            3739         3.10068
            3740         2.00975
            3741         4.56234
            3742         5.56918
            3743         4.60096
            3744         2.16592
            3745         5.30155
            3746         3.98233
            3747         2.10592
            3748     762.279E-03
            3749         5.01144
            3750         4.13343
            3751     434.657E-03
            3752         1.45949
            3753         1.37955
            3754         5.76164
            3755         2.01307
            3756         2.09092
            3757         3.09176
            3758         2.98607
            3759         5.35578
            3760         3.81244
            3761         3.16861
            3762     675.048E-03
            3763         1.99323
            3764         2.43937
            3765         4.60772
            3766         3.80738
            3767         5.04259
            3768         1.34955
            3769         2.55905
            3770         5.87679
            3771         3.22193
            3772         2.62022
            3773         2.14591
            3774     408.410E-03
            3775         5.49104
            3776         6.02519
            3777         6.11305
            3778         3.92589
            3779         5.41890
            3780         2.01953
            3781         1.87382
            3782     474.206E-03
            3783         1.30065
            3784         5.50588
            3785         5.76666
            3786         2.75278
            3787         2.45567
            3788         3.95171
            3789         4.70046
            3790         1.44728
            3791         2.60951
            3792         5.04437
            3793         6.21133
            3794         5.90960
            3795         5.74340
            3796         5.79856
            3797     878.909E-03
            3798         5.61731
            3799         5.93267
            3800         3.88146
            3801         2.33510
            3802         3.71263
            3803         5.16774
            3804         5.57539
            3805         5.67323
            3806         5.35378
            3807         5.77453
            3808         2.25927
            3809         2.75210
            3810         2.48612
            3811         3.94158
            3812     929.268E-03
            3813         2.12850
            3814         3.81910
            3815         5.26905
            3816         5.23313
            3817         5.07405
            3818         2.66193
            3819         2.04273
            3820     919.428E-03
            3821         1.91088
            3822         2.55730
            3823         4.81282
            3824         1.90416
            3825         4.27449
            3826         3.52840
            3827         4.79991
            3828         1.29965
            3829         4.07303
            3830         4.72828
            3831         1.80532
            3832         1.27215
            3833         5.11923
            3834         1.64278
            3835     627.850E-03
            3836         1.70774
            3837     608.860E-03
            3838         4.17497
            3839         4.59008
            3840         4.17455
            3841         1.64948
            3842         4.41760
            3843         1.59519
            3844         2.86564
            3845         1.16810
            3846         2.59169
            3847         5.66850
            3848         2.26382
            3849         2.82052
            3850         2.67358
            3851         1.10979
            3852         1.22776
            3853         4.89798
            3854         1.26989
            3855         4.73969
            3856         1.14770
            3857         4.22224
            3858         2.06903
            3859         3.92077
            3860         4.93412
            3861         5.09229
            3862         2.44395
            3863         4.39603
            3864         2.25987
            3865         2.22939
            3866         5.88014
            3867         2.06739
            3868         3.92779
            3869         4.40646
            3870         2.18513
            3871         2.72304
            3872         4.22495
            3873         5.40218
            3874         5.45662
            3875         3.61323
            3876         4.23467
            3877         2.59112
            3878     918.864E-03
            3879         5.33379
            3880         5.06840
            3881         4.13263
            3882         1.91253
            3883         5.44285
            3884         5.36875
            3885         5.12728
            3886         5.17252
            3887     645.957E-03
            3888         5.71150
            3889         1.77795
            3890         5.89508
            3891         5.23027
            3892         2.22472
            3893     793.759E-03
            3894         2.36716
            3895         3.50631
            3896         3.68664
            3897         3.67031
            3898         5.53119
            3899         5.62248
            3900         3.58270
            3901         5.65405
            3902         2.57286
            3903         3.41638
            3904         5.71635
            3905         5.82441
            3906         2.07909
            3907         5.42663
            3908         5.65016
            3909         5.70576
            3910         1.74319
            3911         5.64368
            3912         5.87259
            3913         5.13226
            3914         3.49290
            3915         5.49270
            3916         3.52251
            3917         5.27708
            3918         5.52749
            3919         2.86842
            3920     612.389E-03
            3921         2.67624
            3922         1.34980
            3923         4.24976
            3924         1.81598
            3925         2.61805
            3926     864.208E-03
            3927         4.72766
            3928         4.30671
            3929     831.281E-03
            3930         2.28830
            3931         1.65097
            3932         2.16472
            3933         4.91609
            3934         3.53665
            3935         2.29011
            3936         5.45051
            3937     842.353E-03
            3938         3.69297
            3939         5.22911
            3940         1.20574
            3941         2.31332
            3942         2.18631
            3943         3.79615
            3944         1.18299
            3945         5.10128
            3946         4.01219
            3947         5.81350
            3948         1.78742
            3949         4.35712
            3950         1.85821
            3951         4.08242
            3952         4.51102
            3953         2.70232
            3954         5.13289
            3955         4.58676
            3956         4.07296
            3957         1.36346
            3958         2.07778
            3959         2.30974
            3960         5.70818
            3961         2.63919
            3962         2.75323
            3963         2.23382
            3964         5.31930
            3965         5.59945
            3966         3.26171
            3967         2.57461
            3968         3.42618
            3969         4.75271
            3970         2.52133
            3971         5.61321
            3972         5.01484
            3973         5.60064
            3974         2.92431
            3975         4.82263
            3976         5.22963
            3977         5.73034
            3978         5.34974
            3979         3.83888
            3980         5.45553
            3981         5.62873
            3982         5.48349
            3983         5.40677
            3984         5.44560
            3985         1.97500
            3986         1.13280
            3987         5.62639
            3988         5.30478
            3989         5.73252
            3990         2.14309
            3991         3.55818
            3992         1.95979
            3993         4.73408
            3994         3.28589
            3995         5.60584
            3996         2.02332
            3997         3.23550
            3998         5.28382
            3999         3.80040
            4000         4.15564
            4001         5.12681
            4002         1.93157
            4003         3.45256
            4004         5.44132
            4005         5.24526
            4006         5.45172
            4007         1.58802
            4008         4.13163
            4009         1.62018
            4010         4.55320
            4011         4.30722
            4012         4.54301
            4013     623.848E-03
            4014         2.74789
            4015         1.92725
            4016         4.86064
            4017         3.55656
            4018         3.47778
            4019         1.90382
            4020         2.41798
            4021         3.31798
            4022         5.62576
            4023         4.83538
            4024         2.27105
            4025         5.59936
            4026         2.71091
            4027     824.928E-03
            4028         4.10587
            4029         2.33232
            4030         5.10033
            4031         3.80038
            4032     848.669E-03
            4033         1.75598
            4034         5.17283
            4035         2.11342
            4036         1.47090
            4037         4.53926
            4038         3.54717
            4039         2.24044
            4040         5.33682
            4041         1.13659
            4042         3.70921
            4043         3.78058
            4044         1.47894
            4045         5.00869
            4046         3.96506
            4047         5.40344
            4048         4.38053
            4049         4.04636
            4050         1.80999
            4051         4.53106
            4052         5.62597
            4053         2.60813
            4054         4.20987
            4055         3.29413
            4056         2.48672
            4057         3.45729
            4058         2.19066
            4059         3.25834
            4060         1.64430
            4061         5.66474
            4062         5.71107
            4063         4.89018
            4064         5.53547
            4065         5.03276
            4066         4.64967
            4067         5.69531
            4068         4.51542
            4069         1.94964
            4070         4.98851
            4071         4.29068
            4072         3.97104
            4073         3.36305
            4074         2.50461
            4075         4.54816
            4076         5.40133
            4077         1.68998
            4078         2.07171
            4079         5.46455
            4080         3.09801
            4081         5.48488
            4082         5.75074
            4083         5.29564
            4084         5.11841
            4085         5.45436
            4086         3.21883
            4087         1.76692
            4088         1.50502
            4089         5.74865
            4090         4.21639
            4091         2.59006
            4092         5.40198
            4093         5.19267
            4094         2.17777
            4095         5.69404
            4096         2.35522
            4097         4.73369
            4098         2.18528
            4099         5.75383
            4100         2.07284
            4101         2.02831
            4102         5.50756
            4103         4.03627
            4104         4.45886
            4105         1.48428
            4106         5.90926
            4107         4.41072
            4108         2.60546
            4109         2.43092
            4110         2.36685
            4111         1.94765
            4112         5.02419
            4113         5.44919
            4114         3.47121
            4115         5.36429
            4116         1.38398
            4117         2.34800
            4118         4.04432
            4119         2.20318
            4120         2.47792
            4121         3.14322
            4122         4.86700
            4123         2.32068
            4124         3.66775
            4125         2.37681
            4126         5.17461
            4127         2.08359
            4128         5.18373
            4129         2.31898
            4130         1.70464
            4131         3.50458
            4132         5.75248
            4133         5.72148
            4134         5.49019
            4135         2.67824
            4136         5.72269
            4137         3.98731
            4138         2.41585
            4139         2.22292
            4140         4.03390
            4141         4.83282
            4142         4.73396
            4143     622.390E-03
            4144         3.27307
            4145         5.63976
            4146         3.68370
            4147         1.91240
            4148         3.86204
            4149         2.23758
            4150         2.09318
            4151         2.57512
            4152         2.04688
            4153         5.54210
            4154         2.54622
            4155         4.56679
            4156         5.46447
            4157         4.22109
            4158         4.17487
            4159         1.90596
            4160         2.00052
            4161         2.58860
            4162         5.24377
            4163         3.11254
            4164         2.05904
            4165         3.82611
            4166         5.42623
            4167         4.85162
            4168         4.39140
            4169         2.07680
            4170         1.87758
            4171         5.42348
            4172         5.94067
            4173         2.35184
            4174         2.43807
            4175         5.70579
            4176         5.81252
            4177         1.67853
            4178         3.21194
            4179         5.18904
            4180         2.36549
            4181         3.29524
            4182         1.97022
            4183         2.13740
            4184         3.84560
            4185         3.67032
            4186         3.26129
            4187         2.65892
            4188         3.10006
            4189         3.13774
            4190         2.61067
            4191         2.98416
            4192         4.36232
            4193         5.22389
            4194         5.78195
            4195         5.86834
            4196         2.00425
            4197         2.20977
            4198         2.95286
            4199         6.20164
            4200         2.45044
            4201         2.29942
            4202         3.29076
            4203         2.65979
            4204         2.68186
            4205         5.29187
            4206         2.18251
            4207         2.43813
            4208         2.49782
            4209         5.12626
            4210         2.56634
            4211         2.14566
            4212         2.14412
            4213         2.27074
            4214         1.94684
            4215         5.42701
            4216         2.56801
            4217         6.20482
            4218         3.36625
            4219         2.57321
            4220         3.27924
            4221         3.44093
            4222         3.57473
            4223         2.17883
            4224         3.73989
            4225         2.40395
            4226         2.62902
            4227         6.42093
            4228         3.13871
            4229         2.20047
            4230         3.76083
            4231         2.61393
            4232         3.44863
            4233         4.00001
            4234         3.60495
            4235         2.99165
            4236         2.56506
            4237         3.14262
            4238         2.40494
            4239     795.158E-03
            4240         2.37084
            4241         2.35017
            4242         2.28241
            4243         4.48658
            4244         2.39134
            4245         2.74699
            4246         2.62403
            4247         6.54999
            4248         3.31958
            4249         3.47427
            4250         2.76150
            4251         3.05710
            4252         2.99637
            4253         2.37646
            4254         2.43867
            4255         6.13117
            4256         2.11533
            4257         3.24341
            4258         2.66750
            4259         2.58607
            4260         4.84945
            4261         3.25011
            4262         2.60971
            4263         3.38710
            4264         2.98989
            4265         3.51144
            4266         2.29401
            4267         2.84642
            4268         3.35212
            4269         2.53814
            4270         3.12811
            4271         2.44460
            4272         2.22698
            4273         2.28385
            4274         2.19122
            4275         2.54396
            4276         2.60085
            4277         3.88493
            4278         2.46237
            4279         2.52990
            4280         3.02193
            4281         2.45208
            4282         2.63327
            4283         2.87594
            4284         2.44291
            4285         2.34749
            4286         2.50125
            4287         3.50524
            4288         2.31585
            4289         3.15603
            4290         3.63237
            4291         2.39258
            4292         2.46797
            4293         2.87679
            4294         2.66865
            4295         3.02479
            4296         2.66050
            4297         2.20525
            4298         3.13871
            4299         2.65538
            4300         2.51232
            4301         2.43337
            4302         3.30178
            4303         3.75724
            4304         2.65819
            4305         2.78395
            4306         3.11734
            4307         2.86520
            4308         2.87446
            4309         5.13888
            4310         2.96019
            4311         2.72956
            4312         2.80904
            4313         2.44755
            4314         2.34679
            4315         2.57748
            4316         2.28087
            4317         2.50675
            4318         2.37762
            4319         2.63270
            4320         2.45404
            4321         3.06227
            4322         2.98647
            4323         3.12820
            4324         2.99100
            4325         2.59225
            4326         2.64921
            4327         2.74779
            4328         2.84115
            4329         2.99758
            4330         2.78919
            4331         2.63884
            4332         3.09630
            4333         2.22467
            4334         6.03247
            4335         3.05964
            4336         2.87131
            4337         3.21606
            4338         3.21166
            4339         2.51380
            4340         2.62550
            4341         2.61685
            4342         3.01331
            4343         2.51887
            4344         2.50436
            4345         2.92319
            4346         2.43246
            4347         2.58317
            4348         3.48588
            4349         2.93320
            4350         2.64042
            4351         2.49205
            4352         2.29998
            4353         2.83743
            4354         2.71154
            4355         2.74590
            4356         2.86279
            4357         2.43485
            4358         2.86466
            4359         2.34837
            4360         2.90617
            4361         2.63862
            4362         2.60194
            4363         3.10000
            4364         2.87085
            4365         2.89042
            4366         3.02565
            4367         2.64640
            4368         5.39001
            4369         2.58529
            4370         2.94402
            4371         2.76904
            4372         2.63003
            4373         2.57723
            4374         2.88199
            4375         2.54028
            4376         2.96023
            4377         2.99233
            4378         2.93407
            4379         2.53648
            4380         3.03649
            4381         2.71913
            4382         2.69909
            4383         2.85915
            4384         2.52075
            4385         2.40972
            4386         2.61915
            4387         2.48865
            4388         2.66129
            4389         3.21571
            4390         2.66272
            4391         2.53062
            4392         2.94036
            4393         2.30402
            4394         2.88324
            4395         2.80431
            4396         2.73000
            4397         2.65917
            4398         2.52815
            4399         2.65636
            4400         2.51038
            4401         2.64355
            4402         2.76261
            4403         2.63138
            4404         2.87431
            4405         2.63220
            4406         2.58160
            4407         2.61228
            4408         2.80866
            4409         2.84160
            4410         2.78684
            4411         2.90084
            4412         5.68735
            4413         2.86694
            4414         2.71673
            4415         2.67406
            4416         2.48128
            4417         2.54356
            4418         2.45452
            4419         2.74253
            4420         2.56484
            4421         2.64861
            4422         2.36865
            4423         2.33850
            4424         2.72860
            4425         2.60648
            4426         2.77837
            4427         2.64720
            4428         2.67516
            4429         2.53358
            4430         2.55758
            4431         2.72956
            4432         2.66326
            4433         2.61467
            4434         2.57045
            4435         2.68832
            4436         2.69639
            4437         2.54556
            4438         2.65881
            4439         2.63455
            4440         2.36822
            4441         2.40790
            4442         2.60240
            4443         2.52934
            4444         2.77105
            4445         2.68199
            4446         2.66235
            4447         2.62269
            4448         5.57453
            4449         2.51451
            4450         2.65899
            4451         2.46653
            4452         2.59393
            4453         2.77248
            4454         2.66428
            4455         2.65845
            4456         2.64999
            4457         5.53235
            4458         2.74053
            4459         2.67044
            4460         2.62773
            4461         2.60268
            4462         2.65958
            4463         2.64658
            4464         2.58767
            4465         2.71433
            4466         2.63424
            4467         2.45586
            4468         2.42900
            4469         2.70269
            4470         2.76447
            4471         2.64305
            4472         2.72485
            4473         2.63406
            4474         2.69510
            4475         2.73882
            4476         2.59800
            4477         2.56099
            4478         2.63955
            4479         2.51229
            4480         2.66700
            4481         2.66729
            4482         2.66484
            4483         2.66624
            4484         2.57257
            4485         2.69920
            4486         2.60687
            4487         2.71427
            4488         2.68197
            4489         2.62202
            4490         2.74843
            4491         2.62488
            4492         2.65699
            4493         2.58805
            4494         2.48411
            4495         2.45532
            4496         2.55329
            4497         2.61207
            4498         2.79662
            4499         2.71383
            4500         2.59559
            4501         2.61772
            4502         2.69810
            4503         2.63468
            4504         2.57671
            4505         2.56430
            4506         2.71691
            4507         2.64353
            4508         2.61071
            4509         2.55350
            4510         2.49714
            4511         2.67648
            4512         2.71787
            4513         2.68173
            4514         2.61105
            4515         2.59805
            4516         2.58953
            4517         2.51280
            4518         2.48210
            4519         2.66734
            4520         2.67066
            4521         2.63040
            4522         2.67228
            4523         2.51952
            4524         2.78185
            4525         2.58824
            4526         2.60372
            4527         2.52876
            4528         2.58636
            4529         2.61663
            4530         2.61456
            4531         2.67264
            4532         2.57448
            4533         2.66176
            4534         2.64542
            4535         2.60233
            4536         2.54425
            4537         2.68864
            4538         2.58714
            4539         2.66247
            4540         2.61027
            4541         2.61292
            4542         2.58839
            4543         2.63001
            4544         2.63111
            4545         2.55591
            4546         2.65774
            4547         2.61890
            4548         2.64271
            4549         2.59129
            4550         2.60555
            4551         2.54177
            4552         2.62137
            4553         2.67272
            4554         2.57432
            4555         2.63621
            4556         2.63568
            4557         2.61487
            4558         2.79040
            4559         2.73177
            4560         2.94277
            4561         2.83411
            4562         5.50655
            4563         5.20968
            4564         5.48763
            4565         5.65412
            4566         5.27171
            4567         5.76273
            4568         6.39462
            4569         5.38678
            4570         5.34779
            4571         5.89360
            4572         5.59539
            4573         5.43410
            4574         6.07311
            4575         6.91790
            4576         5.56904
            4577         5.59783
            4578         6.41150
            4579         5.82437
            4580         5.72087
            4581         5.66024
            4582         5.83031
            4583         5.91482
            4584         6.10330
            4585         6.76321
            4586         6.53721
            4587         6.75885
            4588         6.95765
            4589         3.32537
            4590         2.13140
            4591     8.04704E-03
            4592         1.73486
            4593     24.4941E-03
            4594         5.27022
            4595         7.38137
            4596         4.18279
            4597         5.44890
            4598         5.50354
            4599         13.3948
            4600     32.3405E-03
            4601     389.695E-03
            4602     8.13367E-03
            4603         2.30684
            4604     39.0073E-03
            4605         8.83266
            4606         3.94772
            4607     306.980E-03
            4608     24.2594E-03
            4609         2.15704
            4610     11.9559E-03
            4611         4.19896
            4612         4.44148
            4613     68.1454E-03
            4614         3.45631
            4615         2.54618
            4616         13.4899
            4617         6.80017
            4618         7.17622
            4619         7.34154
            4620         7.81415
            4621         7.33633
            4622         7.08971
            4623         6.36103
            4624         6.05586
            4625         6.59855
            4626         6.95616
            4627         6.70243
            4628         7.81078
            4629         8.30790
            4630         7.73917
            4631         7.26016
            4632         8.10553
            4633         7.30498
            4634         7.03900
            4635         7.83512
            4636         7.41776
            4637         6.55967
            4638         6.50115
            4639         6.83808
            4640         2.90636
            4641         2.80825
            4642         2.83908
            4643         3.04031
            4644         3.11922
            4645         3.10830
            4646         3.55802
            4647         3.56531
            4648         3.31153
            4649         3.12821
            4650         3.37958
            4651         4.14046
            4652         3.87958
            4653         3.86111
            4654         4.39351
            4655         3.80265
            4656         3.55973
            4657         4.09574
            4658         4.10230
            4659         4.08941
            4660         3.34286
            4661         3.64966
            4662         2.09975
            4663         2.13820
            4664         2.09436
            4665         2.14140
            4666         2.10533
            4667         2.14606
            4668         3.68758
            4669         3.14377
            4670         2.94134
            4671         2.86408
            4672     8.24675E-03
            4673     4.20012E-03
            4674     3.12797E-03
            4675     3.23980E-03
            4676     2.68904E-03
            4677     2.82459E-03
            4678     8.21399E-03
            4679     9.59087E-03
            4680     5.45973E-03
            4681         2.14030
            4682         2.14992
            4683         2.10185
            4684     16.9882E-03
            4685     17.3324E-03
            4686     21.5220E-03
            4687     20.7028E-03
            4688     19.4204E-03
            4689     16.5074E-03
            4690     20.9514E-03
            4691     22.5448E-03
            4692     16.7567E-03
            4693     17.7289E-03
            4694     17.1270E-03
            4695     4.58816E-03
            4696     8.67156E-03
            4697     10.9409E-03
            4698     16.5049E-03
            4699     16.4027E-03
            4700     15.5549E-03
            4701     16.7444E-03
            4702         1.72609
            4703         1.50033
            4704         1.46226
            4705         1.44832
            4706         1.37672
            4707         1.43151
            4708         2.10178
            4709         2.05863
            4710         2.09548
            4711         2.47352
            4712         3.47269
            4713         2.00045
            4714         3.48699
            4715         2.37604
            4716         4.70313
            4717         1.69112
            4718         1.49419
            4719         2.06837
            4720         1.36592
            4721         1.23586
            4722         1.13387
            4723         1.63639
            4724         1.43323
            4725         3.12515
            4726         2.09961
            4727         2.19337
            4728         2.18185
            4729         2.19129
            4730     37.8291E-03
            4731     36.7254E-03
            4732     44.5230E-03
            4733     40.8537E-03
            4734     45.4874E-03
            4735     38.2961E-03
            4736     38.4476E-03
            4737     39.4164E-03
            4738     38.3721E-03
            4739     28.9154E-03
            4740     40.4590E-03
            4741     37.9980E-03
            4742     28.6255E-03
            4743     39.7759E-03
            4744     18.9194E-03
            4745     10.3581E-03
            4746     17.2694E-03
            4747     27.3091E-03
            4748     25.1603E-03
            4749     26.2134E-03
            4750     29.7469E-03
            4751     21.8620E-03
            4752     9.40314E-03
            4753     15.7466E-03
            4754     16.2696E-03
            4755     8.74624E-03
            4756         6.34369
            4757         7.06633
            4758         5.94771
            4759         6.22204
            4760         4.93885
            4761         5.94588
            4762         6.41212
            4763         5.16864
            4764         3.80944
            4765         3.30342
            4766         3.88163
            4767         4.87277
            4768         5.25771
            4769         3.99272
            4770         3.35342
            4771         4.25371
            4772         4.43283
            4773         5.41987
            4774         3.96198
            4775         2.65024
            4776         2.54595
            4777         3.51250
            4778         2.43558
            4779         3.47261
            4780         2.77361
            4781         4.23867
            4782         4.38049
            4783         4.43580
            4784         4.44031
            4785         4.29584
            4786         4.23788
            4787         5.53588
            4788         5.67160
            4789         5.76116
            4790         5.76157
            4791         5.62392
            4792         5.53704
            4793         5.40603
            4794         5.42332
            4795         5.25470
            4796         5.24984
            4797         5.21568
            4798         5.37344
            4799         5.52665
            4800         5.37618
            4801         5.49999
            4802         5.59531
            4803         5.66183
            4804         5.50649
            4805         5.65082
            4806         5.73006
            4807         6.23126
            4808         5.77537
            4809         5.91767
            4810         5.63570
            4811         5.94545
            4812         5.74809
            4813         5.48652
            4814         5.36187
            4815         5.37265
            4816         5.60785
            4817         12.4223
            4818         10.8950
            4819         12.0289
            4820         11.0211
            4821         12.1373
            4822         11.1115
            4823         11.4281
            4824         13.0365
            4825         11.6027
            4826         12.5794
            4827         11.2814
            4828         12.3942
            4829         13.8384
            4830         14.0892
            4831         13.4091
            4832         12.3632
            4833         11.7966
            4834         12.3087
            4835         11.1755
            4836         11.7265
            4837         2.14181
            4838         2.49833
            4839         2.49629
            4840         2.46105
            4841         2.10711
            4842         2.10613
            4843     38.9876E-03
            4844     40.3104E-03
            4845     45.3225E-03
            4846     44.4779E-03
            4847     40.3566E-03
            4848     37.3319E-03
            4849     33.9762E-03
            4850     37.4474E-03
            4851     38.6193E-03
            4852     35.0588E-03
            4853     40.5598E-03
            4854     9.64573E-03
            4855     12.2947E-03
            4856     16.0882E-03
            4857     17.5148E-03
            4858     25.7139E-03
            4859     11.5116E-03
            4860     9.67049E-03
            4861     9.14382E-03
            4862     45.5193E-03
            4863     47.2929E-03
            4864     43.0738E-03
            4865     25.3176E-03
            4866     25.0641E-03
            4867     18.4697E-03
            4868     13.5744E-03
            4869     39.0269E-03
            4870     46.1415E-03
            4871     491.014E-03
            4872     628.393E-03
            4873     734.762E-03
            4874     725.847E-03
            4875     583.552E-03
            4876     480.789E-03
            4877     9.77514E-03
            4878     5.36095E-03
            4879     2.57040E-03
            4880     6.54091E-03
            4881     10.7200E-03
            4882     9.33318E-03
            4883     2.96522E-03
            4884     3.69678E-03
            4885     3.52229E-03
            4886     9.59197E-03
            4887     5.17846E-03
            4888     9.54306E-03
            4889     4.56218E-03
            4890     5.56640E-03
            4891     18.3377E-03
            4892     22.8822E-03
            4893     19.1774E-03
            4894     25.2917E-03
            4895     20.7708E-03
            4896     23.1416E-03
            4897     13.1744E-03
            4898     18.0799E-03
            4899     18.3004E-03
            4900     18.1232E-03
            4901     18.0445E-03
            4902     19.0264E-03
            4903         2.59123
            4904         2.72095
            4905         1.77313
            4906         1.33420
            4907         1.41146
            4908         2.47029
            4909         3.20946
            4910         3.04342
            4911         2.59168
            4912         2.36934
            4913         2.98582
            4914         2.94410
            4915     364.235E-03
            4916     454.447E-03
            4917     465.505E-03
            4918         8.06848
            4919         4.70330
            4920         4.70815
            4921         3.08568
            4922         5.06938
            4923         5.07767
            4924         1.71701
            4925         1.18354
            4926         1.78755
            4927         1.21087
            4928         1.75107
            4929         1.92671
            4930         2.02899
            4931         1.89204
            4932         3.00937
            4933         2.02765
            4934         2.03611
            4935         2.15245
            4936         2.06908
            4937         2.05997
            4938         1.93889
            4939         1.39170
            4940         1.37170
            4941         1.40407
            4942         1.49519
            4943         1.51663
            4944         1.48344
            4945         1.38413
            4946         1.24531
            4947         1.27455
            4948         1.28219
            4949         1.42179
            4950     50.0730E-03
            4951     55.0082E-03
            4952     105.927E-03
            4953     105.579E-03
            4954     101.612E-03
            4955     44.9175E-03
            4956         8.54386
            4957         8.52494
            4958         8.24425
            4959         8.24974
            4960         8.26703
            4961         8.54424
            4962         1.17477
            4963         1.29586
            4964         1.28881
            4965         1.14945
            4966         1.15695
            4967         3.86754
            4968         3.97519
            4969         3.89709
            4970         3.89756
            4971         3.79066
            4972         3.86794
            4973         1.39604
            4974         1.44422
            4975         1.36047
            4976         1.24752
            4977         1.33041
            4978         5.55456
            4979         5.64550
            4980         5.60438
            4981         5.66574
            4982         5.57781
            4983         5.62097
            4984         5.56287
            4985         5.53475
            4986         5.47610
            4987         5.48245
            4988         5.52324
            4989         5.56749
            4990         5.42318
            4991         5.38150
            4992         5.38223
            4993         5.42560
            4994         5.33342
            4995         3.23336
            4996         3.14290
            4997         3.22831
            4998         3.14177
            4999         3.23103
            5000         3.14566
            5001     356.821E-03
            5002     384.881E-03
            5003     435.715E-03
            5004     370.340E-03
            5005     338.154E-03
            5006     289.224E-03
            5007         3.32748
            5008         3.22608
            5009         3.23521
            5010         3.33121
            5011         3.32283
            5012         2.61167
            5013         2.62850
            5014         2.61027
            5015         2.62975
            5016         2.61232
            5017         2.63016
            5018         5.51765
            5019         5.59329
            5020         5.58763
            5021         5.62779
            5022         5.54293
            5023         5.54621
            5024         5.55804
            5025         5.56695
            5026         5.59995
            5027         5.55858
            5028         5.54695
            5029         5.51178
            5030     23.1298E-03
            5031     41.7250E-03
            5032     64.3698E-03
            5033     61.3806E-03
            5034     36.4133E-03
            5035     20.4231E-03
            5036         5.50847
            5037         5.47753
            5038         5.47854
            5039         5.43569
            5040         5.46778
            5041         5.46661
            5042         5.48384
            5043         5.37997
            5044         5.46114
            5045         5.43587
            5046         5.43983
            5047         5.36109
            5048         5.38298
            5049         5.38890
            5050         5.38843
            5051         5.57681
            5052         5.65360
            5053         5.62095
            5054         5.63513
            5055         5.56467
            5056         2.19447
            5057         2.30322
            5058         2.34748
            5059         2.34698
            5060         2.23694
            5061         2.19459
            5062         5.12545
            5063         4.94020
            5064         5.03109
            5065         4.98478
            5066         5.16743
            5067         5.09371
            5068         5.19495
            5069         5.29581
            5070         5.32805
            5071         5.23353
            5072         5.12693
            5073         5.09376
            5074         2.34360
            5075         2.32344
            5076         2.29407
            5077         2.29737
            5078         2.32243
            5079         2.34588
            5080         2.35341
            5081         2.37852
            5082         2.38334
            5083         2.39017
            5084         2.36450
            5085         2.36148
            5086         2.32244
            5087         2.32608
            5088         2.28002
            5089         2.27684
            5090         2.27978
            5091         5.91666
            5092         5.93513
            5093         5.81604
            5094         5.84099
            5095         5.82568
            5096         5.94282
            5097         2.59014
            5098         2.58883
            5099         2.59394
            5100         2.57345
            5101         2.57476
            5102         2.56869
            5103         4.08756
            5104         3.91459
            5105         4.11813
            5106         4.00419
            5107         4.17890
            5108         3.97432
            5109         4.52152
            5110         4.61890
            5111         4.39304
            5112         4.43207
            5113         4.33548
            5114         4.56149
            5115         4.93507
            5116         5.18588
            5117         4.99563
            5118         5.03793
            5119         4.79387
            5120         4.97899
            5121         5.24898
            5122         5.21332
            5123         5.31296
            5124         5.30562
            5125         5.33155
            5126         5.24309
            5127         5.35145
            5128         5.35124
            5129         5.34230
            5130         5.26709
            5131         5.25557
            5132         5.26749
            5133     15.1954E-03
            5134     23.4994E-03
            5135     11.9342E-03
            5136     43.6692E-03
            5137     14.4562E-03
            5138     28.3264E-03
            5139         5.13328
            5140         5.23249
            5141         5.19597
            5142         5.26100
            5143         5.21661
            5144         5.22730
            5145         5.19700
            5146         5.24273
            5147         5.22673
            5148         4.12182
            5149         4.01577
            5150         3.94230
            5151         3.94385
            5152         4.04870
            5153         4.12371
            5154         4.30353
            5155         4.23360
            5156         4.33556
            5157         4.33583
            5158         4.40831
            5159         4.30330
            5160         5.21063
            5161         5.24837
            5162         5.17019
            5163         5.20674
            5164         5.17365
            5165         5.25299
            5166         2.59946
            5167         2.58905
            5168         2.58215
            5169         2.58793
            5170         2.59793
            5171         2.60423
            5172         5.29069
            5173         5.35026
            5174         5.28260
            5175         5.35093
            5176         5.28220
            5177         5.34512
            5178         5.32516
            5179         5.30526
            5180         5.26320
            5181         5.33043
            5182         5.25419
            5183         2.14316
            5184         2.05890
            5185         2.10675
            5186         2.04536
            5187         2.12629
            5188         2.08394
            5189         2.19773
            5190         2.27562
            5191         2.27154
            5192         2.27032
            5193         2.18648
            5194         2.19241
            5195         5.76835
            5196         5.75500
            5197         5.77260
            5198         5.72779
            5199         5.77408
            5200         5.72618
            5201         5.66837
            5202         5.67134
            5203         5.72415
            5204         5.73387
            5205         5.73021
            5206         5.67206
            5207         2.35492
            5208         2.35469
            5209         2.30738
            5210         2.32015
            5211         2.32064
            5212         2.36602
            5213         2.25999
            5214         2.20760
            5215         2.27981
            5216         2.26785
            5217         2.24706
            5218         2.33019
            5219         2.28147
            5220         2.29192
            5221         2.34176
            5222         2.34106
            5223         5.51545
            5224         5.50918
            5225         5.55246
            5226         1.49030
            5227         1.49921
            5228         1.37020
            5229         1.35782
            5230         1.48779
            5231         1.59517
            5232         1.46615
            5233         1.60693
            5234         1.50320
            5235         1.63254
            5236         4.34520
            5237         4.64449
            5238         4.55653
            5239         4.54698
            5240         4.25211
            5241         4.33317
            5242         1.19972
            5243         1.23600
            5244         1.26805
            5245         1.43793
            5246         1.40093
            5247         1.36719
            5248         4.39521
            5249         4.60268
            5250         4.56316
            5251         4.75373
            5252         4.53690
            5253         4.57724
            5254     141.083E-03
            5255     97.4842E-03
            5256     167.495E-03
            5257     165.143E-03
            5258     213.812E-03
            5259     140.845E-03
            5260         1.48866
            5261         1.39354
            5262         1.40936
            5263         1.44639
            5264         1.53889
            5265         1.52318
            5266         1.66224
            5267         1.62293
            5268         1.60755
            5269         1.73522
            5270         1.61489
            5271         1.67128
            5272         1.56282
            5273         1.67943
            5274         1.43020
            5275         1.44704
            5276         1.34421
            5277         1.40204
            5278         1.38505
            5279         4.24558
            5280         4.42639
            5281         4.39704
            5282         4.59718
            5283         4.40758
            5284         4.43673
            5285         4.24190
            5286         4.21202
            5287         4.39354
            5288         4.04095
            5289         4.09414
            5290         3.95003
            5291         4.14155
            5292         4.08802
            5293         4.44373
            5294         4.45362
            5295         4.26270
            5296         4.07110
            5297         3.94993
            5298         4.08692
            5299         3.96296
            5300         4.08425
            5301         3.94596
            5302         2.64682
            5303         2.64805
            5304         2.65676
            5305         2.66013
            5306         2.65943
            5307         2.65041
            5308         4.08260
            5309         4.06696
            5310         5.20875
            5311         5.15906
            5312         5.06634
            5313         5.15500
            5314         5.20316
            5315         5.29239
            5316         5.23289
            5317         5.37072
            5318         5.26405
            5319         5.33793
            5320         5.30478
            5321         5.28349
            5322         5.16616
            5323         5.30680
            5324         1.94357
            5325         1.84637
            5326         1.82727
            5327         1.86809
            5328         1.96433
            5329         1.97959
            5330         3.58510
            5331         3.70046
            5332         3.40166
            5333         3.48507
            5334         3.35747
            5335         3.66119
            5336         3.60904
            5337         4.01011
            5338         3.92486
            5339         4.06683
            5340         3.66217
            5341         3.74890
            5342         3.50348
            5343         3.35013
            5344         3.44193
            5345         3.62979
            5346         3.92801
            5347         3.84068
            5348         3.54423
            5349         3.88334
            5350         3.26436
            5351         3.58386
            5352         3.59290
            5353         3.86146
            5354         3.53535
            5355         2.95867
            5356         3.05847
            5357         2.82035
            5358         3.09352
            5359         2.99188
            5360         3.22485
            5361         5.64788
            5362         5.65015
            5363         5.45547
            5364         5.33695
            5365         5.33564
            5366         5.51118
            5367         3.28964
            5368         3.31035
            5369         3.03556
            5370         3.00870
            5371         5.49501
            5372         5.55307
            5373         5.58271
            5374         5.58780
            5375         5.52690
            5376         5.50156
            5377         5.56342
            5378         5.51611
            5379         5.55534
            5380         5.51685
            5381         5.48585
            5382         5.49058
            5383         5.46165
            5384         5.48553
            5385         5.48317
            5386     907.384E-03
            5387         1.05742
            5388     940.499E-03
            5389     981.952E-03
            5390     833.658E-03
            5391     948.635E-03
            5392     810.568E-03
            5393     923.306E-03
            5394     870.753E-03
            5395     758.391E-03
            5396     778.920E-03
            5397     742.868E-03
            5398     701.366E-03
            5399     659.081E-03
            5400     747.805E-03
            5401     789.407E-03
            5402     699.112E-03
            5403     667.290E-03
            5404     712.174E-03
            5405     654.640E-03
            5406         4.56295
            5407         4.46386
            5408         4.61862
            5409         4.60933
            5410         4.70382
            5411         4.54890
            5412         4.95583
            5413         4.75120
            5414         4.89140
            5415         4.90749
            5416         4.77357
            5417         5.03324
            5418         4.83439
            5419         4.88690
            5420         4.77648
            5421         4.82241
            5422         4.75940
            5423         4.60109
            5424         4.56274
            5425         4.61787
            5426     8.51819E-03
            5427     30.0934E-03
            5428     21.2021E-03
            5429     48.8109E-03
            5430     19.6579E-03
            5431     27.8919E-03
            5432         4.98983
            5433         4.94274
            5434         4.94545
            5435         5.17804
            5436         4.99310
            5437     572.166E-03
            5438     538.755E-03
            5439     671.920E-03
            5440     625.615E-03
            5441     526.349E-03
            5442         2.08475
            5443         2.12487
            5444         2.12532
            5445     556.983E-03
            5446     459.290E-03
            5447     509.297E-03
            5448     508.361E-03
            5449     609.308E-03
            5450     556.329E-03
            5451     757.061E-03
            5452         2.20530
            5453         2.27310
            5454         2.19154
            5455         2.16955
            5456         2.10421
            5457         2.18362
            5458         2.02853
            5459         2.04322
            5460         2.06233
            5461         2.03107
            5462         2.10585
            5463         2.00056
            5464         1.99892
            5465         1.92335
            5466         2.03036
            5467         5.06601
            5468         5.11178
            5469         5.08311
            5470         5.15581
            5471         5.11473
            5472         5.13004
            5473         5.12478
            5474         5.14016
            5475         5.20127
            5476         5.12898
            5477         5.05414
            5478         5.14850
            5479         5.20485
            5480         5.18811
            5481         5.15974
            5482         5.18024
            5483         5.17029
            5484         5.08266
            5485         5.07127
            5486         5.10772
            5487         5.12197
            5488         5.08432
            5489         2.70405
            5490         2.34561
            5491         2.52572
            5492         2.73429
            5493         2.89051
            5494         2.86029
            5495         2.88289
            5496         2.57502
            5497         2.86356
            5498         2.83897
            5499         3.14594
            5500         2.52822
            5501         2.24494
            5502         2.27059
            5503         2.06608
            5504         2.31754
            5505         5.31557
            5506         5.44526
            5507         5.31931
            5508         5.45513
            5509         5.32480
            5510         5.45173
            5511         5.31289
            5512         5.31668
            5513         5.18874
            5514         3.78854
            5515         3.97538
            5516         3.95815
            5517         3.99592
            5518         3.79843
            5519         3.81292
            5520         4.34279
            5521         4.51272
            5522         4.31145
            5523         4.51254
            5524         4.35392
            5525         4.55360
            5526         4.43431
            5527         4.23825
            5528         4.41027
            5529         5.53201
            5530         5.40248
            5531         4.52298
            5532         4.36049
            5533         4.31896
            5534         4.18702
            5535         4.34898
            5536         4.38548
            5537         1.90269
            5538         1.80708
            5539         1.86379
            5540         1.77178
            5541         1.86733
            5542         1.81150
            5543         2.01782
            5544         2.10033
            5545         2.04387
            5546         2.09712
            5547         2.01439
            5548         2.07896
            5549         5.70457
            5550         5.71329
            5551         5.69285
            5552         5.70181
            5553         5.69504
            5554         5.70856
            5555         5.70667
            5556         5.70311
            5557         5.70969
            5558         5.70757
            5559         5.72170
            5560         5.72192
            5561         5.59998
            5562         5.58128
            5563         5.62301
            5564         5.66183
            5565         5.68323
            5566         5.64178
            5567         5.31165
            5568         5.24827
            5569         5.23836
            5570         5.21968
            5571         5.28406
            5572         5.29075
            5573         5.34459
            5574         5.33595
            5575         5.29005
            5576         5.34486
            5577         5.35164
            5578         5.39479
            5579         4.12183
            5580         4.35830
            5581         4.14928
            5582         4.17594
            5583         3.93099
            5584         4.15106
            5585         1.89505
            5586         1.95246
            5587         1.95405
            5588         2.01078
            5589         1.95403
            5590         1.95132
            5591         1.89608
            5592         1.90438
            5593         1.95057
            5594         1.88970
            5595         1.89046
            5596         1.90627
            5597         1.90306
            5598         1.88799
            5599         1.96368
            5600         2.02475
            5601         1.96671
            5602         1.99148
            5603         1.93474
            5604         1.99077
            5605         2.01760
            5606         2.01434
            5607         2.09473
            5608         2.01213
            5609         2.08611
            5610         2.03408
            5611         2.12719
            5612         2.04001
            5613         2.14978
            5614         2.24762
            5615         2.16472
            5616         2.20843
            5617         2.11526
            5618         2.18639
            5619         2.56626
            5620         2.55538
            5621         2.55344
            5622         2.55706
            5623         2.56780
            5624         2.57244
            5625         5.52562
            5626         5.50005
            5627         5.58564
            5628         5.58189
            5629         5.59912
            5630         5.51531
            5631         5.44029
            5632         5.52996
            5633         5.50373
            5634         5.47236
            5635         5.56081
            5636         5.53602
            5637         5.58884
            5638         5.49850
            5639         2.58081
            5640         2.54699
            5641         2.55571
            5642         2.52211
            5643         2.55558
            5644         2.54683
            5645         2.58428
            5646         2.59531
            5647         2.55960
            5648         2.63132
            5649         2.63465
            5650         2.61948
            5651         2.61563
            5652         2.65756
            5653         2.55054
            5654         2.53177
            5655         2.57509
            5656         2.53876
            5657         2.51345
            5658         2.60584
            5659         2.60129
            5660         2.55561
            5661         2.55487
            5662         1.42064
            5663         1.35739
            5664         1.39596
            5665         1.33603
            5666         1.40011
            5667         1.37013
            5668         1.02508
            5669         1.10206
            5670         1.15791
            5671         1.05749
            5672     923.397E-03
            5673     955.336E-03
            5674     980.731E-03
            5675         1.10743
            5676         1.07501
            5677         1.18456
            5678         1.23889
            5679         1.21802
            5680         5.66930
            5681         5.67187
            5682         5.67830
            5683         3.52809
            5684         3.43263
            5685         3.38044
            5686         3.16785
            5687         3.24490
            5688         3.28861
            5689         3.34319
            5690         3.34718
            5691         3.46629
            5692         3.29256
            5693         3.29571
            5694         3.18059
            5695         2.20388
            5696         2.26427
            5697         2.31708
            5698         2.38897
            5699         2.32487
            5700         2.27323
            5701         2.42615
            5702         2.36662
            5703         2.43647
            5704     522.022E-03
            5705     423.337E-03
            5706     533.437E-03
            5707     436.660E-03
            5708     535.584E-03
            5709     425.197E-03
            5710     627.965E-03
            5711     526.020E-03
            5712     481.493E-03
            5713     580.451E-03
            5714     574.611E-03
            5715     748.540E-03
            5716     852.402E-03
            5717     739.694E-03
            5718     770.351E-03
            5719     666.252E-03
            5720     778.282E-03
            5721         5.91542
            5722         5.81421
            5723         5.91178
            5724         5.84835
            5725         5.97009
            5726         5.85560
            5727     217.786E-03
            5728     363.492E-03
            5729     242.998E-03
            5730     367.272E-03
            5731     224.711E-03
            5732     355.653E-03
            5733         6.12475
            5734         6.05195
            5735         5.98571
            5736         6.04414
            5737         6.10921
            5738         6.20841
            5739         6.22219
            5740         6.29970
            5741     525.156E-03
            5742     621.447E-03
            5743     530.416E-03
            5744     549.406E-03
            5745     454.624E-03
            5746     543.416E-03
            5747     418.293E-03
            5748     332.520E-03
            5749     350.564E-03
            5750     291.135E-03
            5751     375.599E-03
            5752     356.613E-03
            5753     358.273E-03
            5754     275.047E-03
            5755     341.741E-03
            5756     907.794E-03
            5757     975.734E-03
            5758     745.368E-03
            5759     788.253E-03
            5760     720.126E-03
            5761     950.567E-03
            5762     224.009E-03
            5763     249.634E-03
            5764     106.932E-03
            5765         1.28991
            5766         1.39519
            5767         1.24520
            5768         1.49133
            5769         1.39669
            5770         1.53557
            5771         1.07430
            5772         1.12064
            5773         1.02111
            5774     854.694E-03
            5775     427.385E-03
            5776     426.208E-03
            5777     408.745E-03
            5778     362.441E-03
            5779     366.395E-03
            5780     380.092E-03
            5781     390.399E-03
            5782     315.514E-03
            5783     333.845E-03
            5784     352.917E-03
            5785     429.008E-03
            5786     408.613E-03
            5787         1.61850
            5788         1.68049
            5789         1.69587
            5790         1.78273
            5791         1.72139
            5792         1.71293
            5793         1.84871
            5794         1.86267
            5795         2.07679
            5796         1.92338
            5797         1.91052
            5798         2.17260
            5799         2.00699
            5800         1.97954
            5801         2.05885
            5802         2.23259
            5803         2.25239
            5804         2.13596
            5805         1.94363
            5806         2.18780
            5807         1.59595
            5808         1.48871
            5809         1.70663
            5810         1.65746
            5811         1.75640
            5812         1.53942
            5813     463.247E-03
            5814     349.611E-03
            5815         2.14258
            5816         2.28482
            5817         2.27806
            5818         2.34343
            5819         1.60362
            5820         1.49382
            5821     752.938E-03
            5822     694.725E-03
            5823     802.333E-03
            5824     791.853E-03
            5825     853.417E-03
            5826     742.578E-03
            5827     830.655E-03
            5828     800.891E-03
            5829     713.389E-03
            5830     771.919E-03
            5831     889.956E-03
            5832     653.402E-03
            5833     604.897E-03
            5834     665.028E-03
            5835     624.141E-03
            5836         2.55233
            5837         2.56592
            5838         2.55359
            5839         2.55435
            5840         2.54002
            5841     836.401E-03
            5842     844.390E-03
            5843     750.914E-03
            5844     839.543E-03
            5845     924.102E-03
            5846         5.04768
            5847         4.80622
            5848         4.89302
            5849         4.83990
            5850         5.08243
            5851         5.30069
            5852         5.37452
            5853         5.32093
            5854         5.59764
            5855         5.52224
            5856         5.57660
            5857         5.25999
            5858         5.19977
            5859         5.39650
            5860         5.45393
            5861         5.47113
            5862         5.73646
            5863         5.44918
            5864         5.66855
            5865         5.74208
            5866         4.29007
            5867         4.26588
            5868         4.29872
            5869         4.43419
            5870         4.45868
            5871         4.42523
            5872         4.58817
            5873         4.44396
            5874         4.57999
            5875         4.45035
            5876         4.59353
            5877         3.22393
            5878         3.26434
            5879         3.04627
            5880         3.05075
            5881         2.99540
            5882         3.21782
            5883         2.69689
            5884         2.97525
            5885         2.95892
            5886         2.81457
            5887         2.76056
            5888         2.76278
            5889         1.97689
            5890         2.08470
            5891         1.98705
            5892         2.29682
            5893         2.19323
            5894         2.29005
            5895         1.70465
            5896         1.75010
            5897         1.65419
            5898         1.60899
            5899         1.31033
            5900         1.57114
            5901         1.35280
            5902         1.58653
            5903         1.50789
            5904         1.81795
            5905         1.19859
            5906         1.13327
            5907         1.23995
            5908         1.19341
            5909         1.30598
            5910         1.24143
            5911         1.13547
            5912         1.24711
            5913         1.15724
            5914         1.10611
            5915         1.03460
            5916         1.01355
            5917         1.06363
            5918     610.251E-03
            5919     635.063E-03
            5920     606.250E-03
            5921         4.92758
            5922         4.97066
            5923         5.14187
            5924         5.20680
            5925         5.16611
            5926         4.99420
            5927         2.57689
            5928         2.58829
            5929         2.57663
            5930         2.58675
            5931         2.57715
            5932         2.58665
            5933         5.38444
            5934         5.34389
            5935         5.40915
            5936     96.6663E-03
            5937     42.7886E-03
            5938     90.7767E-03
            5939     39.5838E-03
            5940     94.0204E-03
            5941     44.8487E-03
            5942         1.89476
            5943         1.96460
            5944         1.89019
            5945         1.88833
            5946         1.81679
            5947         1.89398
            5948         1.75247
            5949         1.71780
            5950         1.79061
            5951         1.72699
            5952         1.76038
            5953         1.68755
            5954         3.77640
            5955         3.71599
            5956         3.58705
            5957         3.80726
            5958         3.86767
            5959         3.99317
            5960         3.55345
            5961         3.63102
            5962         3.34986
            5963         3.38434
            5964         3.30879
            5965         3.83604
            5966         4.08984
            5967         3.92009
            5968         3.98502
            5969         3.72139
            5970         3.90666
            5971         3.43728
            5972         3.34941
            5973         3.54869
            5974         3.63484
            5975         3.52104
            5976         3.40363
            5977         3.52068
            5978         1.70733
            5979         1.79203
            5980         1.71448
            5981         1.79923
            5982         1.71978
            5983         1.79169
            5984         1.63128
            5985         1.65097
            5986         1.65182
            5987         1.73945
            5988         1.71793
            5989         1.58615
            5990         1.66079
            5991         1.55420
            5992         1.60991
            5993         1.53500
            5994         1.64579
            5995     94.8450E-03
            5996     90.4490E-03
            5997     153.806E-03
            5998         1.55840
            5999         1.53091
            6000         1.45417
            6001         1.41006
            6002         1.44363
            6003         1.51335
            6004         2.03013
            6005         2.28252
            6006         1.69973
            6007         1.72468
            6008         1.43927
            6009         1.45598
            6010         1.43234
            6011         1.71597
            6012         1.75364
            6013         1.76313
            6014         2.32812
            6015         2.02982
            6016         2.29162
            6017         1.99053
            6018         2.29890
            6019         2.02524
            6020         1.26372
            6021         1.33603
            6022         1.46332
            6023         1.90701
            6024         1.67413
            6025         1.70459
            6026         1.52333
            6027         1.74995
            6028         1.71998
            6029         1.31461
            6030         1.35031
            6031         1.75914
            6032         1.52766
            6033         1.64901
            6034         1.60086
            6035         1.83151
            6036     33.7240E-03
            6037     52.4454E-03
            6038         2.27044
            6039         2.12098
            6040         2.08517
            6041         1.92938
            6042         2.07946
            6043         2.11454
            6044         1.62945
            6045         1.86185
            6046         1.75810
            6047         6.29105
            6048         6.00614
            6049         6.23779
            6050         6.16038
            6051         6.46742
            6052         6.21733
            6053         6.52202
            6054         6.34834
            6055         6.60825
            6056     29.9579E-03
            6057     51.4662E-03
            6058     30.6757E-03
            6059         2.80110
            6060         2.74142
            6061         2.78595
            6062         2.73629
            6063         2.79773
            6064         2.75145
            6065         2.89694
            6066         2.95162
            6067         2.90791
            6068         2.89395
            6069         2.84854
            6070         2.89249
            6071         2.79382
            6072         2.87022
            6073         2.74894
            6074         2.81757
            6075         2.73795
            6076         2.86307
            6077         2.62865
            6078         2.61144
            6079         2.66401
            6080         2.58534
            6081         2.60259
            6082         2.54838
            6083         5.47261
            6084         5.22292
            6085         5.43425
            6086         5.31159
            6087         5.56685
            6088         5.34953
            6089         5.48719
            6090         5.23998
            6091         5.27755
            6092         5.66662
            6093         5.79153
            6094         5.92587
            6095         5.82354
            6096         5.69815
            6097         6.03654
            6098         6.17116
            6099         6.13823
            6100         2.58006
            6101         2.56785
            6102         2.58012
            6103         9.22352
            6104         9.01354
            6105         9.03698
            6106         9.00698
            6107         9.21818
            6108         9.19335
            6109         6.83090
            6110         7.20736
            6111         7.02399
            6112         7.43946
            6113         7.05683
            6114         7.23876
            6115         6.55325
            6116         6.90621
            6117         6.74350
            6118         6.97948
            6119         6.62441
            6120         6.77780
            6121         6.30060
            6122         6.41031
            6123         6.21699
            6124         6.44637
            6125         6.78234
            6126         6.76150
            6127         6.43338
            6128         6.46764
            6129         6.26266
            6130         6.09453
            6131         6.25557
            6132         6.29708
            6133         5.93476
            6134         5.90634
            6135         6.04358
            6136         6.59129
            6137         6.74963
            6138         6.74957
            6139         6.43442
            6140         6.29580
            6141         6.30343
            6142         2.52977
            6143         2.52245
            6144         2.50891
            6145         2.52005
            6146         2.52702
            6147         2.53931
            6148         9.21684
            6149         9.03075
            6150         9.22438
            6151         5.89788
            6152         5.96881
            6153         5.89351
            6154         6.01527
            6155         6.01954
            6156         6.11244
            6157         6.12183
            6158         6.00637
            6159         6.66386
            6160         6.24558
            6161         6.52238
            6162         5.58290
            6163         5.88783
            6164         5.69578
            6165         5.97010
            6166         5.65445
            6167         5.84888
            6168         5.43316
            6169         5.77101
            6170         5.62848
            6171         5.28745
            6172         5.36187
            6173     638.396E-03
            6174     482.123E-03
            6175     486.543E-03
            6176     390.054E-03
            6177     531.572E-03
            6178     472.703E-03
            6179     800.329E-03
            6180     966.618E-03
            6181     804.439E-03
            6182     941.475E-03
            6183     771.895E-03
            6184     935.025E-03
            6185     920.079E-03
            6186     816.828E-03
            6187     658.023E-03
            6188     788.345E-03
            6189         2.20228
            6190         2.09436
            6191         1.98305
            6192         2.12568
            6193         2.23534
            6194         2.34598
            6195         2.42884
            6196         2.39581
            6197         2.39360
            6198         3.13947
            6199         2.93937
            6200         3.07322
            6201         3.16042
            6202         3.26747
            6203         2.37937
            6204         2.40932
            6205         2.62049
            6206         2.65590
            6207         2.44551
            6208         2.55044
            6209         2.46396
            6210         2.48657
            6211         2.63115
            6212         2.73225
            6213         2.69142
            6214     731.948E-03
            6215     732.330E-03
            6216     716.099E-03
            6217     642.611E-03
            6218     645.789E-03
            6219     657.659E-03
            6220     662.965E-03
            6221     616.608E-03
            6222     669.619E-03
            6223     721.804E-03
            6224     773.046E-03
            6225     714.729E-03
            6226     624.596E-03
            6227     628.213E-03
            6228     554.310E-03
            6229         4.28131
            6230         4.38450
            6231         4.30091
            6232         4.49286
            6233         4.41622
            6234         4.47323
            6235         4.32703
            6236         4.19377
            6237         4.05354
            6238         3.88134
            6239         4.01165
            6240         4.15260
            6241         1.07591
            6242         1.00805
            6243         1.06967
            6244         1.13195
            6245         1.20927
            6246         1.13785
            6247         1.21588
            6248         1.32828
            6249         1.27606
            6250         1.26784
            6251         1.15464
            6252         8.71559
            6253         8.72807
            6254         1.05260
            6255     947.198E-03
            6256         1.04194
            6257         1.03017
            6258         1.13472
            6259         1.04209
            6260         5.77335
            6261         5.87634
            6262         5.85490
            6263         5.86102
            6264         5.75576
            6265         5.78327
            6266         8.70353
            6267         8.53413
            6268         8.70605
            6269         5.56242
            6270         5.61979
            6271         5.66643
            6272         5.72630
            6273         5.70607
            6274         5.67360
            6275         5.63687
            6276         5.65989
            6277         5.76864
            6278         5.74269
            6279         5.75374
            6280         5.63903
            6281         4.01697
            6282         4.03905
            6283         3.92416
            6284         4.03947
            6285         4.01735
            6286         4.13244
            6287         5.82108
            6288         5.54075
            6289         5.64149
            6290         5.62926
            6291         5.54127
            6292         5.69970
            6293         5.59592
            6294         5.73569
            6295         5.62540
            6296         5.72077
            6297         5.59792
            6298         5.65882
            6299         5.90350
            6300         5.92414
            6301         5.94942
            6302         5.68972
            6303         5.68628
            6304         5.90828
            6305         5.76678
            6306         5.78507
            6307         5.48128
            6308         5.46200
            6309         5.43689
            6310         3.65631
            6311         3.66603
            6312         3.42677
            6313         3.60485
            6314         3.61535
            6315         3.83243
            6316         3.90905
            6317         3.67940
            6318         3.84640
            6319         3.87989
            6320         3.87741
            6321         4.00651
            6322         4.05016
            6323         4.06119
            6324         4.01691
            6325         3.92431
            6326         3.90208
            6327         3.84000
            6328         3.94178
            6329         4.12277
            6330         4.18753
            6331         4.08785
            6332         3.95702
            6333         3.84266
            6334         4.27611
            6335         4.13419
            6336         4.07288
            6337         1.09248
            6338         1.10694
            6339     972.428E-03
            6340         1.04241
            6341         1.02734
            6342         1.17281
            6343         1.23142
            6344         1.10334
            6345         1.16907
            6346         4.06580
            6347         3.97633
            6348         4.06605
            6349         1.45098
            6350         1.33151
            6351         1.35455
            6352         1.28913
            6353         1.41338
            6354         1.38598
            6355     285.213E-03
            6356     353.024E-03
            6357     240.303E-03
            6358     289.296E-03
            6359     221.754E-03
            6360     334.981E-03
            6361         1.22768
            6362         1.28561
            6363         5.30005
            6364         5.20182
            6365         5.22805
            6366         5.12885
            6367         5.23462
            6368         5.20257
            6369         5.40306
            6370         5.36455
            6371         5.30416
            6372         5.27407
            6373         5.35769
            6374         5.26590
            6375         5.15478
            6376         5.14465
            6377         1.22321
            6378         1.18043
            6379         1.00205
            6380         1.00203
            6381         1.05025
            6382         1.22210
            6383         2.99485
            6384         2.98160
            6385         2.87072
            6386         2.87425
            6387         2.89071
            6388         2.99829
            6389         2.81133
            6390         2.82513
            6391         2.82758
            6392         1.32309
            6393         1.61895
            6394         1.35976
            6395         1.52791
            6396         1.22974
            6397         1.48093
            6398         1.30407
            6399         1.06846
            6400         1.34501
            6401         1.33186
            6402         1.16508
            6403         1.11750
            6404         1.01814
            6405         1.18434
            6406     239.423E-03
            6407     249.936E-03
            6408     304.896E-03
            6409     249.168E-03
            6410     181.874E-03
            6411         1.55054
            6412         1.28016
            6413         1.11352
            6414         1.33875
            6415         1.36143
            6416     287.330E-03
            6417     353.599E-03
            6418         3.38775
            6419         3.96047
            6420         3.36728
            6421         3.76967
            6422         3.22179
            6423         3.80342
            6424         2.52333
            6425         2.54024
            6426         2.53317
            6427         2.52516
            6428         2.51161
            6429         2.51411
            6430         2.83758
            6431         3.21303
            6432         3.17416
            6433         3.02600
            6434         2.64675
            6435         2.69464
            6436         3.17437
            6437         2.77066
            6438         2.79287
            6439         3.26880
            6440         3.72297
            6441         3.61731
            6442         6.07191
            6443         6.00820
            6444         6.07659
            6445         6.13264
            6446         6.18995
            6447         6.12781
            6448         6.34914
            6449         6.47856
            6450         6.25418
            6451         6.31214
            6452         6.41108
            6453         6.09777
            6454         6.22223
            6455         6.25326
            6456         6.18476
            6457         6.06273
            6458         6.04624
            6459     436.170E-03
            6460     389.023E-03
            6461     375.505E-03
            6462         6.21373
            6463         6.03901
            6464         6.07126
            6465         6.73340
            6466         6.62227
            6467         6.47590
            6468         6.36900
            6469         6.60438
            6470         6.83885
            6471         6.57479
            6472         6.69414
            6473         5.93106
            6474         6.08157
            6475         6.11621
            6476         6.17612
            6477         6.00454
            6478         5.99365
            6479     55.1459E-03
            6480     33.9369E-03
            6481     41.2925E-03
            6482     31.9888E-03
            6483     54.1410E-03
            6484     46.4167E-03
            6485         1.88096
            6486         1.85813
            6487         2.03685
            6488         2.06946
            6489         2.09077
            6490         1.91060
            6491         2.09340
            6492         2.24998
            6493         2.21974
            6494         2.13656
            6495         1.97061
            6496         1.99697
            6497         2.21723
            6498         2.23987
            6499         2.18974
            6500         5.78072
            6501         5.94179
            6502         5.92508
            6503         5.91596
            6504         5.76602
            6505         5.78329
            6506         5.95325
            6507         6.12838
            6508         6.21128
            6509         6.16947
            6510         6.00244
            6511         5.62906
            6512         5.50315
            6513         5.64093
            6514         5.50230
            6515         5.62931
            6516         5.48991
            6517         6.16072
            6518         6.31051
            6519         6.24737
            6520         6.06919
            6521         6.00236
            6522     52.7387E-03
            6523     39.5015E-03
            6524     56.0055E-03
            6525         6.47480
            6526         6.39715
            6527         6.57169
            6528         3.20354
            6529         2.78641
            6530         3.27387
            6531         3.16785
            6532         3.57380
            6533         3.06043
            6534         3.59883
            6535         3.53640
            6536         3.61548
            6537         4.08611
            6538         4.14609
            6539         4.07042
            6540         6.02165
            6541         6.46573
            6542         6.43394
            6543         6.38064
            6544         5.92849
            6545         6.00078
            6546         5.69251
            6547         5.60667
            6548         5.59947
            6549         6.30649
            6550         6.59607
            6551         6.35687
            6552         6.44431
            6553         6.41442
            6554         6.25884
            6555         6.33794
            6556         6.07115
            6557         5.99545
            6558         5.72928
            6559         5.37820
            6560         5.55724
            6561         5.23734
            6562         5.42956
            6563         5.71345
            6564         5.77482
            6565         5.52338
            6566         5.82148
            6567         5.75117
            6568     937.491E-03
            6569     874.310E-03
            6570     899.471E-03
            6571     964.940E-03
            6572     741.734E-03
            6573         1.67862
            6574         1.47807
            6575         1.64652
            6576     932.704E-03
            6577     749.576E-03
            6578     975.908E-03
            6579         1.18689
            6580     942.247E-03
            6581         6.70205
            6582         6.56607
            6583         6.92805
            6584         6.58086
            6585         6.72040
            6586         6.38982
            6587         6.47609
            6588         6.80347
            6589         6.46734
            6590         6.91939
            6591         6.80859
            6592         6.65836
            6593         6.88211
            6594         6.99674
            6595         7.16865
            6596         7.08104
            6597         7.16903
            6598         5.02392
            6599         5.03000
            6600         5.04202
            6601         5.05729
            6602         5.05144
            6603         5.02930
            6604         2.54231
            6605         2.53991
            6606         2.58912
            6607         2.59529
            6608         2.59025
            6609         2.59628
            6610         2.59412
            6611         2.59604
            6612         5.04642
            6613         5.11083
            6614         5.11695
            6615         5.08062
            6616         5.01684
            6617         5.01972
            6618         2.59068
            6619         2.59767
            6620         2.59189
            6621         2.58685
            6622         2.58268
            6623         2.58542
            6624         5.12374
            6625         5.04920
            6626         5.21047
            6627         5.19311
            6628         5.27378
            6629         3.80766
            6630         3.94128
            6631         4.04902
            6632         4.21864
            6633         4.07361
            6634         3.96375
            6635         3.90731
            6636         3.73505
            6637         3.73810
            6638         3.51099
            6639         3.66436
            6640         3.64862
            6641         4.03755
            6642         4.32234
            6643         4.20774
            6644         4.35345
            6645         4.17959
            6646         2.66039
            6647         2.66709
            6648         2.80685
            6649         2.72877
            6650         2.72668
            6651         2.58479
            6652         2.48159
            6653         2.40298
            6654         2.57756
            6655         2.51381
            6656         2.41536
            6657         1.03556
            6658     863.988E-03
            6659     849.209E-03
            6660     671.446E-03
            6661     824.636E-03
            6662     840.374E-03
            6663         1.28407
            6664         1.29904
            6665         1.06896
            6666         1.05276
            6667         1.31175
            6668     20.2021E-03
            6669     20.4151E-03
            6670     669.207E-03
            6671     817.830E-03
            6672     650.256E-03
            6673     18.7746E-03
            6674     83.0491E-03
            6675     31.3452E-03
            6676     71.5557E-03
            6677     94.3900E-03
            6678     72.4150E-03
            6679     98.0267E-03
            6680     185.188E-03
            6681     96.3667E-03
            6682     183.876E-03
            6683     188.540E-03
            6684     36.9890E-03
            6685     107.254E-03
            6686     112.166E-03
            6687     49.0150E-03
            6688     100.932E-03
            6689     97.5992E-03
            6690     102.894E-03
            6691     48.5976E-03
            6692     51.0402E-03
            6693     26.1595E-03
            6694     22.0461E-03
            6695     48.6753E-03
            6696     48.8798E-03
            6697     53.3364E-03
            6698     26.4221E-03
            6699     53.2477E-03
            6700     18.2050E-03
            6701     20.9531E-03
            6702     18.8345E-03
            6703     53.7749E-03
            6704     48.3101E-03
            6705     34.1355E-03
            6706     79.5976E-03
            6707     56.5669E-03
            6708     111.638E-03
            6709     63.6127E-03
            6710     86.3518E-03
            6711     74.1673E-03
            6712     30.9471E-03
            6713     81.6551E-03
            6714     257.621E-03
            6715     253.077E-03
            6716     339.836E-03
            6717     202.339E-03
            6718     207.410E-03
            6719     128.365E-03
            6720     283.151E-03
            6721     151.179E-03
            6722     83.5490E-03
            6723     207.132E-03
            6724     149.613E-03
            6725     65.2938E-03
            6726     118.362E-03
            6727     137.138E-03
            6728     115.096E-03
            6729     60.3399E-03
            6730     36.2355E-03
            6731     203.901E-03
            6732     123.731E-03
            6733     104.365E-03
            6734     56.9932E-03
            6735     57.9891E-03
            6736     267.382E-03
            6737     185.411E-03
            6738     267.263E-03
            6739     249.225E-03
            6740     317.963E-03
            6741     244.161E-03
            6742     382.701E-03
            6743     373.987E-03
            6744     360.302E-03
            6745     523.473E-03
            6746     541.248E-03
            6747     549.465E-03
            6748     546.359E-03
            6749     733.881E-03
            6750     605.300E-03
            6751     455.099E-03
            6752     610.567E-03
            6753     552.097E-03
            6754     298.668E-03
            6755     294.479E-03
            6756     201.308E-03
            6757     237.046E-03
            6758     239.962E-03
            6759     337.027E-03
            6760     145.510E-03
            6761     101.949E-03
            6762     134.605E-03
            6763     78.2117E-03
            6764     132.084E-03
            6765     87.7559E-03
            6766     265.128E-03
            6767     207.933E-03
            6768     216.569E-03
            6769     15.2154E-03
            6770     28.6438E-03
            6771     12.3645E-03
            6772     12.2102E-03
            6773     22.9169E-03
            6774     38.8918E-03
            6775     42.9801E-03
            6776     43.6286E-03
            6777     35.8813E-03
            6778     6.01918E-03
            6779     6.17702E-03
            6780         2.44299
            6781         2.40212
            6782         2.30119
            6783         2.35434
            6784         2.00123
            6785         4.19099
            6786         4.30238
            6787         4.14322
            6788         7.06444
            6789         7.70460
            6790         7.26767
            6791         7.29057
            6792         6.72231
            6793         7.11686
            6794         3.52215
            6795         3.47173
            6796         3.89312
            6797         3.95911
            6798         4.02866
            6799         3.61356
            6800         3.18532
            6801         3.50772
            6802         3.66002
            6803         3.21683
            6804         3.25665
            6805         3.31012
            6806         2.88444
            6807         2.84129
            6808         2.80420
            6809         3.74632
            6810         4.26560
            6811         3.71600
            6812         3.83373
            6813         3.25645
            6814     34.6503E-03
            6815     42.7615E-03
            6816     33.9088E-03
            6817         2.01599
            6818         2.08480
            6819         2.09353
            6820         2.09313
            6821         2.03154
            6822         2.01558
            6823         1.95998
            6824         1.85890
            6825         1.92949
            6826         1.85986
            6827         1.96026
            6828         1.90068
            6829         6.35573
            6830         6.21893
            6831         6.35462
            6832         6.01937
            6833         6.15585
            6834         6.01857
            6835         6.39308
            6836         6.05157
            6837         6.01039
            6838         6.34921
            6839         6.24464
            6840         6.51176
            6841         6.66222
            6842         6.55742
            6843         7.51756
            6844         7.14442
            6845         7.44425
            6846         7.09789
            6847         7.46848
            6848         7.15519
            6849         7.68371
            6850         7.27477
            6851         7.42822
            6852         7.83414
            6853         7.66946
            6854         7.98886
            6855         8.11024
            6856         7.98627
            6857         7.64145
            6858         7.64357
            6859         8.39853
            6860         8.38056
            6861         7.96924
            6862         8.53042
            6863         1.00780
            6864         1.26753
            6865         1.14585
            6866         1.28959
            6867         1.02736
            6868         1.15808
            6869         1.13533
            6870         1.40134
            6871         1.32532
            6872         1.06218
            6873         1.31583
            6874         1.28224
            6875         2.13155
            6876         2.19253
            6877         2.19614
            6878         2.13520
            6879         2.23450
            6880     20.2271E-03
            6881     29.7087E-03
            6882     9.52007E-03
            6883     20.3677E-03
            6884     48.4238E-03
            6885     19.4138E-03
            6886     22.6883E-03
            6887     16.0228E-03
            6888     21.9203E-03
            6889     22.9354E-03
            6890         2.13117
            6891     20.1014E-03
            6892     18.5737E-03
            6893     21.1761E-03
            6894     32.9430E-03
            6895     20.2408E-03
            6896         2.45784
            6897         2.44845
            6898         2.37349
            6899         2.58498
            6900         2.61112
            6901         2.67040
            6902         1.99975
            6903         2.25641
            6904         2.16105
            6905         2.28907
            6906         2.03122
            6907         2.69912
            6908         2.62887
            6909         2.37123
            6910         2.46952
            6911         2.79069
            6912         1.46930
            6913         1.38808
            6914         1.25671
            6915         1.40172
            6916         1.48600
            6917         1.60759
            6918     38.9876E-03
            6919     21.4313E-03
            6920     18.9033E-03
            6921     24.4119E-03
            6922     24.2797E-03
            6923     6.83201E-03
            6924     67.4616E-03
            6925     67.4932E-03
            6926     112.298E-03
            6927     50.5349E-03
            6928     50.1677E-03
            6929     174.922E-03
            6930     170.972E-03
            6931     146.677E-03
            6932     81.7243E-03
            6933     81.8358E-03
            6934     37.8519E-03
            6935     96.5460E-03
            6936     85.0915E-03
            6937     108.767E-03
            6938     208.058E-03
            6939     231.046E-03
            6940     123.129E-03
            6941     247.739E-03
            6942     766.077E-03
            6943     914.158E-03
            6944     788.055E-03
            6945     544.521E-03
            6946     420.874E-03
            6947     535.195E-03
            6948         2.64658
            6949         2.92153
            6950         2.96694
            6951         3.19830
            6952         2.92589
            6953         2.87709
            6954         2.37963
            6955         2.43033
            6956         2.17190
            6957         2.44375
            6958         2.39684
            6959         7.81794
            6960         8.32006
            6961         8.19728
            6962         8.73421
            6963         8.20128
            6964         8.32108
            6965         7.31416
            6966         7.10449
            6967         7.48965
            6968         7.45747
            6969         7.66419
            6970         7.28586
            6971         6.86732
            6972         7.02118
            6973         7.34892
            6974         7.18827
            6975         7.37599
            6976         7.48809
            6977         7.79122
            6978         8.16708
            6979         8.01863
            6980         8.56928
            6981         8.56083
            6982         7.61101
            6983         7.69744
            6984         8.02781
            6985         7.66402
            6986         7.57763
            6987         7.27665
            6988         7.93018
            6989         8.03161
            6990         7.61021
            6991         5.76886
            6992         5.77012
            6993         5.87045
            6994         6.00978
            6995         6.00887
            6996         5.90840
            6997         5.48426
            6998         5.37818
            6999         5.57803
            7000         5.44454
            7001         5.55230
            7002         5.35195
            7003         5.67944
            7004         5.54083
            7005         5.54841
            7006         5.34588
            7007         5.47438
            7008         5.81576
            7009         5.95882
            7010         5.82947
            7011         6.06119
            7012         5.91588
            7013         6.04583
            7014         4.97229
            7015         4.85255
            7016         5.03782
            7017         4.84998
            7018         4.97042
            7019         4.78807
            7020         5.04520
            7021         5.16967
            7022         5.28550
            7023         5.41119
            7024         5.28409
            7025         5.16910
            7026         5.37690
            7027         5.37715
            7028         5.60014
            7029         5.50367
            7030         5.50308
            7031         5.28507
            7032         5.15930
            7033         5.37719
            7034         4.88247
            7035         4.96318
            7036         4.76084
            7037         4.84170
            7038         4.76119
            7039         4.96341
            7040         4.80096
            7041         5.00037
            7042         4.88338
            7043         5.08694
            7044         4.99967
            7045         4.68428
            7046         4.51884
            7047         4.52100
            7048         4.42727
            7049         4.58499
            7050         4.58394
            7051         4.69929
            7052         4.80113
            7053         4.91733
            7054         4.69963
            7055         4.41064
            7056         4.48234
            7057         4.29330
            7058         4.36531
            7059         4.29378
            7060         4.48291
            7061         4.18157
            7062         4.11668
            7063         4.22714
            7064         4.29245
            7065         4.11575
            7066         2.22733
            7067         2.12574
            7068         4.13934
            7069         4.14609
            7070         4.06738
            7071         3.99691
            7072         3.98982
            7073         4.06885
            7074         4.14670
            7075         4.25685
            7076         4.33917
            7077         4.33835
            7078         4.45415
            7079         4.34183
            7080         4.52589
            7081         4.52306
            7082     221.402E-03
            7083     119.636E-03
            7084     170.019E-03
            7085     170.206E-03
            7086     275.931E-03
            7087     221.017E-03
            7088         2.33660
            7089         2.30314
            7090         2.34072
            7091     403.660E-03
            7092     438.632E-03
            7093         6.27974
            7094         6.13045
            7095         6.14528
            7096         6.14957
            7097         6.29080
            7098         6.29346
            7099         6.11584
            7100         5.98820
            7101         6.11555
            7102         3.54492
            7103         3.55817
            7104         3.54958
            7105         3.44512
            7106         3.43322
            7107         3.44160
            7108         5.84655
            7109         5.85650
            7110         5.74248
            7111         5.87524
            7112         5.86426
            7113         6.11983
            7114         6.15989
            7115         5.90462
            7116         5.77449
            7117         5.89350
            7118         5.75586
            7119         5.42278
            7120         5.41900
            7121         5.49302
            7122         5.51456
            7123         5.52123
            7124         5.44522
            7125     18.8176E-03
            7126     14.7392E-03
            7127         5.44611
            7128         5.44995
            7129         5.38114
            7130         5.36909
            7131         5.47393
            7132         5.38837
            7133         5.39827
            7134         5.32657
            7135         5.41967
            7136         5.39134
            7137         5.40509
            7138         5.31169
            7139         5.34124
            7140         5.32580
            7141         5.42001
            7142         2.66389
            7143         2.66855
            7144         2.66257
            7145         2.66399
            7146         2.66008
            7147         2.66484
            7148         5.26848
            7149         5.27800
            7150     19.2450E-03
            7151     10.2096E-03
            7152         5.20239
            7153         5.18906
            7154         5.15966
            7155         2.37045
            7156         2.24074
            7157         2.05539
            7158         2.27258
            7159         2.39923
            7160         2.58878
            7161         1.93035
            7162         1.78065
            7163         1.90882
            7164         2.03698
            7165         1.76311
            7166         2.36794
            7167         2.19906
            7168         2.48004
            7169         2.47546
            7170         2.64021
            7171         4.67691
            7172         4.43795
            7173         4.69264
            7174         4.62929
            7175         4.86363
            7176         4.61480
            7177         4.86790
            7178         4.92571
            7179         5.15275
            7180         5.14881
            7181         5.14949
            7182         5.08852
            7183         5.25539
            7184         5.08750
            7185         5.33477
            7186         5.17949
            7187         5.40646
            7188         5.66478
            7189         5.82555
            7190         5.50767
            7191         5.66655
            7192         5.40580
            7193         5.51047
            7194         5.41104
            7195         5.66911
            7196         5.55232
            7197         5.90582
            7198         6.15500
            7199         6.08274
            7200         6.08255
            7201         5.90586
            7202         6.26373
            7203         6.26101
            7204         6.48900
            7205         6.49095
            7206         6.16495
            7207         6.81445
            7208         6.81179
            7209         6.70289
            7210         6.98641
            7211         6.74932
            7212         6.80707
            7213         7.05668
            7214         7.49626
            7215         7.47626
            7216         7.25125
            7217         7.64022
            7218         6.99626
            7219         6.82759
            7220         7.02212
            7221         4.29667
            7222         4.19187
            7223         4.19197
            7224         4.29695
            7225         4.18633
            7226         7.16451
            7227         7.30438
            7228         7.45800
            7229         7.27451
            7230         7.13283
            7231         8.79826
            7232         8.21216
            7233         8.19070
            7234         7.79209
            7235         7.59517
            7236         7.75875
            7237         7.31799
            7238         8.20338
            7239         7.83362
            7240         7.87064
            7241         7.75393
            7242         8.19849
            7243         7.45331
            7244         7.83950
            7245         7.88113
            7246         8.28717
            7247         7.82701
            7248         6.28485
            7249         7.08752
            7250         6.82586
            7251         6.66251
            7252         6.62974
            7253         6.55664
            7254         7.20063
            7255         6.80509
            7256         7.03440
            7257         7.45153
            7258         7.15180
            7259         8.39877
            7260         8.01100
            7261         8.01966
            7262         7.68857
            7263         8.04622
            7264         8.03964
            7265         7.36351
            7266         7.56644
            7267         7.53807
            7268         7.33727
            7269         7.53364
            7270         7.55995
            7271         7.20442
            7272         7.59590
            7273         6.83491
            7274         6.65687
            7275         7.02481
            7276         7.88237
            7277         6.71230
            7278         6.53723
            7279         6.77868
            7280         6.95320
            7281         6.65917
            7282         6.96376
            7283         6.63176
            7284         6.68396
            7285         7.02033
            7286         7.54374
            7287         7.87694
            7288         7.94364
            7289         8.30869
            7290         7.95881
            7291         7.88878
            7292         7.38131
            7293         7.03229
            7294         7.25524
            7295         7.06771
            7296         7.41587
            7297         7.19022
            7298         8.22325
            7299         7.86425
            7300         8.24043
            7301         6.61451
            7302         6.36286
            7303         6.64527
            7304         6.76973
            7305         6.73526
            7306         6.77950
            7307         7.15576
            7308         7.18686
            7309         7.21401
            7310         7.50264
            7311         7.46775
            7312         7.33693
            7313         7.56063
            7314         6.37884
            7315         6.13426
            7316         6.45124
            7317         6.54753
            7318         6.80586
            7319         6.47652
            7320         7.04556
            7321         6.67963
            7322         6.67739
            7323         6.89937
            7324         6.99885
            7325         7.00079
            7326         6.77579
            7327         6.67988
            7328         7.44324
            7329         7.81209
            7330         7.58066
            7331         7.93056
            7332         7.56834
            7333         7.79947
            7334         7.23277
            7335         7.56850
            7336         7.57829
            7337         6.39715
            7338         6.42294
            7339         6.75486
            7340         6.74509
            7341         6.71150
            7342         6.38855
            7343         6.89002
            7344         6.69394
            7345         6.50617
            7346         6.30494
            7347         6.49529
            7348         6.68224
            7349         7.03897
            7350         7.07704
            7351         7.04722
            7352         5.00077
            7353         4.97077
            7354         5.23474
            7355         4.96709
            7356         4.99776
            7357         4.74484
            7358         4.29691
            7359         4.50630
            7360         4.28923
            7361         4.50377
            7362         4.43298
            7363         4.65981
            7364         4.43557
            7365         4.90636
            7366         5.17002
            7367         5.13954
            7368         4.56852
            7369         4.39683
            7370         4.56966
            7371         4.39183
            7372         4.56307
            7373         4.38915
            7374         4.73462
            7375         4.55502
            7376         4.55119
            7377         4.38519
            7378         4.55415
            7379         4.55916
            7380         4.90111
            7381         4.89936
            7382         4.74238
            7383         4.74349
            7384         4.11393
            7385         4.22439
            7386         4.08534
            7387         3.94541
            7388         3.99292
            7389         4.50197
            7390         4.64705
            7391         4.44348
            7392         4.58774
            7393         4.44334
            7394         4.64776
            7395         4.22746
            7396         4.23527
            7397         4.16654
            7398         4.05724
            7399         4.04974
            7400         4.11772
            7401         4.00821
            7402         4.01545
            7403         4.00795
            7404         4.50281
            7405         4.63734
            7406         4.29252
            7407         4.63873
            7408         4.50530
            7409         4.85367
            7410         3.69433
            7411         3.58564
            7412         3.76248
            7413         3.76897
            7414         3.89070
            7415         3.70129
            7416         3.92245
            7417         4.02588
            7418         4.03392
            7419         4.50273
            7420         4.29435
            7421         4.15605
            7422         3.79643
            7423         3.91559
            7424         3.96899
            7425         3.96128
            7426         3.89572
            7427         3.81713
            7428         3.82468
            7429         4.52708
            7430         4.18571
            7431         3.61835
            7432         3.50516
            7433         3.62575
            7434         3.62813
            7435         3.74774
            7436         3.62134
            7437         3.89767
            7438         3.79218
            7439         2.73581
            7440         2.81065
            7441         2.73447
            7442         2.82633
            7443         2.75071
            7444         2.82582
            7445         2.63914
            7446         2.52869
            7447         2.54999
            7448         2.53897
            7449         2.64976
            7450         2.63617
            7451         2.81787
            7452         2.74239
            7453         2.84222
            7454         2.74059
            7455         2.72875
            7456         2.43220
            7457         2.43541
            7458         2.43944
            7459         2.53393
            7460         2.52571
            7461         2.44972
            7462         2.51660
            7463         2.51169
            7464         2.47612
            7465         2.40820
            7466         2.42426
            7467         2.53101
            7468         2.59404
            7469         2.53209
            7470         2.61493
            7471         2.63634
            7472         2.34789
            7473         2.36337
            7474         2.35610
            7475         2.39064
            7476         2.37403
            7477         2.35418
            7478         4.83418
            7479         4.65086
            7480         4.83545
            7481     35.7012E-03
            7482     29.6083E-03
            7483     36.4571E-03
            7484     30.5081E-03
            7485     35.3010E-03
            7486     71.5485E-03
            7487         2.33773
            7488         2.33282
            7489         2.24453
            7490         2.25441
            7491         2.26812
            7492     32.1920E-03
            7493     38.2021E-03
            7494     9.14519E-03
            7495         2.40798
            7496         2.42435
            7497         2.34081
            7498         2.65485
            7499         2.64682
            7500         2.65007
            7501         2.64358
            7502         2.65044
            7503         2.64756
            7504     83.5377E-03
            7505     114.378E-03
            7506         2.22541
            7507         2.24386
            7508         2.23170
            7509         2.16723
            7510         2.14662
            7511         2.15949
            7512         2.14937
            7513         2.04916
            7514         2.14535
            7515         2.24036
            7516         2.25265
            7517         2.17649
            7518         2.01598
            7519     45.5045E-03
            7520     95.5760E-03
            7521     46.3223E-03
            7522         1.62908
            7523         1.66604
            7524         1.57096
            7525         1.66405
            7526         1.62764
            7527         1.72231
            7528         1.62844
            7529         1.53138
            7530         1.55826
            7531         1.55712
            7532         1.65196
            7533         1.65063
            7534         1.64565
            7535         1.55399
            7536         1.58966
            7537         1.44744
            7538         1.44950
            7539         1.38385
            7540         1.47138
            7541         1.47026
            7542         1.07596
            7543     968.544E-03
            7544         1.08856
            7545         1.03386
            7546         1.11642
            7547     995.489E-03
            7548     473.768E-03
            7549     493.223E-03
            7550     488.667E-03
            7551     346.243E-03
            7552     328.733E-03
            7553     334.406E-03
            7554         3.50277
            7555         3.41531
            7556         3.54497
            7557         3.44649
            7558         3.53567
            7559         3.40471
            7560     269.065E-03
            7561     223.170E-03
            7562     160.152E-03
            7563     296.974E-03
            7564         3.50349
            7565         3.54625
            7566         3.63548
            7567     185.528E-03
            7568     155.534E-03
            7569     176.815E-03
            7570     88.4817E-03
            7571     94.0742E-03
            7572     667.337E-03
            7573     814.897E-03
            7574     616.635E-03
            7575     866.013E-03
            7576     720.958E-03
            7577     918.589E-03
            7578     375.626E-03
            7579     424.428E-03
            7580     305.948E-03
            7581     313.359E-03
            7582     309.655E-03
            7583     579.150E-03
            7584     580.701E-03
            7585     512.491E-03
            7586     408.992E-03
            7587     406.997E-03
            7588     138.384E-03
            7589     158.616E-03
            7590     66.1158E-03
            7591         3.37589
            7592         3.41389
            7593         3.50267
            7594         3.27993
            7595         3.31751
            7596         3.28051
            7597         2.53426
            7598         2.55155
            7599         2.52716
            7600         2.54696
            7601         2.52668
            7602         2.55128
            7603         4.58462
            7604         4.74944
            7605         4.53608
            7606         4.72395
            7607         4.54367
            7608         4.75670
            7609         4.64519
            7610         4.63439
            7611         4.44712
            7612         2.53515
            7613         2.52884
            7614         2.51147
            7615         4.28060
            7616         4.36404
            7617         4.25598
            7618         3.84779
            7619         3.73669
            7620         3.81001
            7621         3.91966
            7622         4.17553
            7623         4.09031
            7624         5.01745
            7625         5.09341
            7626         5.01283
            7627         4.94387
            7628         4.86093
            7629         4.94805
            7630         5.14955
            7631         5.09281
            7632         5.14723
            7633         5.20406
            7634         5.16377
            7635         5.26966
            7636         5.16054
            7637         5.20366
            7638         5.10196
            7639         2.65567
            7640         2.65484
            7641         2.65609
            7642         2.66073
            7643         2.66069
            7644         5.30009
            7645         5.25303
            7646         5.25368
            7647         5.33261
            7648         5.37770
            7649         5.37945
            7650         5.37515
            7651         5.48791
            7652         5.41323
            7653         5.49230
            7654         5.45541
            7655         5.48436
            7656         5.52659
            7657         5.54986
            7658         5.43035
            7659         5.61763
            7660         5.52897
            7661         5.55906
            7662         5.59846
            7663         5.50869
            7664         5.59745
            7665         5.71090
            7666         5.72966
            7667         5.73457
            7668         5.71008
            7669         5.71263
            7670         3.92381
            7671         4.06410
            7672         3.96820
            7673         2.55702
            7674         2.55159
            7675         2.53557
            7676         5.77034
            7677         5.76771
            7678         5.75216
            7679         5.75171
            7680         5.76714
            7681         5.79345
            7682         5.85880
            7683         5.78713
            7684         5.83456
            7685         5.83997
            7686         5.85143
            7687         5.86145
            7688         5.94500
            7689         5.93375
            7690         2.57365
            7691         2.56957
            7692         2.57267
            7693         5.97553
            7694         6.08057
            7695         5.93172
            7696         5.93975
            7697         5.98524
            7698         6.08157
            7699         5.77643
            7700         5.83046
            7701         5.80044
            7702         5.83185
            7703         5.81644
            7704         5.73420
            7705         5.69908
            7706         5.50140
            7707         5.52648
            7708         5.55561
            7709         5.75531
            7710         5.34013
            7711         5.36777
            7712         5.38768
            7713         5.82643
            7714         5.58350
            7715         5.77184
            7716         5.78763
            7717         6.03470
            7718         5.83840
            7719         5.97780
            7720         5.78729
            7721         5.38321
            7722         5.15208
            7723         5.21808
            7724         5.21277
            7725         5.44672
            7726         5.38146
            7727         4.95412
            7728         5.17891
            7729         4.99359
            7730         5.25827
            7731         5.03273
            7732         5.59647
            7733         5.56257
            7734         5.62851
            7735         5.37102
            7736         5.40464
            7737         5.33955
            7738         5.43182
            7739         5.46154
            7740         5.24419
            7741         4.87617
            7742         4.71022
            7743         4.90163
            7744         5.02786
            7745         5.20132
            7746         5.00160
            7747         4.91379
            7748         5.21641
            7749         4.88833
            7750         4.70712
            7751         4.96001
            7752         4.85637
            7753         4.94603
            7754         4.69084
            7755         4.79427
            7756         4.45186
            7757         4.53838
            7758         4.59352
            7759         4.50868
            7760         4.36298
            7761         4.29444
            7762         4.24098
            7763         4.23470
            7764         4.13500
            7765         4.14147
            7766         4.38079
            7767         5.01497
            7768         4.80444
            7769         5.03724
            7770         4.97132
            7771         5.18724
            7772         4.77050
            7773         4.99298
            7774         4.97606
            7775         4.95250
            7776         4.33397
            7777         4.38781
            7778         4.23593
            7779         4.07990
            7780         4.23503
            7781         4.07570
            7782         4.23201
            7783         4.07817
            7784         4.73359
            7785         4.55269
            7786         4.55220
            7787         4.56517
            7788         4.72771
            7789         4.23272
            7790         4.23254
            7791         3.93494
            7792         3.80321
            7793         3.94225
            7794         3.94070
            7795         3.93293
            7796         3.95429
            7797         3.82680
            7798         3.94672
            7799         3.95922
            7800         4.09257
            7801         3.96713
            7802         3.89797
            7803         3.90639
            7804         4.04388
            7805         1.81147
            7806         1.83820
            7807         1.67270
            7808         1.69095
            7809         1.66879
            7810         1.83044
            7811         3.86377
            7812         3.76046
            7813         3.87479
            7814         3.80452
            7815         3.79320
            7816         3.87702
            7817         3.98622
            7818         3.98990
            7819         3.88132
            7820         4.13105
            7821         4.13848
            7822         3.78529
            7823         3.54575
            7824         3.64830
            7825         3.64068
            7826         3.62488
            7827         3.52130
            7828         3.53071
            7829         3.60545
            7830         3.73174
            7831         3.62169
            7832         3.84737
            7833         3.86564
            7834         3.87522
            7835         3.75851
            7836         3.73939
            7837         3.63924
            7838         3.52200
            7839         3.37776
            7840         3.29445
            7841         3.37697
            7842         3.27826
            7843         3.36146
            7844         3.27894
            7845         3.24538
            7846         3.39599
            7847         3.36009
            7848         3.50853
            7849         3.35105
            7850         3.38763
            7851         3.21127
            7852         3.09331
            7853         3.10121
            7854         3.02342
            7855         3.13964
            7856         3.13150
            7857         2.57311
            7858         2.59439
            7859         2.59851
            7860         2.56239
            7861         2.53953
            7862         2.53800
            7863         2.64049
            7864         2.65700
            7865         2.66832
            7866         2.71288
            7867         2.65342
            7868         2.66579
            7869         2.65289
            7870         2.59358
            7871         2.62090
            7872         2.63855
            7873         2.56719
            7874         2.84842
            7875         2.73415
            7876         2.80336
            7877         2.49230
            7878         2.52735
            7879         2.52535
            7880         2.23369
            7881         2.27982
            7882         2.27998
            7883         2.28632
            7884         2.29148
            7885         2.21844
            7886         2.22565
            7887         2.21866
            7888         2.29110
            7889         2.34395
            7890         2.27758
            7891         2.39100
            7892         2.40448
            7893         2.36912
            7894         2.35373
            7895         2.41765
            7896         2.16076
            7897         2.16858
            7898         2.17728
            7899         2.14979
            7900         2.09882
            7901         2.15684
            7902         1.84080
            7903         1.83579
            7904         1.76940
            7905         1.80987
            7906         1.81440
            7907         1.88151
            7908         1.90871
            7909         1.83727
            7910         1.88598
            7911         1.84212
            7912         1.86722
            7913         2.00194
            7914         1.99818
            7915         1.93073
            7916         1.97704
            7917         1.93411
            7918         1.65942
            7919         1.55339
            7920         1.74178
            7921         1.69213
            7922     834.576E-03
            7923     926.758E-03
            7924     936.993E-03
            7925         1.02803
            7926     935.772E-03
            7927     925.804E-03
            7928     741.102E-03
            7929     622.772E-03
            7930     728.975E-03
            7931     736.429E-03
            7932     629.611E-03
            7933     734.778E-03
            7934     842.919E-03
            7935     723.304E-03
            7936     872.462E-03
            7937     983.116E-03
            7938     959.817E-03
            7939     974.755E-03
            7940     863.483E-03
            7941     893.577E-03
            7942     770.870E-03
            7943     761.550E-03
            7944     809.336E-03
            7945     756.707E-03
            7946     699.496E-03
            7947     827.965E-03
            7948     930.504E-03
            7949     833.341E-03
            7950     817.272E-03
            7951     818.078E-03
            7952         1.00020
            7953     898.916E-03
            7954         1.00157
            7955     970.765E-03
            7956     870.263E-03
            7957     948.026E-03
            7958     90.6853E-03
            7959     56.0807E-03
            7960     65.8914E-03
            7961     66.7169E-03
            7962     102.239E-03
            7963     91.6597E-03
            7964     63.1371E-03
            7965     64.1730E-03
            7966     35.9875E-03
            7967     23.6416E-03
            7968     23.4766E-03
            7969     50.0908E-03
            7970         4.29879
            7971         1.29086
            7972     971.227E-03
            7973         1.02749
            7974     988.431E-03
            7975         1.30622
            7976         1.24892
            7977     986.524E-03
            7978         1.03685
            7979     776.184E-03
            7980     778.644E-03
            7981     724.266E-03
            7982     819.344E-03
            7983     839.142E-03
            7984     745.437E-03
            7985     994.327E-03
            7986     974.669E-03
            7987         1.07290
            7988     660.252E-03
            7989     568.059E-03
            7990     589.490E-03
            7991         1.19791
            7992     970.038E-03
            7993     920.286E-03
            7994     808.588E-03
            7995         1.00684
            7996     924.321E-03
            7997     962.916E-03
            7998     766.824E-03
            7999     600.895E-03
            8000     605.782E-03
            8001     651.783E-03
            8002     600.031E-03
            8003     774.117E-03
            8004     573.614E-03
            8005     619.312E-03
            8006     458.724E-03
            8007         1.80857
            8008         1.74065
            8009         1.49790
            8010         1.07464
            8011         1.23442
            8012     727.870E-03
            8013         1.27862
            8014         1.43080
            8015     813.149E-03
            8016         4.12050
            8017         1.57877
            8018         1.90010
            8019         1.90540
            8020         1.76207
            8021         2.17797
            8022         2.58471
            8023         2.48699
            8024         2.58628
            8025         2.17884
            8026         2.28400
            8027         5.14511
            8028         5.09074
            8029         5.22573
            8030         5.18318
            8031         5.23169
            8032         5.09796
            8033         5.41715
            8034         5.34104
            8035         5.36629
            8036         5.38184
            8037         5.45985
            8038         5.44401
            8039         5.03532
            8040         4.90462
            8041         5.04861
            8042         5.04266
            8043         5.16333
            8044         5.03325
            8045         5.18768
            8046         5.04467
            8047         5.12761
            8048         5.26610
            8049         5.17195
            8050         5.08324
            8051         5.20210
            8052         5.20539
            8053         4.94295
            8054         4.95274
            8055         5.31664
            8056         5.29754
            8057         5.27589
            8058         5.39398
            8059         5.39303
            8060         5.62762
            8061         5.64363
            8062         5.60442
            8063         5.81229
            8064         5.79038
            8065         5.78639
            8066         5.87314
            8067         5.77818
            8068         5.80992
            8069         5.72264
            8070         5.81481
            8071         4.19381
            8072         5.88123
            8073         5.79580
            8074         5.77808
            8075         5.69142
            8076         5.75757
            8077         5.75427
            8078         5.85093
            8079         5.81046
            8080         5.74225
            8081         5.83642
            8082         5.93869
            8083         5.89846
            8084         5.89946
            8085         5.84186
            8086         5.92622
            8087         5.83941
            8088         4.59894
            8089         4.55268
            8090         4.79609
            8091         6.55884
            8092         6.64819
            8093         6.48704
            8094         6.36126
            8095         6.28092
            8096         6.43281
            8097         6.40126
            8098         6.46768
            8099         6.70113
            8100         6.63229
            8101         5.97212
            8102         5.93464
            8103         6.00227
            8104         6.00171
            8105         5.86619
            8106         5.99713
            8107         5.77585
            8108         5.72236
            8109         5.71145
            8110         5.73612
            8111         3.93447
            8112         3.72051
            8113         3.81855
            8114         3.64013
            8115         3.84918
            8116         3.74335
            8117         2.81746
            8118         2.88689
            8119         2.51906
            8120         4.18696
            8121         4.04213
            8122         3.93601
            8123         3.91757
            8124         4.06503
            8125         4.16394
            8126         3.69877
            8127         3.73326
            8128         4.66661
            8129         4.34966
            8130         4.35803
            8131         4.40390
            8132         4.24224
            8133         4.24053
            8134         2.65180
            8135         2.64724
            8136         4.23140
            8137         4.07502
            8138         4.20107
            8139         4.28807
            8140         4.44817
            8141         4.31843
            8142         2.63772
            8143         2.67156
            8144         2.66418
            8145         2.66527
            8146         2.63530
            8147         2.63873
            8148         4.66485
            8149         4.83882
            8150         4.62437
            8151         4.59908
            8152         4.43347
            8153         4.63815
            8154         4.21793
            8155         4.19217
            8156         4.42713
            8157         4.37554
            8158         4.14477
            8159         4.67441
            8160         4.46835
            8161         4.64341
            8162         4.85846
            8163         4.65256
            8164         4.59169
            8165         4.41199
            8166         4.42189
            8167         4.22666
            8168         4.18197
            8169         4.19110
            8170         4.02213
            8171         4.24124
            8172         3.97734
            8173         3.90565
            8174         4.11441
            8175         3.89941
            8176         3.97144
            8177         3.76763
            8178         4.20231
            8179         4.12899
            8180         3.99122
            8181         4.45519
            8182         4.43310
            8183         4.49949
            8184         4.25488
            8185         4.52227
            8186         4.10242
            8187         4.03497
            8188         4.08695
            8189         4.23902
            8190         4.30539
            8191         3.83035
            8192         3.82507
            8193         2.68853
            8194         2.65731
            8195         2.65865
            8196         3.72053
            8197         3.85403
            8198         3.71402
            8199         4.08730
            8200         3.96160
            8201         4.05341
            8202         3.91687
            8203         3.74773
            8204         3.88309
            8205         3.93122
            8206         3.87325
            8207         3.66168
            8208         3.73680
            8209         3.77094
            8210         3.72547
            8211         3.90672
            8212         3.71300
            8213         3.75924
            8214         3.58506
            8215         4.32349
            8216         4.11665
            8217         4.15103
            8218         3.97896
            8219         4.17820
            8220         4.14474
            8221         4.02736
            8222         4.19791
            8223         4.17620
            8224         4.15430
            8225         4.50548
            8226         4.36197
            8227         3.66606
            8228         3.49586
            8229         3.51322
            8230         3.37354
            8231         3.53505
            8232         3.51734
            8233         3.73719
            8234         3.65648
            8235         3.70840
            8236         3.83088
            8237         3.91536
            8238         3.86134
            8239         3.40039
            8240         3.56297
            8241         3.42200
            8242         3.65100
            8243         3.78321
            8244         3.65240
            8245         3.79164
            8246         3.65852
            8247         3.78949
            8248         3.40586
            8249         3.51830
            8250         3.39395
            8251         3.39816
            8252         3.29351
            8253         3.40949
            8254         3.42031
            8255         3.32353
            8256         3.42515
            8257         3.31280
            8258         3.30797
            8259         3.42899
            8260         3.53850
            8261         3.43427
            8262         3.14304
            8263         3.06697
            8264         3.05865
            8265         2.99517
            8266         3.06307
            8267         3.07212
            8268         2.98838
            8269         3.05586
            8270         2.99170
            8271         3.13551
            8272         3.05655
            8273         3.04460
            8274         3.12393
            8275         3.12531
            8276         3.02667
            8277         3.11233
            8278         3.02777
            8279         3.04555
            8280         2.96767
            8281         3.04521
            8282         2.92559
            8283         2.90693
            8284         2.90658
            8285         2.94867
            8286         2.96771
            8287         3.10658
            8288         3.01996
            8289         3.10614
            8290         3.01970
            8291         2.96990
            8292         3.04838
            8293         2.96973
            8294         2.79345
            8295         2.32180
            8296         2.29237
            8297         2.27251
            8298         2.41642
            8299         2.45008
            8300         2.40725
            8301         2.41413
            8302         2.42278
            8303         2.25155
            8304         2.25150
            8305         2.27454
            8306         2.27509
            8307         2.22774
            8308         2.24619
            8309         2.24593
            8310         2.29419
            8311         2.26121
            8312         2.25246
            8313         2.21206
            8314         2.21352
            8315         2.26177
            8316         2.20410
            8317         2.21166
            8318         2.15676
            8319         2.17071
            8320         2.15699
            8321         2.19388
            8322         2.21825
            8323         2.19419
            8324         2.34238
            8325         2.29687
            8326         2.34499
            8327         2.32349
            8328         2.35241
            8329         2.35877
            8330         2.38535
            8331         2.37854
            8332         2.30878
            8333         2.30125
            8334         2.30682
            8335         2.26464
            8336         2.34706
            8337         2.33832
            8338         2.34053
            8339         2.13830
            8340         2.14302
            8341         2.08634
            8342         2.08028
            8343         2.07369
            8344         2.13106
            8345         2.02048
            8346         2.02578
            8347         1.95193
            8348         2.01477
            8349         1.94579
            8350         2.02069
            8351         2.01933
            8352         2.00770
            8353         1.94461
            8354         1.94905
            8355         2.03725
            8356         2.09623
            8357         2.04190
            8358         1.83750
            8359         1.93551
            8360         1.86715
            8361         1.93632
            8362         1.83894
            8363         1.90545
            8364         1.37980
            8365         1.25206
            8366         1.28783
            8367         1.27333
            8368         1.39994
            8369         1.55248
            8370         1.68573
            8371         1.54947
            8372         1.56172
            8373         1.42694
            8374         1.56356
            8375         1.66712
            8376         1.52954
            8377         1.51916
            8378         1.50002
            8379         1.05211
            8380         1.02235
            8381         1.06144
            8382         1.16613
            8383         1.09138
            8384         1.27369
            8385         1.30841
            8386         1.18113
            8387         1.14733
            8388         1.21538
            8389         1.31725
            8390         1.19100
            8391         1.39083
            8392         1.40854
            8393         1.33402
            8394         1.30928
            8395         1.28988
            8396         1.37133
            8397         1.52444
            8398         1.58472
            8399         1.46417
            8400         1.47493
            8401         1.52991
            8402         1.46847
            8403         1.53683
            8404         1.41518
            8405         1.47762
            8406         1.32809
            8407         3.52507
            8408         3.22660
            8409         3.57285
            8410     304.995E-03
            8411     312.816E-03
            8412     219.716E-03
            8413     208.897E-03
            8414     198.961E-03
            8415     292.719E-03
            8416     112.333E-03
            8417     76.0968E-03
            8418     146.569E-03
            8419     86.1426E-03
            8420     121.289E-03
            8421     51.3173E-03
            8422         2.74329
            8423         2.80784
            8424         2.81416
            8425         2.75252
            8426         2.68598
            8427         2.68154
            8428     397.853E-03
            8429     285.717E-03
            8430     64.9906E-03
            8431     122.572E-03
            8432     119.413E-03
            8433     190.710E-03
            8434     128.911E-03
            8435         3.41807
            8436         3.57086
            8437         3.66802
            8438         4.01530
            8439         3.82887
            8440         1.41229
            8441         1.44844
            8442         1.20635
            8443         1.03924
            8444         1.28304
            8445         1.59324
            8446         1.92799
            8447         1.47312
            8448         1.97399
            8449         1.63683
            8450         2.07393
            8451         4.56328
            8452         5.21313
            8453         4.80491
            8454     634.769E-03
            8455     683.742E-03
            8456     634.030E-03
            8457     645.717E-03
            8458     862.182E-03
            8459     912.250E-03
            8460     851.352E-03
            8461     515.390E-03
            8462     411.288E-03
            8463     337.984E-03
            8464         1.22076
            8465         1.02849
            8466     957.179E-03
            8467         1.15160
            8468         1.22548
            8469         7.64086
            8470         8.15043
            8471         6.90517
            8472         7.33528
            8473         6.87837
            8474         8.01987
            8475         1.07980
            8476         1.00639
            8477     548.929E-03
            8478     590.773E-03
            8479     507.847E-03
            8480         1.19855
            8481         1.51625
            8482         1.28795
            8483         1.38731
            8484         1.07260
            8485         1.29838
            8486     410.798E-03
            8487     914.016E-03
            8488     585.914E-03
            8489     624.665E-03
            8490     648.596E-03
            8491     713.468E-03
            8492     660.973E-03
            8493         1.51225
            8494         1.75304
            8495         1.53866
            8496         1.60347
            8497         1.36587
            8498         1.57799
            8499         1.46617
            8500         1.68690
            8501         1.44213
            8502         1.39653
            8503         3.63042
            8504         3.60623
            8505         3.46730
            8506         3.45172
            8507         3.47715
            8508         3.61218
            8509         2.22774
            8510         2.54769
            8511         2.32787
            8512         1.13298
            8513         1.29030
            8514         1.68948
            8515         1.45035
            8516         1.05503
            8517     948.874E-03
            8518     869.295E-03
            8519     964.374E-03
            8520         1.15333
            8521         3.29308
            8522         3.73846
            8523         3.33868
            8524         3.64538
            8525         3.20263
            8526         3.70098
            8527         3.23914
            8528         2.98527
            8529         3.44887
            8530         3.34337
            8531         2.48909
            8532         2.70461
            8533         2.73146
            8534         2.69957
            8535         2.48879
            8536         2.83704
            8537         2.80559
            8538         2.66997
            8539         2.66827
            8540         2.66645
            8541         2.66864
            8542         2.66892
            8543         2.90884
            8544         2.90206
            8545         2.89993
            8546         3.21296
            8547         3.21829
            8548         5.82234
            8549         6.21581
            8550         6.53076
            8551         6.18672
            8552         5.55985
            8553         2.60269
            8554         2.59737
            8555         2.45603
            8556         2.77758
            8557         2.45917
            8558         3.03696
            8559         2.36210
            8560         2.37855
            8561         2.64282
            8562         2.47043
            8563         2.18899
            8564         1.93630
            8565         2.02779
            8566         2.18652
            8567         1.93421
            8568         2.09438
            8569         1.86809
            8570         1.84878
            8571         1.62889
            8572         1.88750
            8573         1.90503
            8574         2.12796
            8575         1.84702
            8576         2.12394
            8577         3.38354
            8578         3.71330
            8579         2.93269
            8580         4.10950
            8581         7.27787
            8582         7.55538
            8583         5.97107
            8584         5.76902
            8585         7.14093
            8586         2.49179
            8587         2.42455
            8588         2.21201
            8589         2.00874
            8590         1.96103
            8591         1.85405
            8592         1.91147
            8593         4.41159
            8594         4.61605
            8595         4.47600
            8596         2.41679
            8597         2.00713
            8598         4.47201
            8599         4.43802
            8600         4.24790
            8601         3.88286
            8602         3.92701
            8603         4.12523
            8604         2.67256
            8605         2.67252
            8606         2.67360
            8607         2.67344
            8608         2.67720
            8609         4.02375
            8610         3.88617
            8611         3.97199
            8612         2.17964
            8613         3.35225
            8614         2.58156
            8615         2.78616
            8616         2.67889
            8617         5.17205
            8618         5.30049
            8619         5.23700
            8620         5.44495
            8621         5.30206
            8622         5.35821
            8623         5.04791
            8624         5.12415
            8625         4.98752
            8626         5.22377
            8627         5.46157
            8628         5.16453
            8629         5.18443
            8630         4.95153
            8631         5.26658
            8632         2.42187
            8633         2.56362
            8634         2.39262
            8635         2.46199
            8636         2.32811
            8637         2.48884
            8638         6.07967
            8639         6.11160
            8640         6.23841
            8641         5.93041
            8642         6.38618
            8643         6.41423
            8644         6.25424
            8645         6.75348
            8646         6.68784
            8647         6.29708
            8648         6.60985
            8649         6.67858
            8650         7.12511
            8651         6.80540
            8652         6.86978
            8653         7.08216
            8654         7.39071
            8655         6.94909
            8656         7.12937
            8657         6.05381
            8658         6.21412
            8659         6.62050
            8660         5.83275
            8661         5.90813
            8662         5.83407
            8663         5.66203
            8664         5.54995
            8665         5.61787
            8666         6.28204
            8667         6.36350
            8668         6.32219
            8669         6.06845
            8670         6.00140
            8671         5.91967
            8672         3.60820
            8673         3.46316
            8674         3.79243
            8675         3.84927
            8676         4.00209
            8677         3.64181
            8678         3.94391
            8679         4.01713
            8680         4.02526
            8681         3.82279
            8682         3.77242
            8683         3.75827
            8684         4.43310
            8685         4.46590
            8686         4.14417
            8687         4.12100
            8688         4.59932
            8689         4.19934
            8690         4.20368
            8691         4.28098
            8692         3.53219
            8693         3.51374
            8694         3.38544
            8695         3.56517
            8696         3.58436
            8697         3.36533
            8698         3.38268
            8699         3.20568
            8700         3.22545
            8701         3.21013
            8702         3.03145
            8703         3.03489
            8704         2.93599
            8705         3.07555
            8706         3.07197
            8707         3.17875
            8708         3.44150
            8709         3.30661
            8710         3.26569
            8711         3.30248
            8712         3.43749
            8713         3.47860
            8714         2.98915
            8715         2.88808
            8716         2.89193
            8717         3.09648
            8718         3.13091
            8719         3.25737
            8720         3.08914
            8721         2.72212
            8722         2.83619
            8723         2.80997
            8724         2.92510
            8725         2.80032
            8726         2.82706
            8727         2.63082
            8728         2.61410
            8729         2.67749
            8730         2.70066
            8731         2.65503
            8732         2.75246
            8733         2.86812
            8734         2.77745
            8735         2.90015
            8736         2.77527
            8737         2.89097
            8738         2.66506
            8739         2.65205
            8740         2.68427
            8741         2.76425
            8742         2.74406
            8743         3.03608
            8744         3.12087
            8745         3.01150
            8746         3.00231
            8747         3.02672
            8748         2.66557
            8749         2.67189
            8750         2.67383
            8751         2.67269
            8752         2.66740
            8753         2.78960
            8754         2.86076
            8755         2.92539
            8756         2.82954
            8757         2.90343
            8758         2.83748
            8759         2.90328
            8760         2.85157
            8761         2.91770
            8762         2.85159
            8763         2.97802
            8764         2.91910
            8765         2.92423
            8766         2.98355
            8767         2.98542
            8768         3.04350
            8769         3.11963
            8770         3.04493
            8771         3.13080
            8772         3.05372
            8773         3.12869
            8774         2.92460
            8775         2.99428
            8776         2.92143
            8777         2.92597
            8778         2.86466
            8779         2.92996
            8780         2.82360
            8781         2.82688
            8782         2.82326
            8783         2.78653
            8784         2.81938
            8785         2.77570
            8786         2.81179
            8787         2.77800
            8788         2.82259
            8789         2.78552
            8790         2.82069
            8791         2.78596
            8792         2.77610
            8793         2.82906
            8794         2.86803
            8795         2.87007
            8796         2.83138
            8797         2.87803
            8798         2.75298
            8799         2.72222
            8800         2.74943
            8801         2.75117
            8802         2.78653
            8803         2.75438
            8804         2.68874
            8805         2.72591
            8806         2.68821
            8807         2.71773
            8808         2.68368
            8809         2.71770
            8810         2.63856
            8811         2.60879
            8812         2.61461
            8813         2.59146
            8814         2.62114
            8815         2.61397
            8816         2.62065
            8817         2.59867
            8818         2.62356
            8819         2.60229
            8820         2.63068
            8821         2.59858
            8822         2.64864
            8823         2.62417
            8824         2.52840
            8825         2.54922
            8826         2.52947
            8827         2.52151
            8828         2.49943
            8829         2.52071
            8830         2.57663
            8831         2.57257
            8832         2.57733
            8833         2.52819
            8834         2.52829
            8835         2.54661
            8836         2.57301
            8837         2.59118
            8838         2.56258
            8839         2.59329
            8840         2.60328
            8841         2.34384
            8842         2.33503
            8843         2.38559
            8844         2.37060
            8845         2.37929
            8846         2.33231
            8847         2.33529
            8848         2.33311
            8849         2.37018
            8850         2.43090
            8851         2.41140
            8852         2.41447
            8853         2.40119
            8854         2.39813
            8855         2.33017
            8856         2.37349
            8857         2.34786
            8858         2.38064
            8859         2.33547
            8860         2.36181
            8861         2.28672
            8862         2.28457
            8863         2.29897
            8864         2.33482
            8865         2.33541
            8866         2.32079
            8867         2.24763
            8868         2.29567
            8869         2.25113
            8870         2.29561
            8871         2.24302
            8872         2.28790
            8873         4.83550
            8874         4.68552
            8875         4.65794
            8876         4.49530
            8877         4.63928
            8878         4.67013
            8879         2.21198
            8880         2.18886
            8881         2.12905
            8882         2.15401
            8883         2.13678
            8884         2.41952
            8885         2.43560
            8886         2.41978
            8887         2.38466
            8888         2.38518
            8889         2.32035
            8890         2.17395
            8891         2.16816
            8892         2.23200
            8893         2.25076
            8894         2.29967
            8895         2.25056
            8896         2.31014
            8897         2.11738
            8898         1.99426
            8899         1.91542
            8900         2.04095
            8901         2.21176
            8902         2.30096
            8903         2.22097
            8904         2.29838
            8905         2.28999
            8906         2.66273
            8907         2.65840
            8908         2.66118
            8909         2.10851
            8910         2.21038
            8911         2.65381
            8912         2.64872
            8913         2.15785
            8914         2.24533
            8915         2.23669
            8916         2.42304
            8917         2.38716
            8918         2.37758
            8919         2.37552
            8920         2.45705
            8921         2.38480
            8922         2.37820
            8923         2.36816
            8924         2.44441
            8925         2.42123
            8926         1.72052
            8927         1.72835
            8928         1.69120
            8929         1.58070
            8930         1.56725
            8931         1.60871
            8932         1.56808
            8933         1.69734
            8934         1.46493
            8935         1.34681
            8936         1.46486
            8937         1.78361
            8938         1.90556
            8939         1.54672
            8940         1.54252
            8941         1.31194
            8942         1.77903
            8943         1.64159
            8944         1.69799
            8945         1.80196
            8946         1.85379
            8947         1.82645
            8948         1.85723
            8949         1.85469
            8950         1.69425
            8951         1.45164
            8952         1.44051
            8953         1.57828
            8954         1.53865
            8955         1.41160
            8956         1.80871
            8957         1.70929
            8958         1.77567
            8959         1.87297
            8960         1.75490
            8961         1.86852
            8962         1.80522
            8963         4.63919
            8964         4.63267
            8965         4.90086
            8966         4.58211
            8967         4.90140
            8968         5.48423
            8969         5.46719
            8970         5.75974
            8971         3.57142
            8972         4.32051
            8973         4.45202
            8974         4.45340
            8975         4.24806
            8976         4.47522
            8977         4.56562
            8978         4.68975
            8979         4.58309
            8980         4.56106
            8981         4.58795
            8982         4.71326
            8983         4.81722
            8984         4.95703
            8985         4.85763
            8986         4.96237
            8987         4.70821
            8988         4.80834
            8989         4.60037
            8990         4.60569
            8991         4.43764
            8992         4.80575
            8993         4.47401
            8994         4.27226
            8995         4.55017
            8996         4.75356
            8997         4.76962
            8998         4.53097
            8999         5.01745
            9000         5.02416
            9001         5.18566
            9002         4.99365
            9003         4.98552
            9004         5.09601
            9005         4.90610
            9006         5.06765
            9007         4.62475
            9008         4.66959
            9009         4.45274
            9010         5.71506
            9011         5.68369
            9012         5.62036
            9013         5.59899
            9014         5.62720
            9015         5.69093
            9016         5.47335
            9017         5.45116
            9018         5.46434
            9019         5.55419
            9020         5.57395
            9021         5.54893
            9022         5.74191
            9023         5.81246
            9024         5.85085
            9025         5.76079
            9026         5.87385
            9027         5.64433
            9028         5.64195
            9029         5.64301
            9030         5.77990
            9031         5.76243
            9032         5.27276
            9033         5.38693
            9034         5.33963
            9035         5.45318
            9036         5.34062
            9037         5.38675
            9038         4.85743
            9039         4.94581
            9040         5.16780
            9041         5.21678
            9042         5.36348
            9043         5.30956
            9044         5.34885
            9045         5.57688
            9046         5.55807
            9047         5.52335
            9048         5.56075
            9049         5.58086
            9050         5.49482
            9051         5.49150
            9052         5.44267
            9053         5.48234
            9054         5.44633
            9055         5.54075
            9056         5.48891
            9057         5.49283
            9058         5.45601
            9059         5.44242
            9060         5.48244
            9061         5.45607
            9062         5.44823
            9063         5.48157
            9064         5.52049
            9065         5.49315
            9066         5.49194
            9067         5.53010
            9068         5.55080
            9069         5.36509
            9070         5.38986
            9071         5.38294
            9072         5.56200
            9073         5.36585
            9074         5.24672
            9075         5.48920
            9076         5.45030
            9077         5.46020
            9078         5.41540
            9079         5.35269
            9080         5.38833
            9081         5.36054
            9082         5.42463
            9083         5.39244
            9084         5.54377
            9085         5.42461
            9086         5.52411
            9087         5.41375
            9088         5.52946
            9089         5.43574
            9090         5.73911
            9091         5.78558
            9092         5.70212
            9093         5.64443
            9094         5.60076
            9095         5.67907
            9096         5.62630
            9097         5.52235
            9098         5.51246
            9099         5.51870
            9100         5.45494
            9101         5.48955
            9102         5.74574
            9103         5.76461
            9104         5.67171
            9105         5.64445
            9106         5.70862
            9107         1.07295
            9108         1.28149
            9109         1.09030
            9110         1.29573
            9111         1.10591
            9112         1.28400
            9113         5.43197
            9114         5.45769
            9115         5.42442
            9116         5.08735
            9117         5.09019
            9118         5.08608
            9119         5.19538
            9120         5.13921
            9121         5.13928
            9122         5.07820
            9123         5.04199
            9124         5.35155
            9125         5.43078
            9126         5.43744
            9127         5.34779
            9128         5.27464
            9129         5.08734
            9130         5.09198
            9131         5.00177
            9132         5.01941
            9133         5.29998
            9134         5.19902
            9135         5.13789
            9136         5.24013
            9137         5.36917
            9138         5.48429
            9139         2.66078
            9140         5.20459
            9141         5.28568
            9142         2.11910
            9143         1.89152
            9144         1.77372
            9145         1.88713
            9146         5.06244
            9147         5.07449
            9148         5.01503
            9149         5.03063
            9150         5.32488
            9151         5.34551
            9152         5.28619
            9153         5.31963
            9154         5.25404
            9155         5.25565
            9156         5.22237
            9157         5.41606
            9158         5.38931
            9159         5.28148
            9160         5.44156
            9161         5.44220
            9162         5.36972
            9163         5.46153
            9164         5.40768
            9165         5.36738
            9166         5.42036
            9167         5.42983
            9168         5.19864
            9169         5.12765
            9170         5.12685
            9171         5.47913
            9172         5.53462
            9173         5.53609
            9174         5.47990
            9175         5.62731
            9176         5.41798
            9177         5.32217
            9178         5.26911
            9179         5.38957
            9180         5.38263
            9181         5.20563
            9182         5.26101
            9183         5.19868
            9184         5.46536
            9185         5.45821
            9186         5.43133
            9187         5.42846
            9188         5.39880
            9189         5.42057
            9190         5.43494
            9191         5.36943
            9192         5.33638
            9193         5.28322
            9194         3.11337
            9195         3.29387
            9196         3.05337
            9197         3.25955
            9198         3.07846
            9199         3.32422
            9200         2.90279
            9201         2.94520
            9202         2.91951
            9203         2.79942
            9204         2.74837
            9205         2.76917
            9206         3.69729
            9207         3.89387
            9208         3.64543
            9209         3.53412
            9210         3.77300
            9211         3.70275
            9212         2.85198
            9213         2.67172
            9214         2.81836
            9215         3.07458
            9216         3.10505
            9217         2.43366
            9218         2.48514
            9219         2.40391
            9220         2.40875
            9221         2.36067
            9222         2.43829
            9223         2.30016
            9224         2.29891
            9225         2.37938
            9226         2.47629
            9227         2.55796
            9228         2.45803
            9229         2.50209
            9230         2.31129
            9231         2.27218
            9232         2.54680
            9233         2.70242
            9234         2.57724
            9235         2.66834
            9236         2.51434
            9237         2.63574
            9238         2.64353
            9239         2.53040
            9240         2.56325
            9241         2.56600
            9242         2.67763
            9243         2.64583
            9244         2.57427
            9245         2.48313
            9246         2.52079
            9247         2.44336
            9248         2.49539
            9249         2.46185
            9250         2.56431
            9251         2.48783
            9252         2.58665
            9253         2.48174
            9254         2.67468
            9255         2.64101
            9256         2.71111
            9257         2.77165
            9258         2.73586
            9259         2.72849
            9260         2.82718
            9261         2.74154
            9262         2.75859
            9263         2.64516
            9264         2.58042
            9265         2.63513
            9266         2.58502
            9267         2.64757
            9268         2.59437
            9269         2.70544
            9270         2.64749
            9271         2.63004
            9272         2.68357
            9273         2.68353
            9274         2.75373
            9275         2.80882
            9276         2.75250
            9277         2.73085
            9278         2.68227
            9279         2.73170
            9280         2.59766
            9281         2.65445
            9282         2.59465
            9283         2.60792
            9284         2.55604
            9285         2.61083
            9286         2.58306
            9287         2.59790
            9288         2.53708
            9289         2.61649
            9290         2.52917
            9291         2.54467
            9292         2.58140
            9293         2.72702
            9294         2.69546
            9295         2.77880
            9296         2.77590
            9297         2.81237
            9298         2.75169
            9299         2.78652
            9300         2.75161
            9301         2.81172
            9302         2.69348
            9303         2.64495
            9304         2.67081
            9305         2.63009
            9306         2.67335
            9307         2.64835
            9308         2.57783
            9309         2.58334
            9310         2.58245
            9311         2.56754
            9312         2.56396
            9313         2.57888
            9314         2.57103
            9315         2.57509
            9316         2.56038
            9317         2.58983
            9318         2.57621
            9319         2.58942
            9320         2.56920
            9321         2.57646
            9322         2.58209
            9323         2.60385
            9324         2.60386
            9325         2.59724
            9326         2.60101
            9327         2.60467
            9328         2.60480
            9329         2.60832
            9330         2.60552
            9331         2.60237
            9332         2.61826
            9333         2.60327
            9334         2.60355
            9335         2.60356
            9336         2.61286
            9337         2.61302
            9338         2.60847
            9339         2.59449
            9340         2.60494
            9341         2.59007
            9342         2.59217
            9343         2.53862
            9344         2.55206
            9345         2.53936
            9346         2.55536
            9347         2.54187
            9348         2.55716
            9349         2.52682
            9350         2.54241
            9351         2.53575
            9352         2.52155
            9353         2.52400
            9354         2.51457
            9355         2.51890
            9356         2.49719
            9357         2.50323
            9358         2.49954
            9359         2.52737
            9360         2.53183
            9361         2.54288
            9362         2.53346
            9363         2.52916
            9364         2.56187
            9365         2.56164
            9366         2.57231
            9367         2.56556
            9368         2.56349
            9369         2.56876
            9370         2.53553
            9371         2.57622
            9372         2.56919
            9373         2.99453
            9374         3.41735
            9375         2.87602
            9376         3.44383
            9377         3.09909
            9378         3.64638
            9379         2.56139
            9380         2.56927
            9381         2.55477
            9382         2.50008
            9383         2.51330
            9384         2.49954
            9385         2.48331
            9386         2.47141
            9387         2.48375
            9388         2.54491
            9389         2.52857
            9390         2.54236
            9391         2.69153
            9392         2.67425
            9393         2.67691
            9394         2.67645
            9395         2.69544
            9396         2.69064
            9397         2.49899
            9398         2.51872
            9399         2.50862
            9400         2.52170
            9401         2.51022
            9402         2.44176
            9403         2.45695
            9404         2.44711
            9405         2.47499
            9406         2.46084
            9407         2.52848
            9408         2.51211
            9409         2.50185
            9410         2.52140
            9411         2.53821
            9412         2.53791
            9413         2.47032
            9414         2.50481
            9415         2.47100
            9416         2.47099
            9417         2.43736
            9418         2.47155
            9419         2.81159
            9420         2.77904
            9421         2.80236
            9422         2.90805
            9423         2.95447
            9424         2.91724
            9425         2.83353
            9426         2.82745
            9427         2.82659
            9428         2.71822
            9429         2.72912
            9430         2.72889
            9431         2.70842
            9432         2.72784
            9433         2.70190
            9434         2.26409
            9435         2.22167
            9436         2.31664
            9437         2.22442
            9438         2.18323
            9439         2.10125
            9440         2.09902
            9441         2.11183
            9442         2.11096
            9443         2.33941
            9444         2.34335
            9445         2.25666
            9446         2.09794
            9447         2.10308
            9448         2.06357
            9449         2.06902
            9450         2.06615
            9451         2.10676
            9452         2.09882
            9453         2.11863
            9454         2.11671
            9455         2.14410
            9456         2.14813
            9457         2.16466
            9458         2.10420
            9459         2.11805
            9460         2.14966
            9461         2.19730
            9462         2.18153
            9463         2.15250
            9464         2.21097
            9465         2.23476
            9466         2.20083
            9467         2.17291
            9468         2.24452
            9469         2.36231
            9470         2.29913
            9471         2.33878
            9472         2.30681
            9473         2.36443
            9474         2.32568
            9475         2.27569
            9476         2.31894
            9477         2.26519
            9478         2.48201
            9479         2.50793
            9480         2.47476
            9481         2.50510
            9482         2.47497
            9483         2.50829
            9484         2.56329
            9485         2.57523
            9486         2.56058
            9487         2.54029
            9488         2.53374
            9489         2.54294
            9490         2.42873
            9491         2.45160
            9492         2.42538
            9493         2.45738
            9494         2.42763
            9495         2.45358
            9496         2.53910
            9497         2.52851
            9498         2.53801
            9499         2.54557
            9500         2.55842
            9501         2.54624
            9502         2.58446
            9503         2.58749
            9504         2.59750
            9505         2.59933
            9506         2.59994
            9507         2.58618
            9508         2.62453
            9509         2.60095
            9510         2.61722
            9511         2.60283
            9512         2.62694
            9513         2.60917
            9514         2.60861
            9515         2.60983
            9516         2.61154
            9517         2.59181
            9518         2.59413
            9519         2.60242
            9520         2.59782
            9521         2.60046
            9522         2.59524
            9523         2.59873
            9524         2.59749
            9525         2.58671
            9526         2.58489
            9527         2.58228
            9528         2.59352
            9529         2.58822
            9530         2.60122
            9531         2.58690
            9532         2.59193
            9533         2.55977
            9534         2.55332
            9535         2.56697
            9536         2.56620
            9537         2.57501
            9538         2.55907
            9539         4.01706
            9540         4.00399
            9541         4.13270
            9542         4.23027
            9543         4.23883
            9544         4.09543
            9545         2.53226
            9546         2.53232
            9547         2.54000
            9548         2.52232
            9549         2.55904
            9550         2.57365
            9551         2.56843
            9552         2.57957
            9553         2.56419
            9554         2.56973
            9555         4.44170
            9556         4.25633
            9557         4.36446
            9558         4.42521
            9559         4.62723
            9560         4.50165
            9561         2.54766
            9562         2.54801
            9563         2.54066
            9564         2.55278
            9565         8.48566
            9566         8.03346
            9567         8.40025
            9568         8.39845
            9569         8.87116
            9570         8.48776
            9571         2.52210
            9572         2.54211
            9573         2.52020
            9574         2.51883
            9575         2.49906
            9576         2.52065
            9577         2.76202
            9578         2.74815
            9579         2.76485
            9580         2.74898
            9581         2.76278
            9582         2.74725
            9583         2.53143
            9584         2.54353
            9585         2.55121
            9586         2.55504
            9587         2.54281
            9588         2.53425
            9589         2.52156
            9590         2.51905
            9591         2.50980
            9592         2.55181
            9593         2.54118
            9594         2.53245
            9595         2.56937
            9596         2.57649
            9597         2.58151
            9598         2.56751
            9599         2.55987
            9600         2.59005
            9601         2.56607
            9602         2.59550
            9603         2.59418
            9604         2.62087
            9605         2.58899
            9606         2.70737
            9607         2.67806
            9608         2.69093
            9609         2.64765
            9610         2.67643
            9611         2.66078
            9612         2.60145
            9613         2.61089
            9614         2.62988
            9615         2.51613
            9616         2.51179
            9617         2.53742
            9618         2.51281
            9619         2.59464
            9620         2.60790
            9621         2.60272
            9622         2.57532
            9623         2.57956
            9624         2.61292
            9625         2.62650
            9626         2.61789
            9627         5.99790
            9628         6.16796
            9629         6.17378
            9630         6.18538
            9631         6.18350
            9632         2.55254
            9633         2.56218
            9634         2.59825
            9635         2.62118
            9636         2.61882
            9637         2.63371
            9638         2.60974
            9639         2.61418
            9640         2.59097
            9641         2.59339
            9642         2.58600
            9643         2.60318
            9644         2.72825
            9645         2.72782
            9646         2.69814
            9647         2.65288
            9648         2.69958
            9649         2.65528
            9650         2.67644
            9651         2.63620
            9652         2.68464
            9653         2.70783
            9654         2.70431
            9655         2.69514
            9656         2.72721
            9657         2.79549
            9658         2.76182
            9659         2.78175
            9660         2.75087
            9661         2.73944
            9662         2.74963
            9663         2.82466
            9664         2.80767
            9665         2.82635
            9666         2.77939
            9667         2.83475
            9668         2.77342
            9669         2.76814
            9670         2.10560
            9671         2.14863
            9672         2.18917
            9673         2.33687
            9674         2.31176
            9675         2.26612
            9676         2.04242
            9677         1.94990
            9678         2.01959
            9679         2.02315
            9680         2.10925
            9681         2.04385
            9682         2.00077
            9683         2.00879
            9684         2.17598
            9685         2.32913
            9686         2.33089
            9687         2.40115
            9688         2.19588
            9689         2.34969
            9690         2.17812
            9691         2.30862
            9692         2.16051
            9693         2.31913
            9694         2.37499
            9695         2.35181
            9696         2.53265
            9697         2.57884
            9698         2.62796
            9699         2.20780
            9700         2.19593
            9701         2.05198
            9702         2.20305
            9703         2.05556
            9704         2.06537
            9705         1.96151
            9706         1.91490
            9707         2.00932
            9708         2.00769
            9709         1.95878
            9710         6.43587
            9711         6.79982
            9712         6.85378
            9713         7.00799
            9714         6.63513
            9715         6.58884
            9716         2.08282
            9717         2.10478
            9718         2.20085
            9719         1.88115
            9720         1.88868
            9721         1.88172
            9722         1.88907
            9723         1.87837
            9724         1.90763
            9725         1.90201
            9726         1.91566
            9727         1.89206
            9728         1.90191
            9729         1.92780
            9730         1.89005
            9731         2.07956
            9732         2.07726
            9733         2.09844
            9734         2.04116
            9735         2.03929
            9736         2.08058
            9737         2.07805
            9738         2.02642
            9739         2.03869
            9740         2.06244
            9741         2.60753
            9742         2.61398
            9743         2.60696
            9744         2.60114
            9745         2.59714
            9746         2.60198
            9747         2.61719
            9748         2.61157
            9749         2.61674
            9750         2.60185
            9751         2.60186
            9752         2.60447
            9753         2.60822
            9754         2.60835
            9755         2.60662
            9756         2.63516
            9757         2.63465
            9758         2.63762
            9759         2.63044
            9760         2.63805
            9761         2.62715
            9762         2.61890
            9763         2.62103
            9764         2.62295
            9765         2.62827
            9766         2.61585
            9767         2.61824
            9768         2.61203
            9769         2.62186
            9770         2.61814
            9771         2.62395
            9772         2.62285
            9773         2.62813
            9774         2.62029
            9775         2.61935
            9776         2.62315
            9777         2.62078
            9778         2.62668
            9779         2.62189
            9780         2.62098
            9781         2.62808
            9782         2.62466
            9783         2.61557
            9784         2.60640
            9785         2.60975
            9786         2.61298
            9787         2.62123
            9788         2.61829
            9789         2.60900
            9790         2.60817
            9791         2.61749
            9792         2.60438
            9793         2.60522
            9794         2.59842
            9795         2.60169
            9796         2.59704
            9797         2.60333
            9798         2.59559
            9799         2.59814
            9800         2.59943
            9801         2.60678
            9802         2.60479
            9803         2.60852
            9804         2.62003
            9805         2.61718
            9806         2.62772
            9807         2.61445
            9808         2.61740
            9809         2.61659
            9810         2.61245
            9811         2.64453
            9812         2.64808
            9813         2.63030
            9814         2.62858
            9815         2.65573
            9816         2.69607
            9817         2.66113
            9818         2.67278
            9819         2.63819
            9820         2.67037
            9821         2.66005
            9822         2.61325
            9823         2.69071
            9824         2.70622
            9825         2.69131
            9826         2.68013
            9827         2.69368
            9828         2.70220
            9829         2.68835
            9830         2.72457
            9831         2.71332
            9832         2.72777
            9833         2.65730
            9834         2.65396
            9835         2.67222
            9836         2.66365
            9837         2.66789
            9838         2.64903
            9839         2.65532
            9840         2.62268
            9841         2.63773
            9842         2.63457
            9843         2.63496
            9844         2.63027
            9845         2.61943
            9846         2.85492
            9847         2.90217
            9848         2.93246
            9849         2.91264
            9850         2.85837
            9851         2.73774
            9852         2.69614
            9853         2.72773
            9854         2.67971
            9855         2.72031
            9856         2.68953
            9857         2.74626
            9858         2.76043
            9859         2.79076
            9860         2.80283
            9861         2.46529
            9862         2.47754
            9863         2.45202
            9864         2.42116
            9865         2.43643
            9866         2.42387
            9867         2.36627
            9868         2.40174
            9869         2.36405
            9870         2.37540
            9871         2.48724
            9872         2.51519
            9873         2.47504
            9874         2.44537
            9875         2.45950
            9876         2.70280
            9877         2.62595
            9878         2.49475
            9879         2.47980
            9880         2.75672
            9881         2.69140
            9882         2.55393
            9883         2.21990
            9884         2.19604
            9885         2.16153
            9886         2.19277
            9887         2.21715
            9888         2.13633
            9889         2.17736
            9890         2.13974
            9891         2.36276
            9892         2.10396
            9893         2.07849
            9894         2.10097
            9895         6.42412
            9896         6.38869
            9897         6.66660
            9898         6.51847
            9899         6.56216
            9900         6.28636
            9901         2.24982
            9902         2.35674
            9903         2.24781
            9904         2.40300
            9905         2.40166
            9906         2.40397
            9907         2.37224
            9908         2.37276
            9909         2.29285
            9910         2.24710
            9911         2.25209
            9912         2.24818
            9913         2.29522
            9914         2.40705
            9915         2.42175
            9916         2.41478
            9917         2.17130
            9918         2.13703
            9919         2.19479
            9920         2.14328
            9921         2.14556
            9922         2.08400
            9923         2.09374
            9924         2.14464
            9925         2.31227
            9926         2.34969
            9927         2.24929
            9928         2.26469
            9929         2.31441
            9930         2.23764
            9931         2.22393
            9932         2.16977
            9933         2.25090
            9934         2.23720
            9935         2.20867
            9936         2.17595
            9937         5.17151
            9938         5.11351
            9939         5.00925
            9940         4.92971
            9941         4.98907
            9942         2.25456
            9943         2.29143
            9944         2.24696
            9945         2.35009
            9946         2.43511
            9947         2.47010
            9948         2.41499
            9949         2.37124
            9950         2.39472
            9951         2.36068
            9952         2.40364
            9953         2.38090
            9954         2.36161
            9955         2.39179
            9956         2.38275
            9957         2.41070
            9958         2.38168
            9959         2.36923
            9960         2.18585
            9961         8.44874
            9962         8.45102
            9963         9.00033
            9964         8.54933
            9965         8.54629
            9966         8.03002
            9967         2.51681
            9968         2.50660
            9969         2.53342
            9970         2.58443
            9971         2.54342
            9972         2.45429
            9973         2.50086
            9974         8.23251
            9975         8.26617
            9976         8.25701
            9977         7.93329
            9978         7.90765
            9979         7.91749
            9980         2.62456
            9981         2.62665
            9982         2.62472
            9983         2.62238
            9984         2.63382
            9985         2.59658
            9986         2.59640
            9987         2.60708
            9988         2.60057
            9989         2.64449
            9990         2.63569
            9991         2.64492
            9992         2.63925
            9993         2.63785
            9994         2.64448
            9995         2.64650
            9996         2.64776
            9997         2.64191
            9998         2.65872
            9999         2.65098
           10000         2.65200
           10001         2.63745
           10002         2.64477
           10003         2.64332
           10004         2.63975
           10005         2.64084
           10006         2.65389
           10007         2.62777
           10008         2.62085
           10009         2.62983
           10010         2.63954
           10011         2.63734
           10012         2.64676
           10013         2.66422
           10014         2.66203
           10015         2.67301
           10016         2.66245
           10017         2.66397
           10018         2.68152
           10019         2.68186
           10020         2.67286
           10021         2.67327
           10022         2.68184
           10023         2.66605
           10024         2.66330
           10025         2.66978
           10026         2.66527
           10027         2.67686
           10028         2.67397
           10029         2.67160
           10030         2.67442
           10031         2.67818
           10032         2.61358
           10033         2.60692
           10034         2.60584
           10035         2.60086
           10036         2.60652
           10037         2.60732
           10038         2.60386
           10039         2.60584
           10040         2.60698
           10041         2.61018
           10042         2.60733
           10043         2.61554
           10044         2.61658
           10045         2.59023
           10046         2.59507
           10047         2.58726
           10048         2.59904
           10049         2.59065
           10050         2.59526
           10051         2.59536
           10052         2.59091
           10053         2.61029
           10054         2.59498
           10055         2.59527
           10056         2.61342
           10057         2.61325
           10058         2.61623
           10059         2.61185
           10060         2.61553
           10061         2.60805
           10062         2.60449
           10063         2.60660
           10064         2.60887
           10065         2.61007
           10066         2.61183
           10067         2.61828
           10068         2.60357
           10069         2.60939
           10070         2.60496
           10071         2.60602
           10072         2.61063
           10073         2.78772
           10074         2.76775
           10075         2.76849
           10076         2.60342
           10077         2.61058
           10078         2.60227
           10079         2.63914
           10080         2.63583
           10081         2.63197
           10082         2.63551
           10083         2.60360
           10084         2.60308
           10085         2.61401
           10086         2.61360
           10087         2.61785
           10088         2.61760
           10089         2.61423
           10090         2.61218
           10091         2.61616
           10092         2.61751
           10093         2.61766
           10094         2.63072
           10095         2.63323
           10096         2.63023
           10097         2.63269
           10098         2.64155
           10099         2.66633
           10100         2.66508
           10101         2.66833
           10102         2.66945
           10103         2.66631
           10104         2.66662
           10105         2.66605
           10106         2.66912
           10107         2.66174
           10108         2.65704
           10109         2.66196
           10110         2.64490
           10111         2.64702
           10112         2.64168
           10113         2.66293
           10114         2.65514
           10115         2.65911
           10116         2.65514
           10117         2.65812
           10118         2.65003
           10119         2.64998
           10120         2.63348
           10121         2.63478
           10122         2.63523
           10123         2.65138
           10124         2.67035
           10125         2.64876
           10126         2.64967
           10127         2.68358
           10128         2.69297
           10129         2.70800
           10130         2.68886
           10131         2.67881
           10132         2.66780
           10133         2.69044
           10134         2.66550
           10135         4.02288
           10136         4.15735
           10137         2.69648
           10138         2.69263
           10139         2.72050
           10140         2.71736
           10141         2.64551
           10142         2.66434
           10143         2.64192
           10144         2.65834
           10145         2.63501
           10146         2.63373
           10147         2.62446
           10148         2.62437
           10149         2.62571
           10150         2.62630
           10151         2.62587
           10152         2.63364
           10153         2.63465
           10154         2.62357
           10155         2.61477
           10156         2.62061
           10157         2.61545
           10158         2.61835
           10159         2.62581
           10160         2.61966
           10161         2.60902
           10162         2.60796
           10163         2.61235
           10164         2.61074
           10165         2.60527
           10166         2.60715
           10167         2.57840
           10168         2.57049
           10169         2.58350
           10170         2.58390
           10171         2.59372
           10172         2.57865
           10173         2.59810
           10174         2.62061
           10175         2.60683
           10176         2.63045
           10177         2.62702
           10178         2.62063
           10179         2.62453
           10180         2.63594
           10181         2.60435
           10182         2.62784
           10183         2.62203
           10184         2.63459
           10185         2.62955
           10186         2.63446
           10187         2.62686
           10188         2.62944
           10189         2.63228
           10190         2.63483
           10191         2.63291
           10192         2.62990
           10193         2.63005
           10194         2.63859
           10195         2.63755
           10196         2.63596
           10197         2.62801
           10198         6.82858
           10199         6.73705
           10200         6.61752
           10201         6.47291
           10202         6.56102
           10203         6.68250
           10204         2.64177
           10205         2.64035
           10206         2.63858
           10207         2.62005
           10208         2.63203
           10209         2.62017
           10210         2.63849
           10211         2.63975
           10212         2.64508
           10213         2.62537
           10214         2.62249
           10215         2.63383
           10216         2.64092
           10217         2.65904
           10218         2.65746
           10219         2.65694
           10220         2.65180
           10221         2.65293
           10222         2.65368
           10223         2.64813
           10224         7.34886
           10225         7.32704
           10226         7.50459
           10227         7.78423
           10228         7.80650
           10229         7.62581
           10230         2.65078
           10231         2.64807
           10232         2.65095
           10233         2.65555
           10234         2.65295
           10235         2.66363
           10236         2.66175
           10237         2.66021
           10238         2.66163
           10239         2.66463
           10240         2.64775
           10241         2.65239
           10242         2.65594
           10243         2.65948
           10244         2.66263
           10245         2.65939
           10246         2.57720
           10247         2.62934
           10248         2.63193
           10249         2.65545
           10250         2.62244
           10251         2.63052
           10252         2.65576
           10253         2.65722
           10254         2.69609
           10255         2.65927
           10256         2.65315
           10257         2.69347
           10258         2.60523
           10259         2.63830
           10260         2.54349
           10261         2.53398
           10262         2.54414
           10263         2.55188
           10264         2.55096
           10265         2.58760
           10266         2.55137
           10267         7.17710
           10268         7.63681
           10269         8.02029
           10270         7.55770
           10271         7.54412
           10272         2.60339
           10273         2.60453
           10274         2.52132
           10275         2.52271
           10276         2.56098
           10277         2.54772
           10278         2.56176
           10279         2.57224
           10280         2.55080
           10281         2.55694
           10282         2.57827
           10283         2.56548
           10284         2.54390
           10285         2.53776
           10286         2.58053
           10287         2.57328
           10288         2.58078
           10289         2.57418
           10290         2.58138
           10291         2.57364
           10292         2.58481
           10293         2.58305
           10294         2.56878
           10295         2.61523
           10296         2.60716
           10297         2.61223
           10298         2.60858
           10299         2.58596
           10300         2.55999
           10301         2.56395
           10302         2.58421
           10303         2.58971
           10304         2.59313
           10305         2.58781
           10306         2.60558
           10307         2.59250
           10308         2.59663
           10309         2.59704
           10310         2.61133
           10311         2.58380
           10312         2.59091
           10313         2.58042
           10314         2.59374
           10315         2.58681
           10316         2.60920
           10317         2.61991
           10318         2.63660
           10319         2.61825
           10320         2.59734
           10321         2.54458
           10322         2.56094
           10323         2.60260
           10324         2.60353
           10325         2.60454
           10326         2.61198
           10327         2.60483
           10328         2.60388
           10329         2.61011
           10330         2.63501
           10331         2.64349
           10332         2.63227
           10333         2.65114
           10334         2.65323
           10335         2.65768
           10336         2.65901
           10337         2.60169
           10338         2.60620
           10339         2.61349
           10340         2.61581
           10341         2.61156
           10342         2.62776
           10343         2.63589
           10344         2.63161
           10345         2.64509
           10346         2.63639
           10347         2.64064
           10348         2.61174
           10349         2.60214
           10350         2.61568
           10351         2.62610
           10352         2.61371
           10353         2.62447
           10354         2.61933
           10355         2.62692
           10356         2.64740
           10357         2.64419
           10358         2.63889
           10359         2.65082
           10360         2.64788
           10361         2.65153
           10362         2.64137
           10363         2.65386
           10364         2.66454
           10365         2.66684
           10366         2.66352
           10367         2.65353
           10368         2.65058
           10369         8.31695
           10370         7.79142
           10371         2.64875
           10372         2.65226
           10373         2.65570
           10374         2.65264
           10375         2.64000
           10376         2.63925
           10377         2.62984
           10378         2.64122
           10379         2.66554
           10380         2.66273
           10381         2.66479
           10382         2.66170
           10383         2.66329
           10384         2.66275
           10385         2.66128
           10386         2.65905
           10387         2.66184
           10388         2.65830
           10389         2.66407
           10390         2.65920
           10391         2.65695
           10392         2.65534
           10393         2.65875
           10394         2.66125
           10395         2.65938
           10396         2.65861
           10397         2.78089
           10398         2.72988
           10399         2.78051
           10400         2.73209
           10401         2.79046
           10402         2.73244
           10403         2.91332
           10404         2.89465
           10405         2.96505
           10406         2.90796
           10407         2.99141
           10408         2.89550
           10409         2.87270
           10410         2.87304
           10411         2.82143
           10412         2.80770
           10413         2.82223
           10414         2.76969
           10415         2.76822
           10416         2.68904
           10417         2.69670
           10418         2.69633
           10419         2.48317
           10420         2.47829
           10421         2.47715
           10422         2.50221
           10423         2.68982
           10424         2.76438
           10425         2.76337
           10426         2.62961
           10427         2.59649
           10428         2.58472
           10429         2.59722
           10430         2.62897
           10431         2.64467
           10432         2.64998
           10433         2.64111
           10434         2.50111
           10435         2.54475
           10436         2.52855
           10437         2.56363
           10438         2.61040
           10439         2.61036
           10440         2.46508
           10441         2.45280
           10442         2.47773
           10443         2.56734
           10444         2.58413
           10445         2.58153
           10446         2.56438
           10447         2.53285
           10448         2.60921
           10449         2.59443
           10450         2.55373
           10451         2.59711
           10452         2.65214
           10453         5.85104
           10454         5.80200
           10455         5.77669
           10456         5.85964
           10457         5.90630
           10458         5.93699
           10459         2.47614
           10460         2.59785
           10461         2.63056
           10462         2.58809
           10463         2.58974
           10464         2.59417
           10465         2.58205
           10466         2.64480
           10467         2.64259
           10468         2.64704
           10469         2.64111
           10470         2.68517
           10471         2.68451
           10472         2.70459
           10473         2.70339
           10474         2.70040
           10475         2.70440
           10476         2.70716
           10477         2.70951
           10478         2.73190
           10479         2.76100
           10480         2.73520
           10481         2.72364
           10482         2.75222
           10483         2.75831
           10484         2.67536
           10485         2.67744
           10486         2.68072
           10487         2.68934
           10488         2.68801
           10489         2.68497
           10490         2.67052
           10491         2.66788
           10492         2.67108
           10493         2.67499
           10494         2.66939
           10495         2.65530
           10496         2.66302
           10497         2.67663
           10498         2.66777
           10499         2.65406
           10500         2.67168
           10501         2.72934
           10502         2.68007
           10503         2.68877
           10504         2.68711
           10505         2.69455
           10506         3.04513
           10507         3.09736
           10508         3.01753
           10509         2.83835
           10510         2.85014
           10511         2.85221
           10512         2.92835
           10513         2.90613
           10514         3.00925
           10515         3.04361
           10516         3.11492
           10517         2.94446
           10518         2.93353
           10519         2.95889
           10520         5.91439
           10521         5.71423
           10522         5.82576
           10523         5.85167
           10524         6.05009
           10525         5.93774
           10526         2.55106
           10527         2.57179
           10528         5.53397
           10529         5.40637
           10530         5.31871
           10531         5.33928
           10532         5.46441
           10533         5.55393
           10534         2.57349
           10535         2.57193
           10536         2.79374
           10537         2.86491
           10538         2.79946
           10539         2.78725
           10540         2.84462
           10541         2.49964
           10542         2.46960
           10543         2.48167
           10544         2.44998
           10545         2.47894
           10546         2.46790
           10547         2.68958
           10548         2.68295
           10549         2.65116
           10550         2.69148
           10551         2.73149
           10552         2.73768
           10553         2.74372
           10554         2.74838
           10555         2.81230
           10556         2.80645
           10557         2.59540
           10558         2.56611
           10559         2.52825
           10560         2.55158
           10561         2.52782
           10562         2.56549
           10563         7.34754
           10564         6.93353
           10565         2.71986
           10566         2.67994
           10567         2.73252
           10568         2.69314
           10569         2.73582
           10570         2.68762
           10571         2.51294
           10572         2.51208
           10573         2.55766
           10574         2.55802
           10575         2.51787
           10576         3.51850
           10577         3.37374
           10578         3.33932
           10579         3.31582
           10580         3.46253
           10581         3.49293
           10582         2.49264
           10583         2.48358
           10584         2.48183
           10585         2.49535
           10586         2.49996
           10587         2.46705
           10588         2.47820
           10589         2.46019
           10590         2.46712
           10591         2.45699
           10592         2.46537
           10593         2.46949
           10594         2.43303
           10595         2.44166
           10596         2.44272
           10597         2.44123
           10598         2.41752
           10599         5.75678
           10600         5.97408
           10601         5.91761
           10602         5.92736
           10603         5.70298
           10604         5.77357
           10605         2.52187
           10606         2.47507
           10607         2.46891
           10608         2.49318
           10609         2.49707
           10610         2.50277
           10611         6.31782
           10612         6.27121
           10613         6.45316
           10614         2.62893
           10615         2.62224
           10616         2.48240
           10617         2.45578
           10618         2.46098
           10619         2.45363
           10620         2.48132
           10621         2.47595
           10622         2.47649
           10623         2.45074
           10624         2.47209
           10625         2.46200
           10626         2.43965
           10627         2.40574
           10628         2.41443
           10629         2.43635
           10630         2.41789
           10631         2.37916
           10632         2.37632
           10633         2.58577
           10634         2.59183
           10635         2.58530
           10636         2.55443
           10637         2.54693
           10638         2.46586
           10639         2.58795
           10640         2.48865
           10641         2.49547
           10642         2.50745
           10643         2.51871
           10644         2.51309
           10645         2.50114
           10646         2.46102
           10647         2.46492
           10648         2.44819
           10649         2.47609
           10650         2.47281
           10651         2.55830
           10652         2.57421
           10653         2.55772
           10654         2.55611
           10655         2.55741
           10656         2.50858
           10657         2.49734
           10658         2.56965
           10659         2.56882
           10660         2.55409
           10661         2.49929
           10662         2.43115
           10663         2.45867
           10664         2.50190
           10665         2.49594
           10666         2.53449
           10667         2.52765
           10668         2.54760
           10669         2.53896
           10670         2.52050
           10671         2.51101
           10672         2.51596
           10673         2.56333
           10674         2.56692
           10675         2.59398
           10676         2.59540
           10677         2.58915
           10678         2.58742
           10679         2.58163
           10680         2.61728
           10681         2.60045
           10682         2.58600
           10683         2.58633
           10684         2.58037
           10685         2.65333
           10686         2.64795
           10687         2.67092
           10688         2.64511
           10689         2.64903
           10690         2.66421
           10691         2.64942
           10692         2.62820
           10693         2.60066
           10694         2.61286
           10695         2.62997
           10696         2.61385
           10697         2.61648
           10698         2.86828
           10699         2.84434
           10700         2.66690
           10701         2.59882
           10702         2.58717
           10703         2.60390
           10704         2.61844
           10705         2.63317
           10706         2.64349
           10707         2.65561
           10708         2.84606
           10709         2.90102
           10710         2.82980
           10711         7.98516
           10712         2.73579
           10713         2.72707
           10714         2.76230
           10715         2.73940
           10716         2.73454
           10717         2.80409
           10718         2.81113
           10719         2.79408
           10720         2.78767
           10721         2.84118
           10722         2.92567
           10723         2.93883
           10724         2.86889
           10725         2.87399
           10726         2.86552
           10727         2.93396
           10728         2.90529
           10729         2.98093
           10730         2.91313
           10731         2.84786
           10732         2.81675
           10733         2.90401
           10734         2.95963
           10735         3.40809
           10736         3.31171
           10737         3.45173
           10738         3.30663
           10739         3.44235
           10740         3.43483
           10741         3.49441
           10742         3.43569
           10743         3.56154
           10744         3.56088
           10745         2.90202
           10746         2.94181
           10747         2.95413
           10748         3.07413
           10749         3.03548
           10750         3.01902
           10751         6.69392
           10752         6.60491
           10753         6.93562
           10754         7.02385
           10755         7.00763
           10756         2.96642
           10757         3.08209
           10758         3.05675
           10759         3.04332
           10760         2.92644
           10761         2.84330
           10762         2.88750
           10763         2.72071
           10764         2.73784
           10765         2.72817
           10766         2.72782
           10767         2.71466
           10768         2.72024
           10769         2.92454
           10770         2.88223
           10771         2.98193
           10772         2.96866
           10773         2.96028
           10774         3.01068
           10775         2.90363
           10776         2.72244
           10777         2.73388
           10778         2.74810
           10779         2.76369
           10780         2.74920
           10781         2.69847
           10782         2.63296
           10783         2.62870
           10784         2.68573
           10785         2.75436
           10786         2.75383
           10787         2.74523
           10788         2.73894
           10789         2.63095
           10790         2.58424
           10791         2.51574
           10792         2.22566
           10793         2.43564
           10794         2.43742
           10795         2.45458
           10796         2.48801
           10797         2.48067
           10798         2.43124
           10799         2.46611
           10800         2.50637
           10801         2.52761
           10802         2.50710
           10803         2.41488
           10804         2.41134
           10805         2.81270
           10806         2.88597
           10807         2.79973
           10808         2.83023
           10809         2.54138
           10810         2.48725
           10811         2.42634
           10812         6.95175
           10813         7.30864
           10814         7.00492
           10815         7.09441
           10816         6.75468
           10817         7.03774
           10818         2.44373
           10819         2.76603
           10820         2.78585
           10821         2.76776
           10822         2.64010
           10823         2.59894
           10824         2.60910
           10825         2.49428
           10826         2.48293
           10827         2.62322
           10828         2.64975
           10829         2.64331
           10830         2.51709
           10831         2.69333
           10832         2.64763
           10833         2.41820
           10834         2.51195
           10835         2.51129
           10836         2.48995
           10837         2.38350
           10838         2.36729
           10839         2.38730
           10840         2.39636
           10841         2.40519
           10842         2.42734
           10843         2.44953
           10844         2.42835
           10845         2.25571
           10846         2.13530
           10847         2.43603
           10848         2.42373
           10849         4.47035
           10850         2.33463
           10851         2.44079
           10852         2.47095
           10853         2.46787
           10854         2.48251
           10855         2.45256
           10856         2.45452
           10857         2.41813
           10858         2.42980
           10859         5.46841
           10860         5.37861
           10861         5.25312
           10862         2.43765
           10863         2.41707
           10864         2.40548
           10865         2.33037
           10866         2.29500
           10867         2.32242
           10868         2.32368
           10869         2.29978
           10870         2.54193
           10871         2.53283
           10872         2.50021
           10873         2.50060
           10874         2.48021
           10875         2.47818
           10876         2.61839
           10877         5.03393
           10878         5.03207
           10879         5.28115
           10880         5.23538
           10881         5.24456
           10882         5.00308
           10883         2.57991
           10884         2.55702
           10885         2.52514
           10886         2.51817
           10887         2.49618
           10888         2.55986
           10889         2.34140
           10890         2.69413
           10891         2.61949
           10892         2.64685
           10893         2.96242
           10894         2.81904
           10895         2.77093
           10896         2.81534
           10897         2.64557
           10898         2.67326
           10899         2.51372
           10900         2.52559
           10901         2.51973
           10902         2.54204
           10903         3.01684
           10904         3.10527
           10905         3.08613
           10906         3.08340
           10907         2.99489
           10908         3.00747
           10909         6.21249
           10910         6.19017
           10911         6.08056
           10912         3.23715
           10913         3.16590
           10914         3.14479
           10915         3.22220
           10916         3.08446
           10917         3.17212
           10918         3.22540
           10919         3.30828
           10920         3.06608
           10921         3.03072
           10922         3.09400
           10923         3.08013
           10924         3.12895
           10925         3.06161
           10926         2.94471
           10927         2.95268
           10928         2.98417
           10929         2.92909
           10930         2.99034
           10931         2.91764
           10932         2.97044
           10933         2.90074
           10934         2.64332
           10935         2.65312
           10936         2.65265
           10937         2.68088
           10938         2.67032
           10939         2.67150
           10940         2.88242
           10941         2.83966
           10942         2.83080
           10943         2.86012
           10944     28.3362E-03
           10945     13.2179E-03
           10946     13.2839E-03
           10947     19.7216E-03
           10948     35.1014E-03
           10949     49.8035E-03
           10950     46.6742E-03
           10951     15.8692E-03
           10952     17.5891E-03
           10953     95.6478E-03
           10954     102.869E-03
           10955     92.1255E-03
           10956     108.955E-03
           10957     142.973E-03
           10958     137.316E-03
           10959     161.210E-03
           10960         5.67106
           10961         5.67225
           10962         5.66294
           10963         5.65511
           10964         5.65666
           10965         5.67372
           10966     10.0000E-03
           10967     17.6007E-03
           10968     18.6099E-03
           10969     14.7001E-03
           10970     12.2120E-03
           10971     11.6466E-03
           10972     471.722E-03
           10973     370.981E-03
           10974     324.025E-03
           10975     376.660E-03
           10976     328.510E-03
           10977     425.603E-03
           10978     421.690E-03
           10979     300.713E-03
           10980     224.990E-03
           10981     301.462E-03
           10982     200.487E-03
           10983     274.041E-03
           10984     198.535E-03
           10985     359.561E-03
           10986     336.708E-03
           10987     358.413E-03
           10988     429.854E-03
           10989     452.288E-03
           10990     431.738E-03
           10991     279.199E-03
           10992     280.502E-03
           10993     580.954E-03
           10994     675.121E-03
           10995     566.000E-03
           10996     663.079E-03
           10997     569.535E-03
           10998     678.382E-03
           10999     531.960E-03
           11000     528.686E-03
           11001     418.662E-03
           11002     171.975E-03
           11003     222.930E-03
           11004     270.215E-03
           11005     269.708E-03
           11006     654.547E-03
           11007     601.199E-03
           11008     714.050E-03
           11009     604.600E-03
           11010     658.589E-03
           11011     549.300E-03
           11012     848.361E-03
           11013     969.926E-03
           11014     891.359E-03
           11015     883.743E-03
           11016     963.757E-03
           11017     889.059E-03
           11018     772.791E-03
           11019     853.481E-03
           11020     857.456E-03
           11021     779.517E-03
           11022     925.472E-03
           11023     849.035E-03
           11024     920.963E-03
           11025     775.806E-03
           11026         2.65706
           11027         2.67510
           11028         2.65711
           11029         2.64013
           11030         2.64079
           11031         1.58001
           11032         1.61487
           11033         1.61340
           11034         1.53748
           11035         1.49354
           11036         1.49610
           11037         2.69013
           11038         2.65799
           11039         1.49948
           11040         1.61987
           11041         1.53550
           11042         1.65609
           11043         1.62290
           11044         1.40881
           11045         1.41968
           11046         1.42620
           11047         1.52633
           11048         1.49251
           11049         1.30524
           11050         1.24961
           11051         1.36051
           11052         1.35278
           11053         1.29659
           11054         2.39266
           11055         2.41180
           11056         2.41054
           11057         2.43052
           11058         2.41383
           11059         2.41371
           11060         1.68482
           11061         1.78541
           11062         1.68440
           11063         1.71509
           11064         1.71545
           11065         1.61284
           11066         1.71262
           11067         1.50743
           11068         1.50820
           11069         1.44615
           11070         1.55209
           11071         1.55224
           11072         1.61215
           11073         1.50946
           11074         1.61285
           11075         1.71529
           11076         1.61450
           11077         1.65885
           11078         1.71442
           11079         6.26782
           11080         6.28958
           11081         1.89137
           11082         1.97738
           11083         1.87551
           11084         1.96848
           11085         1.87397
           11086         1.97663
           11087         1.42030
           11088         1.35086
           11089         1.32593
           11090         1.35123
           11091         1.41918
           11092         1.81893
           11093         1.91651
           11094         1.91773
           11095         2.16289
           11096         2.18236
           11097         2.16628
           11098         2.25396
           11099         2.24632
           11100         2.25036
           11101         2.33661
           11102         2.25368
           11103         2.25369
           11104         2.16052
           11105         2.24557
           11106         2.45038
           11107         2.43800
           11108         2.52593
           11109         2.51213
           11110         2.52289
           11111         2.43583
           11112         2.62728
           11113         2.61579
           11114         2.58190
           11115         2.48505
           11116         2.49852
           11117         2.33543
           11118         2.40854
           11119         2.40439
           11120         2.41558
           11121         2.41949
           11122         2.42807
           11123         2.84502
           11124         2.84071
           11125         2.75508
           11126         2.72004
           11127         2.71024
           11128         2.79507
           11129         6.18123
           11130         5.99162
           11131         5.99359
           11132         2.84063
           11133         2.92759
           11134         2.93683
           11135         2.85019
           11136         2.93385
           11137         2.62011
           11138         2.62001
           11139         2.60948
           11140         2.43859
           11141         2.42841
           11142         2.44169
           11143         2.84144
           11144         2.83619
           11145         2.74268
           11146         2.72794
           11147         2.73477
           11148         2.82770
           11149         2.94450
           11150         2.92550
           11151         3.01816
           11152         3.04195
           11153         3.13817
           11154         3.05071
           11155         3.02813
           11156         2.93444
           11157         2.87721
           11158         2.94362
           11159         2.99462
           11160         3.00320
           11161         2.93976
           11162         2.88986
           11163         6.62266
           11164         6.67209
           11165         7.07877
           11166         2.85368
           11167         2.80098
           11168         5.79912
           11169         6.05809
           11170         5.71708
           11171         5.70303
           11172         6.04400
           11173         5.77763
           11174         5.54304
           11175         5.11094
           11176         5.20306
           11177         5.17729
           11178         6.02843
           11179         6.07490
           11180         5.95077
           11181         5.87139
           11182         5.83222
           11183         5.94051
           11184         5.99647
           11185         5.63480
           11186         5.65110
           11187         5.40647
           11188         5.75534
           11189         5.73741
           11190         5.95569
           11191         5.67971
           11192         5.73761
           11193         5.72125
           11194         5.93818
           11195         5.72789
           11196         5.51941
           11197         5.77058
           11198         5.38925
           11199         6.67073
           11200         7.05044
           11201         6.85353
           11202         7.23873
           11203         6.85001
           11204         7.04892
           11205         6.18814
           11206         6.15497
           11207         6.44162
           11208         6.14959
           11209         6.18241
           11210         5.90747
           11211         6.65127
           11212         6.66464
           11213         6.85448
           11214         6.57650
           11215         6.56350
           11216         6.37890
           11217         8.28183
           11218         8.62359
           11219         8.28030
           11220         8.75145
           11221         8.75597
           11222         6.87005
           11223         6.58372
           11224         6.56997
           11225         6.87467
           11226         6.85483
           11227         6.49223
           11228         6.50673
           11229         6.36780
           11230         6.75064
           11231         6.73663
           11232         5.84737
           11233         5.73689
           11234         5.76802
           11235         5.76293
           11236         5.87368
           11237         6.89440
           11238         6.91729
           11239         7.21525
           11240         7.24504
           11241         7.23098
           11242         6.93517
           11243         6.86858
           11244         6.84672
           11245         6.56097
           11246         6.47762
           11247         6.76230
           11248         6.43364
           11249         8.22894
           11250         7.85524
           11251         7.84351
           11252         8.16710
           11253         8.17814
           11254         7.87682
           11255         7.35803
           11256         6.41530
           11257         6.69580
           11258         6.64929
           11259         6.70904
           11260         6.39956
           11261         6.40260
           11262         6.26375
           11263         8.64487
           11264         8.18187
           11265         8.57953
           11266         8.57731
           11267         9.06403
           11268         8.64798
           11269         6.25074
           11270         6.37480
           11271         6.10034
           11272         6.09333
           11273         6.24505
           11274         7.49066
           11275         7.52484
           11276         7.83507
           11277         7.79536
           11278         7.30202
           11279         6.71698
           11280         7.13735
           11281         6.35788
           11282         6.68260
           11283         6.56555
           11284         6.67082
           11285         6.34891
           11286         6.45387
           11287         6.34291
           11288         6.38665
           11289         6.16454
           11290         6.07276
           11291         6.12515
           11292         5.70063
           11293         5.71010
           11294         5.70735
           11295         5.75425
           11296         5.69791
           11297         2.98776
           11298         3.13329
           11299         3.29800
           11300         3.11461
           11301         2.96706
           11302         2.80081
           11303         3.17772
           11304         2.97328
           11305         2.67921
           11306         2.90003
           11307     256.057E-03
           11308     246.497E-03
           11309     312.643E-03
           11310     181.243E-03
           11311     193.464E-03
           11312     116.245E-03
           11313     124.970E-03
           11314     189.525E-03
           11315     608.094E-03
           11316     656.845E-03
           11317     373.872E-03
           11318     436.041E-03
           11319     481.254E-03
           11320     419.634E-03
           11321     330.711E-03
           11322     341.888E-03
           11323     340.725E-03
           11324     527.523E-03
           11325     518.878E-03
           11326     560.039E-03
           11327     471.766E-03
           11328     556.523E-03
           11329     516.330E-03
           11330         8.36670
           11331         8.01638
           11332         8.56500
           11333     868.380E-03
           11334     740.699E-03
           11335     788.124E-03
           11336     711.159E-03
           11337     840.266E-03
           11338     790.377E-03
           11339         8.03057
           11340         7.64495
           11341         7.56152
           11342         7.94064
           11343     881.049E-03
           11344         1.00081
           11345     939.627E-03
           11346     989.697E-03
           11347     929.554E-03
           11348         1.03969
           11349         1.04837
           11350         1.12023
           11351         1.11267
           11352         5.72098
           11353         5.73909
           11354         5.73831
           11355         5.79507
           11356         5.76739
           11357         5.76818
           11358     992.113E-03
           11359     920.862E-03
           11360         1.01428
           11361         1.28981
           11362         1.26198
           11363         1.21266
           11364         1.14337
           11365         5.50209
           11366         5.58217
           11367         5.59158
           11368         5.53285
           11369         5.46193
           11370         5.44672
           11371     975.393E-03
           11372         1.64815
           11373         1.62134
           11374         1.72915
           11375         1.67423
           11376         1.70482
           11377         1.59241
           11378         1.32759
           11379         1.63271
           11380         1.61908
           11381         1.63183
           11382         1.71494
           11383         1.72798
           11384         1.71436
           11385         1.80919
           11386         1.75431
           11387         1.77952
           11388         1.57959
           11389         1.59484
           11390         1.46774
           11391         1.51383
           11392         1.50517
           11393         1.62700
           11394         1.62515
           11395         1.57838
           11396         1.70455
           11397         1.64495
           11398         1.57393
           11399         1.66190
           11400         1.68146
           11401         1.73181
           11402         1.73288
           11403         1.82285
           11404         1.79258
           11405         1.86969
           11406         1.87705
           11407         1.80556
           11408         1.89010
           11409         2.05416
           11410         1.99715
           11411         2.05031
           11412         1.99764
           11413         2.05539
           11414         2.00362
           11415         2.16534
           11416         2.22785
           11417         2.16790
           11418         2.20309
           11419         2.14171
           11420         2.20130
           11421         2.11131
           11422         2.17372
           11423         2.17094
           11424         2.37052
           11425         2.33484
           11426         2.32921
           11427         2.25969
           11428         2.29706
           11429         2.30179
           11430         2.24302
           11431         2.26034
           11432         2.31733
           11433         2.27846
           11434         2.26161
           11435         2.25721
           11436         2.28907
           11437         2.25749
           11438         2.32438
           11439         2.29930
           11440         2.32430
           11441         2.48414
           11442         2.49697
           11443         2.47227
           11444         2.52689
           11445         2.51968
           11446         2.53916
           11447         2.73020
           11448         2.81074
           11449         2.78662
           11450         2.80619
           11451         2.72220
           11452         2.74907
           11453         2.73995
           11454         2.69728
           11455         2.71808
           11456         2.69590
           11457         2.72816
           11458         2.70846
           11459         2.68826
           11460         2.66978
           11461         2.70994
           11462         2.80282
           11463         2.86030
           11464         2.79725
           11465         2.78470
           11466         2.84707
           11467         2.82532
           11468         2.87032
           11469         2.82603
           11470         5.69654
           11471         5.72415
           11472         5.69816
           11473         3.07111
           11474         3.14331
           11475         3.05911
           11476         3.11675
           11477         3.05155
           11478         3.12849
           11479         3.25511
           11480         3.17922
           11481         3.17386
           11482         3.20199
           11483         3.20882
           11484         3.26185
           11485         3.36586
           11486         3.24627
           11487         3.29542
           11488         3.31063
           11489         3.18151
           11490         3.28242
           11491         3.29907
           11492         3.11415
           11493         3.09045
           11494         3.07063
           11495         3.13751
           11496         3.16741
           11497         2.37672
           11498         2.37004
           11499         2.40631
           11500         2.40098
           11501         2.40712
           11502         2.37057
           11503         3.07745
           11504         3.12441
           11505         3.72475
           11506         3.82285
           11507         3.72491
           11508         3.85158
           11509         3.75471
           11510         3.85382
           11511         3.89560
           11512         3.91135
           11513         3.92557
           11514         4.04858
           11515         4.03093
           11516         4.01678
           11517         3.78636
           11518         3.69710
           11519         3.81277
           11520         3.71494
           11521         3.80491
           11522         3.68791
           11523         2.43896
           11524         2.44070
           11525         3.70756
           11526         3.79662
           11527         3.81340
           11528         3.92531
           11529         3.82871
           11530         4.18501
           11531         4.03470
           11532         4.08427
           11533         3.97553
           11534         4.11977
           11535         4.07042
           11536         4.26648
           11537         4.37912
           11538         4.34560
           11539         4.29427
           11540         4.21651
           11541         5.27931
           11542         5.05305
           11543         5.23878
           11544         5.05003
           11545         5.27853
           11546         5.09027
           11547         2.34556
           11548         2.38799
           11549         2.41476
           11550         2.36958
           11551         2.38116
           11552         5.32449
           11553         5.27652
           11554         5.52014
           11555         5.47516
           11556         5.65243
           11557         5.67896
           11558         5.72882
           11559         5.71848
           11560         5.68783
           11561         5.65314
           11562         4.68825
           11563         4.63618
           11564         4.54007
           11565         4.71319
           11566         4.76375
           11567         4.86813
           11568         4.97970
           11569         5.15709
           11570         5.12420
           11571         5.37245
           11572         5.18936
           11573         5.21958
           11574         4.80490
           11575         4.59994
           11576         4.79719
           11577         4.89939
           11578         4.69804
           11579         5.19856
           11580         4.84175
           11581         4.84423
           11582         2.37724
           11583         4.39642
           11584         4.34878
           11585         4.39962
           11586         4.44512
           11587         4.25809
           11588         6.02108
           11589         6.06920
           11590         5.96820
           11591         5.90614
           11592         5.86604
           11593         5.96213
           11594         4.54161
           11595         5.58472
           11596         5.59037
           11597         5.63136
           11598         5.62729
           11599         5.63086
           11600         5.58543
           11601         7.88130
           11602         8.32930
           11603         7.59448
           11604         8.13706
           11605         7.63238
           11606         8.31082
           11607         7.60131
           11608         8.10346
           11609         8.06017
           11610         8.77377
           11611         8.21059
           11612         8.27116
           11613         2.01935
           11614         2.09261
           11615         2.11426
           11616         2.11163
           11617         2.04343
           11618         2.01627
           11619         4.77522
           11620         4.56004
           11621         4.72390
           11622         4.68096
           11623         4.90368
           11624         4.73248
           11625         4.55148
           11626         4.50167
           11627         2.71531
           11628         2.72946
           11629         2.73121
           11630         2.73547
           11631         2.72065
           11632         2.71873
           11633         5.10457
           11634         5.14588
           11635         5.16806
           11636         4.96668
           11637         4.92547
           11638         5.31051
           11639         5.05923
           11640         5.26472
           11641         5.18800
           11642         5.44327
           11643         5.23451
           11644         5.56457
           11645         5.48990
           11646         5.64730
           11647         5.72202
           11648         5.76989
           11649         5.64326
           11650         5.72018
           11651         5.59650
           11652         5.39447
           11653         5.51746
           11654         5.82290
           11655         5.89901
           11656         5.94741
           11657         5.51109
           11658         5.27281
           11659         5.46843
           11660         5.33684
           11661         5.57376
           11662         6.02432
           11663         6.13694
           11664         5.82065
           11665         5.97553
           11666         5.86442
           11667         6.18078
           11668         2.61162
           11669         2.61687
           11670         2.61436
           11671         2.59938
           11672         2.59306
           11673         2.59639
           11674         6.33931
           11675         6.38957
           11676         6.03091
           11677         6.37046
           11678         6.32209
           11679         6.69762
           11680         6.33721
           11681         6.25522
           11682         5.70810
           11683         5.80508
           11684         5.73185
           11685         5.70876
           11686         5.66255
           11687         5.65250
           11688         5.64792
           11689         5.69711
           11690         5.77241
           11691         5.52742
           11692         5.46841
           11693         5.70966
           11694         5.50704
           11695         6.00791
           11696         6.31759
           11697         6.05436
           11698         5.87617
           11699         5.64243
           11700         5.85989
           11701         5.65245
           11702         5.88419
           11703         5.67523
           11704         2.63453
           11705         2.65157
           11706         2.63616
           11707         2.63757
           11708         2.62068
           11709         2.63581
           11710         6.14086
           11711         6.22855
           11712         6.08571
           11713         6.11220
           11714         5.87932
           11715         5.85409
           11716         5.72554
           11717         5.82495
           11718         5.74637
           11719         5.84854
           11720         5.95638
           11721         5.88729
           11722         6.00831
           11723         5.91084
           11724         5.65860
           11725         5.76644
           11726         5.80887
           11727         5.79222
           11728         5.67941
           11729         5.63465
           11730         5.62075
           11731         5.58165
           11732         5.59955
           11733         5.40237
           11734         5.48490
           11735         5.47365
           11736         5.54348
           11737         5.45624
           11738         5.47576
           11739         5.48630
           11740         5.55405
           11741         5.46362
           11742         5.38592
           11743         5.41894
           11744         5.41098
           11745         5.36155
           11746         5.32714
           11747         5.21857
           11748         5.27685
           11749         5.30090
           11750         2.64655
           11751         2.63352
           11752         2.64912
           11753         4.87221
           11754         4.80626
           11755         4.87497
           11756         4.70235
           11757         4.78655
           11758         4.69813
           11759         5.00844
           11760         4.97406
           11761         4.89675
           11762         5.01932
           11763         5.05048
           11764         5.12693
           11765         3.60282
           11766         3.78963
           11767         3.74012
           11768         3.76102
           11769         3.57053
           11770         3.63756
           11771         3.94779
           11772         3.76880
           11773         3.93629
           11774         3.71553
           11775         3.89944
           11776         3.46827
           11777         3.50283
           11778         3.52282
           11779         3.69309
           11780         3.66415
           11781         3.74571
           11782         2.92007
           11783         2.98325
           11784         3.01328
           11785         3.26508
           11786         3.20073
           11787         3.17042
           11788         1.30268
           11789         1.47286
           11790         1.42107
           11791         1.30998
           11792         1.23711
           11793         1.07210
           11794         1.06444
           11795         1.13774
           11796         1.92754
           11797         1.92083
           11798         1.88447
           11799         1.52209
           11800         1.33804
           11801         1.34617
           11802         1.53100
           11803         1.42163
           11804         1.28954
           11805         1.17935
           11806         1.36301
           11807         1.78948
           11808         1.57256
           11809     388.771E-03
           11810     217.573E-03
           11811     316.561E-03
           11812     312.712E-03
           11813     483.940E-03
           11814     383.716E-03
           11815     390.995E-03
           11816     395.627E-03
           11817     497.437E-03
           11818     551.604E-03
           11819     543.737E-03
           11820     444.954E-03
           11821     618.293E-03
           11822     845.183E-03
           11823     705.592E-03
           11824     933.324E-03
           11825     702.889E-03
           11826     843.379E-03
           11827     704.668E-03
           11828     614.944E-03
           11829     353.664E-03
           11830     195.414E-03
           11831     194.389E-03
           11832     354.560E-03
           11833     230.449E-03
           11834     49.9924E-03
           11835     71.8111E-03
           11836     73.8892E-03
           11837     74.5727E-03
           11838     50.0179E-03
           11839     34.5698E-03
           11840     72.1319E-03
           11841     77.3911E-03
           11842     586.231E-03
           11843     786.118E-03
           11844     675.570E-03
           11845     909.522E-03
           11846     811.913E-03
           11847     189.662E-03
           11848     169.561E-03
           11849     118.116E-03
           11850     136.194E-03
           11851     194.858E-03
           11852     156.860E-03
           11853     152.862E-03
           11854     167.087E-03
           11855     100.353E-03
           11856     85.8454E-03
           11857     73.3108E-03
           11858     36.7178E-03
           11859     9.84432E-03
           11860     10.1760E-03
           11861     465.371E-03
           11862     346.180E-03
           11863     371.129E-03
           11864     345.958E-03
           11865     465.439E-03
           11866     439.689E-03
           11867     562.653E-03
           11868     590.213E-03
           11869     683.563E-03
           11870     582.444E-03
           11871     654.139E-03
           11872     266.689E-03
           11873     352.425E-03
           11874     261.437E-03
           11875     340.650E-03
           11876     252.926E-03
           11877     706.147E-03
           11878     796.323E-03
           11879     766.283E-03
           11880     712.047E-03
           11881     553.752E-03
           11882     513.889E-03
           11883     630.164E-03
           11884     537.109E-03
           11885     853.932E-03
           11886     950.426E-03
           11887     885.197E-03
           11888     564.705E-03
           11889     685.058E-03
           11890     645.678E-03
           11891     927.870E-03
           11892     933.922E-03
           11893         1.08726
           11894         1.01442
           11895         1.00442
           11896         7.38069
           11897         7.34430
           11898     922.318E-03
           11899         1.07347
           11900     991.825E-03
           11901     733.333E-03
           11902     705.357E-03
           11903     818.348E-03
           11904     792.272E-03
           11905     820.996E-03
           11906     707.078E-03
           11907         1.03956
           11908         1.07177
           11909         1.03663
           11910     956.612E-03
           11911     959.373E-03
           11912     932.703E-03
           11913     929.843E-03
           11914         1.11288
           11915         1.18694
           11916         1.15655
           11917         1.10000
           11918         1.21273
           11919         1.22570
           11920         1.25804
           11921         1.21451
           11922     930.235E-03
           11923     954.808E-03
           11924     951.918E-03
           11925     817.523E-03
           11926         1.91154
           11927         1.88920
           11928         1.98874
           11929         1.95244
           11930         1.97208
           11931         1.87159
           11932         2.09147
           11933         2.17680
           11934         2.08658
           11935         2.09454
           11936         2.00557
           11937         2.09818
           11938         7.27241
           11939         6.97145
           11940         7.23950
           11941         6.97714
           11942         7.31656
           11943         7.01048
           11944         2.11354
           11945         2.02653
           11946         2.27723
           11947         2.33905
           11948         2.28696
           11949         2.29275
           11950         2.22742
           11951         2.28409
           11952         2.39095
           11953         2.44613
           11954         2.42456
           11955         2.47760
           11956         2.42497
           11957         2.44607
           11958         2.35535
           11959         2.39474
           11960         2.40491
           11961         2.38724
           11962         2.34710
           11963         2.30619
           11964         2.05924
           11965         2.15233
           11966         2.13381
           11967         2.13658
           11968         2.06108
           11969         2.32834
           11970         2.26140
           11971         2.30344
           11972         2.36812
           11973         2.32621
           11974         2.39934
           11975         2.40955
           11976         2.44602
           11977         2.26929
           11978         2.33292
           11979         2.28647
           11980         2.33694
           11981         2.32060
           11982         2.34625
           11983         2.50301
           11984         2.44850
           11985         2.47154
           11986         2.41993
           11987         2.47390
           11988         2.45219
           11989         2.56800
           11990         2.58555
           11991         2.54418
           11992         2.56647
           11993         2.54309
           11994         2.58450
           11995         2.49790
           11996         2.52185
           11997         2.52369
           11998         2.54988
           11999         2.52948
           12000         2.57323
           12001         2.75359
           12002         2.76512
           12003         2.72635
           12004         2.68405
           12005         2.64738
           12006         2.66590
           12007         2.69087
           12008         2.65354
           12009         2.62025
           12010         2.64418
           12011         2.64031
           12012         2.67357
           12013         2.64944
           12014         2.71594
           12015         2.70616
           12016         2.69953
           12017         2.68319
           12018         2.25995
           12019         2.60127
           12020         2.28215
           12021         2.51894
           12022         2.18045
           12023         2.50091
           12024         2.66391
           12025         3.18493
           12026         3.27247
           12027         3.18648
           12028         3.26758
           12029         3.17922
           12030         3.26670
           12031         3.02952
           12032         2.96091
           12033         3.02797
           12034         2.99466
           12035         3.06570
           12036         2.99670
           12037         2.97744
           12038         2.97603
           12039         3.05242
           12040         3.00772
           12041         3.21922
           12042         3.14519
           12043         3.21225
           12044         3.14036
           12045         3.21466
           12046         3.14725
           12047         3.29414
           12048         3.30079
           12049         3.29995
           12050         3.22599
           12051         3.22017
           12052         3.38713
           12053         3.48422
           12054         3.38135
           12055         3.46811
           12056         3.37063
           12057         3.47453
           12058         3.48025
           12059         3.38286
           12060         3.38511
           12061         3.39071
           12062         3.38840
           12063         3.38336
           12064         3.37711
           12065         3.47737
           12066         3.47683
           12067         3.48322
           12068         3.38305
           12069         3.58702
           12070         3.59215
           12071         3.59279
           12072         3.56912
           12073         3.44313
           12074         3.56614
           12075         3.54536
           12076         3.68010
           12077         3.54900
           12078         3.71687
           12079         3.70785
           12080         3.71833
           12081         3.84118
           12082         3.85126
           12083         3.83975
           12084         3.70186
           12085         3.70552
           12086         3.83721
           12087         3.81203
           12088         3.80642
           12089         3.95844
           12090         3.82253
           12091         3.82829
           12092         3.68527
           12093         3.97418
           12094         3.96807
           12095         3.91986
           12096         3.76376
           12097         3.94508
           12098         3.83290
           12099         3.98923
           12100         3.80852
           12101         3.86547
           12102         4.05275
           12103         3.89149
           12104         4.14956
           12105         4.09576
           12106         4.20222
           12107         4.25449
           12108         4.29907
           12109         4.38625
           12110         4.21750
           12111         4.43036
           12112         4.45181
           12113         4.62998
           12114         4.40768
           12115         4.49120
           12116         4.66928
           12117         4.68940
           12118         4.49630
           12119         4.63682
           12120         4.74648
           12121         4.74577
           12122         4.60731
           12123         4.49767
           12124         4.86938
           12125         4.80974
           12126         4.82757
           12127         4.45077
           12128         4.36464
           12129         4.29921
           12130         4.50512
           12131         4.59242
           12132         4.30819
           12133         4.24403
           12134         4.16406
           12135         4.55784
           12136         4.69887
           12137         5.44413
           12138         5.55719
           12139         5.51609
           12140         5.49684
           12141         5.36558
           12142         5.40413
           12143         5.26738
           12144         5.23177
           12145         5.36472
           12146         5.39341
           12147         5.25993
           12148         5.49186
           12149         5.61771
           12150         5.53277
           12151         5.57201
           12152         5.52889
           12153         5.48618
           12154         5.46978
           12155         5.53451
           12156         5.53677
           12157         5.54700
           12158         5.47904
           12159         5.64208
           12160         5.59672
           12161         5.57359
           12162         5.59385
           12163         5.86771
           12164         5.82541
           12165         5.96758
           12166         5.87395
           12167         6.02119
           12168         5.77220
           12169         5.85502
           12170         5.90559
           12171         5.83236
           12172         5.98981
           12173         5.87981
           12174         5.75874
           12175         5.84466
           12176         5.86104
           12177         5.97910
           12178         5.35923
           12179         5.38202
           12180         5.44514
           12181         5.35451
           12182         5.33154
           12183         5.26622
           12184         5.03684
           12185         5.02706
           12186         5.11333
           12187         4.95639
           12188         4.96878
           12189         5.12966
           12190         5.16175
           12191         5.01993
           12192         5.12871
           12193         5.41847
           12194         5.50179
           12195         5.47501
           12196         5.39686
           12197         5.51183
           12198         5.06720
           12199         5.34634
           12200         5.45799
           12201         5.52224
           12202         5.54192
           12203         5.57286
           12204         5.48576
           12205         5.57182
           12206         5.60017
           12207         5.64889
           12208         5.59779
           12209         5.57393
           12210         5.39152
           12211         5.25767
           12212         5.12118
           12213         5.22981
           12214         5.32957
           12215         5.42922
           12216         5.32450
           12217         5.32261
           12218         5.21862
           12219         5.32986
           12220         5.34625
           12221         5.45469
           12222         5.34265
           12223         5.46472
           12224         5.36371
           12225         5.47147
           12226         5.20635
           12227         5.23777
           12228         5.25631
           12229         5.10204
           12230         5.07359
           12231         5.05226
           12232         5.31535
           12233         5.18264
           12234         5.16794
           12235         5.22606
           12236         5.35333
           12237         4.88091
           12238         5.04544
           12239         5.02524
           12240         3.94396
           12241         4.29650
           12242         4.03920
           12243         4.16311
           12244         3.79910
           12245         4.05781
           12246         6.30349
           12247         6.20120
           12248         6.34069
           12249         6.40171
           12250         6.50515
           12251         6.35807
           12252         1.03119
           12253     951.692E-03
           12254         1.04716
           12255         1.17628
           12256         1.26338
           12257         1.16404
           12258         1.17181
           12259     913.895E-03
           12260         1.14367
           12261     910.711E-03
           12262         1.16980
           12263     936.103E-03
           12264     846.655E-03
           12265     675.106E-03
           12266     766.396E-03
           12267     761.668E-03
           12268     740.186E-03
           12269     739.673E-03
           12270     620.121E-03
           12271     760.025E-03
           12272     802.010E-03
           12273     926.504E-03
           12274     781.866E-03
           12275     706.755E-03
           12276     876.023E-03
           12277     869.603E-03
           12278     826.225E-03
           12279     829.922E-03
           12280         1.00138
           12281     866.161E-03
           12282     714.960E-03
           12283     841.410E-03
           12284         1.29217
           12285         1.52307
           12286         1.25622
           12287         1.46239
           12288         1.24370
           12289         1.50030
           12290     861.298E-03
           12291     879.483E-03
           12292     701.286E-03
           12293         1.22081
           12294         1.04384
           12295         1.98281
           12296         2.08069
           12297         2.00986
           12298         2.06024
           12299         1.93158
           12300         2.05526
           12301         2.16817
           12302         2.29139
           12303         2.17630
           12304         1.85096
           12305         1.99179
           12306         1.85213
           12307         2.50217
           12308         2.37885
           12309         2.67571
           12310         2.47845
           12311         2.58023
           12312         2.61930
           12313         2.42717
           12314         2.70796
           12315         1.83154
           12316         2.02744
           12317         2.05750
           12318         2.08047
           12319         2.21997
           12320         1.92479
           12321         1.74352
           12322         1.75147
           12323         1.92286
           12324         2.05400
           12325         2.05043
           12326         1.93091
           12327         2.07643
           12328         2.08249
           12329         2.20222
           12330         2.06486
           12331         2.23696
           12332         2.11387
           12333         2.25753
           12334         2.20543
           12335         2.06654
           12336         1.93886
           12337         2.11595
           12338         2.06886
           12339         1.93932
           12340         1.94136
           12341         1.80512
           12342         1.65786
           12343         1.78989
           12344         1.62315
           12345         1.77128
           12346         1.64351
           12347         6.41525
           12348         6.43534
           12349         6.69807
           12350         6.40950
           12351         6.38421
           12352         6.16097
           12353         2.09216
           12354         1.90146
           12355         1.78558
           12356         1.77710
           12357         2.23479
           12358         1.92454
           12359         1.76844
           12360         1.77888
           12361         1.61124
           12362         2.05427
           12363         2.17365
           12364         2.26200
           12365         2.27876
           12366         2.27477
           12367         2.18468
           12368         2.17019
           12369         2.29552
           12370         2.31396
           12371         2.36233
           12372         2.22040
           12373         2.38560
           12374         2.30145
           12375         2.27835
           12376         2.31032
           12377         2.39368
           12378         2.41223
           12379         2.46904
           12380         2.50505
           12381         2.39992
           12382         2.51084
           12383         2.47424
           12384         2.57159
           12385         2.19112
           12386         2.29659
           12387         2.17681
           12388         2.36733
           12389         2.27985
           12390         2.26458
           12391         2.34258
           12392         2.23515
           12393         2.23995
           12394         2.47735
           12395         2.45358
           12396         2.49858
           12397         2.51036
           12398         2.53061
           12399         2.48874
           12400         8.47699
           12401         8.10544
           12402         8.57304
           12403         8.97296
           12404         2.43717
           12405         2.39294
           12406         2.38727
           12407         2.40926
           12408         2.45777
           12409         2.48146
           12410         2.47940
           12411         2.42996
           12412         2.43520
           12413         2.48531
           12414         2.32541
           12415         2.37471
           12416         2.32203
           12417         2.38368
           12418         2.33655
           12419         2.52693
           12420         2.53466
           12421         2.52335
           12422         2.55412
           12423         2.54946
           12424         2.55640
           12425         2.49509
           12426         2.48493
           12427         2.49158
           12428         2.62094
           12429         2.64300
           12430         2.62648
           12431         2.63741
           12432         2.61363
           12433         2.63182
           12434         2.64881
           12435         2.64397
           12436         2.65136
           12437         2.65528
           12438         2.66018
           12439         2.65234
           12440         2.63244
           12441         2.64068
           12442         2.61342
           12443         2.61445
           12444         2.60678
           12445         2.63288
           12446         2.80180
           12447         2.80437
           12448         2.80403
           12449         2.84069
           12450         2.84354
           12451         2.83857
           12452         2.92315
           12453         2.89416
           12454         2.89171
           12455         2.85201
           12456         2.87936
           12457         2.88224
           12458         2.88731
           12459         2.88275
           12460         2.85508
           12461         2.88691
           12462         2.89048
           12463         2.92392
           12464         2.97071
           12465         3.02513
           12466         2.96786
           12467         3.02325
           12468         2.96834
           12469         3.02668
           12470         2.94177
           12471         2.93837
           12472         2.90710
           12473         2.96916
           12474         3.02192
           12475         2.96896
           12476         3.01760
           12477         2.96559
           12478         3.01803
           12479         2.97227
           12480         2.92516
           12481         2.97173
           12482         2.95992
           12483         2.91755
           12484         2.91463
           12485         2.95664
           12486         2.90868
           12487         3.01966
           12488         2.96624
           12489         3.02615
           12490         2.96367
           12491         3.01501
           12492         2.95718
           12493         3.08043
           12494         3.06977
           12495         3.07366
           12496         3.15283
           12497         3.16226
           12498         3.16072
           12499         3.03241
           12500         2.99167
           12501         3.03743
           12502         3.05946
           12503         3.10530
           12504         3.05425
           12505         3.13149
           12506         3.13512
           12507         3.21181
           12508         3.23404
           12509         3.22963
           12510         3.32037
           12511         3.40995
           12512         3.28875
           12513         3.38228
           12514         3.29307
           12515         3.41432
           12516         3.58027
           12517         3.64836
           12518         3.59733
           12519         3.77204
           12520         3.70597
           12521         3.75447
           12522         3.37012
           12523         3.41183
           12524         3.25674
           12525         3.30850
           12526         3.26436
           12527         3.42021
           12528         3.65279
           12529         3.61974
           12530         3.64137
           12531         3.50743
           12532         3.54283
           12533         3.65468
           12534         3.63798
           12535         3.33219
           12536         3.34961
           12537         3.45467
           12538         3.59335
           12539         3.57419
           12540         4.62147
           12541         4.80886
           12542         4.65044
           12543         4.82881
           12544         4.65978
           12545         4.79943
           12546         4.50775
           12547         4.65568
           12548         4.54075
           12549         5.35616
           12550         5.28808
           12551         5.26893
           12552         5.37090
           12553         5.44393
           12554         5.47333
           12555         5.00678
           12556         4.93032
           12557         5.13016
           12558         5.10351
           12559         5.17155
           12560         4.97003
           12561         5.29747
           12562         5.19550
           12563         5.22422
           12564         5.10720
           12565         5.20975
           12566         5.17115
           12567         5.34571
           12568         5.30337
           12569         5.24945
           12570         5.52791
           12571         5.30004
           12572         5.37700
           12573         5.38369
           12574         5.59942
           12575         5.59430
           12576         5.57805
           12577         5.88832
           12578         5.87550
           12579         6.16206
           12580         5.83584
           12581         5.85915
           12582         5.69272
           12583         5.76245
           12584         5.78543
           12585         5.75482
           12586         5.68613
           12587         5.65744
           12588         5.62494
           12589         5.59553
           12590         5.58234
           12591         5.75072
           12592         5.85833
           12593         5.73962
           12594         5.74115
           12595         5.76620
           12596         5.83260
           12597         5.87460
           12598         5.89325
           12599         5.92892
           12600         5.96222
           12601         5.92023
           12602         5.85294
           12603         5.87570
           12604         5.95100
           12605         5.93354
           12606         5.90912
           12607         6.04158
           12608         5.96178
           12609         6.03258
           12610         5.99589
           12611         5.84161
           12612         5.80844
           12613         5.87063
           12614         5.90619
           12615         5.83500
           12616         5.58486
           12617         5.65840
           12618         5.65069
           12619         5.66064
           12620         5.58658
           12621         5.59179
           12622         5.68356
           12623         5.66517
           12624         5.42868
           12625         5.51607
           12626         5.51245
           12627         5.51176
           12628         5.42137
           12629         5.77619
           12630         5.70543
           12631         5.70436
           12632         5.65666
           12633         5.65864
           12634         5.60727
           12635         5.55993
           12636         5.69569
           12637         5.68852
           12638         5.74619
           12639         5.56315
           12640         5.56200
           12641         5.65364
           12642         5.60188
           12643         5.51324
           12644         5.55519
           12645         5.50286
           12646         5.33973
           12647         5.65515
           12648         5.84883
           12649         5.76045
           12650         5.86740
           12651         5.66552
           12652         5.76201
           12653         5.51167
           12654         5.42081
           12655         5.42931
           12656         5.52430
           12657         5.66626
           12658         5.63274
           12659         5.53320
           12660         5.50180
           12661         5.52602
           12662         5.62488
           12663         3.24845
           12664         2.77822
           12665         3.20619
           12666         3.11853
           12667         3.14916
           12668         3.99398
           12669         4.33589
           12670         3.88672
           12671         4.41984
           12672         4.55415
           12673         4.31825
           12674         3.87414
           12675         3.76017
           12676         5.73128
           12677         5.71927
           12678         5.72734
           12679         5.70832
           12680         5.72281
           12681         5.71393
           12682         5.74925
           12683         5.75352
           12684         5.71625
           12685         5.73476
           12686         5.76071
           12687         6.05200
           12688         6.31944
           12689         6.11980
           12690         5.88232
           12691         6.04873
           12692         5.78496
           12693         5.77096
           12694         5.73697
           12695         5.74858
           12696         5.80277
           12697         5.51937
           12698         5.93749
           12699         6.04850
           12700         6.05948
           12701         6.05719
           12702         5.93476
           12703         5.94041
           12704         5.84969
           12705         5.98374
           12706         6.06471
           12707         6.07081
           12708         7.34028
           12709         7.13799
           12710         6.85445
           12711         7.13138
           12712         6.17802
           12713         6.05287
           12714         5.95896
           12715         6.07332
           12716         6.07462
           12717         6.24744
           12718         6.24709
           12719         6.43567
           12720         6.34880
           12721         6.35622
           12722         6.03083
           12723         5.60018
           12724         5.76226
           12725         2.94635
           12726         2.95339
           12727         2.79600
           12728         2.92447
           12729         2.79002
           12730         2.97367
           12731         2.84340
           12732         2.82805
           12733         5.60324
           12734         5.81666
           12735         5.79298
           12736         5.73746
           12737         5.54219
           12738         6.12827
           12739         6.54239
           12740         6.00641
           12741         6.05517
           12742         5.64207
           12743         6.12686
           12744         5.57944
           12745         5.18940
           12746         5.22030
           12747         5.21634
           12748         5.60065
           12749         6.66764
           12750         6.49390
           12751         6.58141
           12752         6.48114
           12753         6.65432
           12754         6.57277
           12755         6.59732
           12756         6.65511
           12757         6.84061
           12758         6.71893
           12759         6.12784
           12760         6.23782
           12761         6.06596
           12762         6.23786
           12763         6.12726
           12764         6.14229
           12765         6.42063
           12766         6.33752
           12767         6.35383
           12768         6.41403
           12769         6.15940
           12770         6.23695
           12771         6.87981
           12772         6.77121
           12773         5.94195
           12774         6.03732
           12775         5.98015
           12776         5.94273
           12777         5.86272
           12778         5.90636
           12779         5.48861
           12780         5.50695
           12781         5.41637
           12782         10.0500
           12783         9.51854
           12784         8.58646
           12785         9.63860
           12786         10.4238
           12787         11.3218
           12788         5.46854
           12789         5.51704
           12790         5.42601
           12791         5.54438
           12792         5.49629
           12793         5.58820
           12794         5.35138
           12795         5.31041
           12796         5.23653
           12797         5.31423
           12798         5.34818
           12799         5.20974
           12800         5.28257
           12801         5.88330
           12802         5.68198
           12803         5.83704
           12804         5.59240
           12805         5.80679
           12806         5.65504
           12807         5.78637
           12808         6.03203
           12809         5.84950
           12810         5.67043
           12811         5.59954
           12812         5.70370
           12813         5.81069
           12814         5.71730
           12815         5.77613
           12816         5.76513
           12817         5.75443
           12818         5.67004
           12819         5.76593
           12820         5.69041
           12821         5.63400
           12822         5.62696
           12823         5.59859
           12824         5.65503
           12825         5.63637
           12826         5.67023
           12827         5.69182
           12828         5.67027
           12829         5.61415
           12830         5.39755
           12831         5.33636
           12832         5.32768
           12833         5.35428
           12834         5.40612
           12835         5.52520
           12836         5.55128
           12837         5.77033
           12838         5.75350
           12839         5.70185
           12840         5.90774
           12841         5.95030
           12842         6.05174
           12843         5.86282
           12844         5.91877
           12845         6.09121
           12846         5.81163
           12847         5.78587
           12848         5.50975
           12849         5.58766
           12850         5.58201
           12851         5.50568
           12852         5.83018
           12853         5.59683
           12854         5.61878
           12855         5.61784
           12856         5.66243
           12857         5.64942
           12858         5.64853
           12859         5.51291
           12860         5.50450
           12861         5.69704
           12862         5.66871
           12863         5.68382
           12864         5.64267
           12865         5.67039
           12866         5.59989
           12867         5.32512
           12868         5.36863
           12869         5.51996
           12870         5.51342
           12871         5.53747
           12872         5.43344
           12873         5.53044
           12874         5.48806
           12875         5.66053
           12876         5.42292
           12877         5.50930
           12878         5.53489
           12879         5.71983
           12880         5.70289
           12881         5.70677
           12882         5.66371
           12883         5.71496
           12884         5.70885
           12885         5.69710
           12886         5.67844
           12887         5.77432
           12888         5.30968
           12889         5.30829
           12890         5.42059
           12891         5.41844
           12892         5.30422
           12893         5.22806
           12894         5.35572
           12895         5.31062
           12896         5.18214
           12897         5.42528
           12898         5.20389
           12899         5.32015
           12900         5.71368
           12901         4.69297
           12902         4.64562
           12903         4.79553
           12904         4.84735
           12905         4.69157
           12906         4.96697
           12907         5.07216
           12908         4.90402
           12909         5.05928
           12910         4.95255
           12911         6.89923
           12912         5.35535
           12913         5.51147
           12914         4.82085
           12915         4.87739
           12916         4.80635
           12917         4.54723
           12918         4.42000
           12919         4.61328
           12920         4.51664
           12921         4.64057
           12922         4.44726
           12923         5.32426
           12924         5.08279
           12925         5.33917
           12926         5.20074
           12927         5.03935
           12928         5.05717
           12929         4.59404
           12930         4.76433
           12931         4.54749
           12932         4.56446
           12933         4.60913
           12934         3.84083
           12935         3.88537
           12936         4.06543
           12937         4.23540
           12938         4.42767
           12939         4.31323
           12940         4.73066
           12941         4.70538
           12942         4.91292
           12943         4.91171
           12944         5.35923
           12945         5.41813
           12946         5.49808
           12947         5.32186
           12948         5.29389
           12949         5.22638
           12950         5.30634
           12951         5.20000
           12952         5.24426
           12953         5.33380
           12954         5.40216
           12955         2.63490
           12956         2.64855
           12957         2.63620
           12958         2.63471
           12959         2.62100
           12960         5.27224
           12961         5.17499
           12962         5.23087
           12963         5.21010
           12964         5.38232
           12965         5.38730
           12966         5.41743
           12967         5.46883
           12968         5.63041
           12969         5.66146
           12970         5.64619
           12971         5.62584
           12972         5.60209
           12973         2.66049
           12974         2.66265
           12975         5.43098
           12976         5.39737
           12977         5.63881
           12978         5.64914
           12979         5.66332
           12980         5.78803
           12981         5.76436
           12982         5.74686
           12983         5.76426
           12984         5.80327
           12985         5.72276
           12986         5.73354
           12987         5.72106
           12988         5.71881
           12989         5.93820
           12990         5.86267
           12991         5.67686
           12992         5.39104
           12993         5.62723
           12994         5.75497
           12995         5.63905
           12996         5.68300
           12997         5.59280
           12998         5.55236
           12999         5.84878
           13000         5.84854
           13001         5.83392
           13002         5.84035
           13003         5.69846
           13004         5.69706
           13005         5.57370
           13006         5.73530
           13007         5.78526
           13008         5.78669
           13009         5.78861
           13010         5.74440
           13011         5.57393
           13012         2.66593
           13013         2.66323
           13014         2.66573
           13015         5.35598
           13016         5.17874
           13017         5.21265
           13018         5.37324
           13019         6.35044
           13020         6.25186
           13021         6.28505
           13022         6.09884
           13023         6.19585
           13024         6.15697
           13025         5.50176
           13026         5.39880
           13027         5.35874
           13028         5.07231
           13029         5.77308
           13030         5.11908
           13031         5.09827
           13032         4.93962
           13033         8.22069
           13034         4.88191
           13035         5.02990
           13036         4.93771
           13037         5.09728
           13038         4.95845
           13039         4.68472
           13040         4.66475
           13041         4.45616
           13042         4.66289
           13043         4.68648
           13044         4.47829
           13045         4.69049
           13046         4.57157
           13047         4.74374
           13048         4.53968
           13049         4.86999
           13050         4.81958
           13051         4.76093
           13052         4.71575
           13053         4.57837
           13054         4.70666
           13055         4.52202
           13056         5.03057
           13057         4.33293
           13058         4.26012
           13059         4.09156
           13060         4.19332
           13061         4.25184
           13062         5.14732
           13063         4.77932
           13064         4.34130
           13065         4.36032
           13066         4.39673
           13067         4.73009
           13068         4.76436
           13069         4.87531
           13070         4.87585
           13071         4.14926
           13072         4.15854
           13073         3.91748
           13074         3.95510
           13075         3.94849
           13076         4.21262
           13077         3.92175
           13078         3.84011
           13079         3.91381
           13080         3.72793
           13081         3.98825
           13082         3.92928
           13083         4.10005
           13084         4.18178
           13085         4.11461
           13086         3.86582
           13087         4.13076
           13088         3.81645
           13089         3.99843
           13090         4.06298
           13091         4.35289
           13092         4.29471
           13093         4.13914
           13094         5.54629
           13095         5.45426
           13096         5.47779
           13097         7.96046
           13098         7.79288
           13099         8.39599
           13100         8.46733
           13101         8.56382
           13102         5.66386
           13103         5.84359
           13104         5.75160
           13105         5.72581
           13106         5.55647
           13107         5.65069
           13108         5.63852
           13109         5.56110
           13110         5.66051
           13111         5.56275
           13112         5.15777
           13113         5.92329
           13114         6.03190
           13115         5.90119
           13116         5.61604
           13117         5.62344
           13118         10.1750
           13119         10.0916
           13120         9.79986
           13121         9.34032
           13122         9.46763
           13123         9.67077
           13124         5.88162
           13125         5.96808
           13126         5.99521
           13127         5.85221
           13128         5.73269
           13129         5.70491
           13130         5.69206
           13131         5.60612
           13132         5.62307
           13133         5.66203
           13134         5.73450
           13135         5.67291
           13136         5.65035
           13137         5.64091
           13138         5.85351
           13139         5.61307
           13140         5.50012
           13141         5.52890
           13142         5.29764
           13143         5.62512
           13144         5.77390
           13145         5.63207
           13146         5.69171
           13147         6.04465
           13148         5.92954
           13149         5.94855
           13150         5.86702
           13151         5.85712
           13152         5.84819
           13153         5.75026
           13154         6.01979
           13155         6.11778
           13156         5.68812
           13157         8.39467
           13158         8.27347
           13159         5.75282
           13160         5.73412
           13161         4.99683
           13162         4.94982
           13163         5.01165
           13164         6.19095
           13165         6.28037
           13166         6.54467
           13167         6.20357
           13168         6.25160
           13169         6.31295
           13170         5.64690
           13171         5.37550
           13172         5.58157
           13173         6.59177
           13174         6.28989
           13175         6.22471
           13176         5.32490
           13177         5.05426
           13178         5.10659
           13179         5.05238
           13180         5.32018
           13181         5.05354
           13182         4.88399
           13183         4.88784
           13184         4.75167
           13185         4.94345
           13186         4.92207
           13187         6.22573
           13188         6.34585
           13189         6.34038
           13190         6.08275
           13191         5.99549
           13192         6.11776
           13193         6.00528
           13194         4.78602
           13195         5.05442
           13196         5.22393
           13197         5.11037
           13198         4.93482
           13199         5.17621
           13200         4.90788
           13201         5.19231
           13202         4.77151
           13203         4.99885
           13204         5.03033
           13205         5.36642
           13206         2.66523
           13207         2.66248
           13208         2.66470
           13209         4.84932
           13210         4.60713
           13211         4.58560
           13212         4.48772
           13213         4.50892
           13214         4.26556
           13215         4.46683
           13216         4.17515
           13217         4.95932
           13218         5.66998
           13219         5.61217
           13220         6.20336
           13221         6.07221
           13222         5.69851
           13223         4.88925
           13224         4.84329
           13225         4.65378
           13226         5.77034
           13227         5.83038
           13228         5.60555
           13229         5.54622
           13230         2.65766
           13231         2.65930
           13232         2.65742
           13233         2.65589
           13234         6.33384
           13235         6.44324
           13236         6.13598
           13237         6.14359
           13238         6.04407
           13239         6.32901
           13240         5.97391
           13241         5.88545
           13242         5.92783
           13243         6.01434
           13244         5.83498
           13245         5.76065
           13246         5.85756
           13247         5.94192
           13248         6.49276
           13249         6.28333
           13250         6.45324
           13251         6.69279
           13252         6.51609
           13253         6.66167
           13254         6.66516
           13255         6.66102
           13256         6.93960
           13257         6.96389
           13258         6.97899
           13259         7.20473
           13260         7.13045
           13261         7.12846
           13262         6.70710
           13263         6.99858
           13264         6.80784
           13265         7.02527
           13266         6.42567
           13267         6.42364
           13268         6.41734
           13269         5.88651
           13270         5.92323
           13271         6.12080
           13272         6.01550
           13273         6.17770
           13274         6.18995
           13275         8.09959
           13276         8.22095
           13277         7.72547
           13278         8.37525
           13279         8.72761
           13280         5.98122
           13281         6.11121
           13282         5.84767
           13283         5.78815
           13284         5.45988
           13285         5.94100
           13286         5.86644
           13287         5.97408
           13288         5.85867
           13289         6.09158
           13290         5.86949
           13291         6.20091
           13292         6.35899
           13293         6.39925
           13294         6.15591
           13295         6.19896
           13296         6.06849
           13297         6.36277
           13298         6.52880
           13299         6.69762
           13300         5.94239
           13301         6.62256
           13302         6.53002
           13303         6.81584
           13304         5.92529
           13305         6.43946
           13306         6.28534
           13307         8.92269
           13308         8.40896
           13309         8.80760
           13310         6.07890
           13311         5.86469
           13312         4.84258
           13313         5.06398
           13314         5.63273
           13315         7.11460
           13316         7.05969
           13317         6.77367
           13318         6.90102
           13319         6.93725
           13320         7.23982
           13321         7.70459
           13322         7.32586
           13323         7.57647
           13324         7.00304
           13325         7.33130
           13326         5.21588
           13327         5.67547
           13328         5.83232
           13329         6.72305
           13330         6.50021
           13331         6.77972
           13332         6.77508
           13333         6.52454
           13334         6.85459
           13335         6.84239
           13336         6.89061
           13337         6.57757
           13338         6.94733
           13339         6.84419
           13340         7.44853
           13341         7.35324
           13342         5.84226
           13343         5.79581
           13344         4.97898
           13345         4.70290
           13346         4.66200
           13347         4.81006
           13348         5.58623
           13349         5.56528
           13350         4.37970
           13351         4.22101
           13352         4.53671
           13353         4.43586
           13354         4.47064
           13355         4.12884
           13356         4.29173
           13357         4.63040
           13358         4.40393
           13359         5.26528
           13360         4.88036
           13361         4.72875
           13362         3.86395
           13363         3.85691
           13364         3.55380
           13365         3.60943
           13366         3.63018
           13367         3.92080
           13368         3.99809
           13369         4.11948
           13370         4.46231
           13371         4.48609
           13372         4.56321
           13373         4.60747
           13374         4.44770
           13375         5.78017
           13376         4.32587
           13377         5.66124
           13378         5.83689
           13379         5.59440
           13380         5.83616
           13381         5.65701
           13382         5.94378
           13383         5.67599
           13384         5.67499
           13385         5.39286
           13386         5.06778
           13387         5.30433
           13388         5.14859
           13389         5.14423
           13390         4.90000
           13391         5.06357
           13392         5.00378
           13393         4.95271
           13394         4.88988
           13395         5.18723
           13396         5.09189
           13397         5.14657
           13398         4.72019
           13399         4.60675
           13400         4.71744
           13401         4.51903
           13402         4.66229
           13403         4.52043
           13404         2.69732
           13405         2.69565
           13406         2.69623
           13407         2.70282
           13408         2.70742
           13409         2.70381
           13410         4.84987
           13411         4.65184
           13412         4.65630
           13413         4.85670
           13414         4.85484
           13415         8.90522
           13416         8.36084
           13417         4.77770
           13418         4.77523
           13419         4.33872
           13420         5.22285
           13421         5.09750
           13422         5.15720
           13423         5.14731
           13424         4.30214
           13425         4.24217
           13426         4.31937
           13427         4.04951
           13428         4.15447
           13429         4.03201
           13430         4.52595
           13431         4.59523
           13432         4.53782
           13433         4.95447
           13434         4.55350
           13435         4.46566
           13436         4.66574
           13437         4.66245
           13438         4.96773
           13439         5.13656
           13440         5.02320
           13441         5.02688
           13442         1.18434
           13443         1.42079
           13444         1.42503
           13445         1.66233
           13446         1.42210
           13447         1.42060
           13448         3.43824
           13449         3.44612
           13450         3.45595
           13451         3.14058
           13452         3.13409
           13453         2.69832
           13454         2.70159
           13455         2.70058
           13456         2.71660
           13457         2.71231
           13458         2.71464
           13459         3.50785
           13460         3.51319
           13461         3.22238
           13462         3.52737
           13463         4.31757
           13464         4.26021
           13465         3.11905
           13466         2.99228
           13467         3.35663
           13468         3.32852
           13469         3.68708
           13470         3.85626
           13471         3.61858
           13472         3.64277
           13473         3.70075
           13474         3.69369
           13475         3.74431
           13476         3.81556
           13477         3.90150
           13478         3.55564
           13479         3.52706
           13480         3.44328
           13481         4.61408
           13482         4.71598
           13483         7.38040
           13484         7.22004
           13485         7.21953
           13486         6.87842
           13487         7.03608
           13488         7.03721
           13489         4.83623
           13490         4.65994
           13491         4.67562
           13492         4.42667
           13493         4.60791
           13494         4.41183
           13495         4.34733
           13496         4.52997
           13497         4.37383
           13498         4.45777
           13499         4.37313
           13500         4.53045
           13501         4.07732
           13502         3.85535
           13503         3.41159
           13504         3.52959
           13505         2.68912
           13506         2.68942
           13507         2.68634
           13508         4.60576
           13509         4.47816
           13510         2.75131
           13511         2.72310
           13512         2.78953
           13513         2.73175
           13514         2.76000
           13515         2.69723
           13516         3.52120
           13517         3.34947
           13518         3.31920
           13519         4.48553
           13520         4.40470
           13521         4.65155
           13522         4.73024
           13523         3.63522
           13524         3.87375
           13525         3.93667
           13526         3.69981
           13527         3.83577
           13528         5.36697
           13529         5.48436
           13530         5.22936
           13531         5.22527
           13532         4.07064
           13533         3.43230
           13534         3.54834
           13535         3.20873
           13536         3.41678
           13537         3.30165
           13538         4.40167
           13539         4.07265
           13540         4.22286
           13541         4.09984
           13542         4.41592
           13543         4.27203
           13544         6.24393
           13545         7.73384
           13546         8.16816
           13547         8.17399
           13548         8.48367
           13549         8.03468
           13550         8.02767
           13551         1.62149
           13552         1.35757
           13553         1.97264
           13554         1.20131
           13555         1.47280
           13556     923.940E-03
           13557     371.211E-03
           13558     487.025E-03
           13559     450.310E-03
           13560     425.133E-03
           13561     603.959E-03
           13562     465.535E-03
           13563     946.544E-03
           13564         1.06392
           13565     849.777E-03
           13566     582.518E-03
           13567     738.538E-03
           13568     774.312E-03
           13569     896.216E-03
           13570     859.617E-03
           13571     555.408E-03
           13572     568.302E-03
           13573         1.03060
           13574     728.601E-03
           13575     812.638E-03
           13576         6.94281
           13577         6.75787
           13578         6.54170
           13579         6.52041
           13580         6.92073
           13581         1.16284
           13582     901.251E-03
           13583         1.19809
           13584         1.25946
           13585     926.928E-03
           13586         1.15407
           13587         1.64567
           13588         1.09493
           13589         1.19851
           13590         1.23513
           13591         1.14987
           13592         1.11517
           13593         1.63888
           13594         2.18113
           13595         2.32768
           13596         1.79722
           13597         1.68497
           13598         2.37182
           13599         2.87631
           13600         2.13634
           13601         1.63870
           13602         2.29940
           13603         2.22324
           13604         2.37869
           13605         2.31327
           13606         2.41117
           13607         1.79854
           13608         1.86111
           13609     605.975E-03
           13610     247.556E-03
           13611     370.671E-03
           13612     420.767E-03
           13613     765.568E-03
           13614     679.407E-03
           13615         1.41476
           13616     865.007E-03
           13617         1.17323
           13618     939.979E-03
           13619         1.08808
           13620         1.77333
           13621         7.57590
           13622         7.59388
           13623         7.83779
           13624         7.49131
           13625         7.47323
           13626         4.24100
           13627         3.66071
           13628         3.59538
           13629         3.04277
           13630         3.57022
           13631         3.64199
           13632         3.56965
           13633         2.99017
           13634         3.01726
           13635         4.04464
           13636         4.70055
           13637         4.59219
           13638         4.62531
           13639         4.06824
           13640         3.45171
           13641         3.57186
           13642         2.98707
           13643         3.44341
           13644         3.69389
           13645         4.32676
           13646         4.34418
           13647         1.85774
           13648         2.39161
           13649         1.85158
           13650         2.33068
           13651         2.55227
           13652         2.36834
           13653     814.287E-03
           13654         1.06275
           13655     735.001E-03
           13656         1.01301
           13657     747.446E-03
           13658         1.06366
           13659     227.826E-03
           13660     243.742E-03
           13661     534.226E-03
           13662     254.568E-03
           13663     226.004E-03
           13664     189.637E-03
           13665     374.577E-03
           13666     599.547E-03
           13667     824.918E-03
           13668         1.15676
           13669     814.407E-03
           13670     823.529E-03
           13671     748.901E-03
           13672         1.08734
           13673         1.07460
           13674     510.118E-03
           13675     737.529E-03
           13676     806.990E-03
           13677     508.970E-03
           13678     505.831E-03
           13679     232.367E-03
           13680     248.572E-03
           13681     243.326E-03
           13682     35.6911E-03
           13683     243.949E-03
           13684     298.931E-03
           13685     296.903E-03
           13686     82.0222E-03
           13687     747.233E-03
           13688     525.265E-03
           13689     756.275E-03
           13690         5.59824
           13691         5.34779
           13692         4.97466
           13693         4.75711
           13694         4.98538
           13695         5.38548
           13696         4.33426
           13697         4.35924
           13698         5.37482
           13699         4.89826
           13700         4.81274
           13701         5.02596
           13702         5.42301
           13703         5.49717
           13704         6.02426
           13705         5.65274
           13706         5.40635
           13707         3.69267
           13708         6.32236
           13709         2.53416
           13710         2.88581
           13711         2.83722
           13712         3.55543
           13713         3.54841
           13714         3.46004
           13715         3.43479
           13716         3.44282
           13717         3.53097
           13718         4.18761
           13719         4.91005
           13720         2.77089
           13721         2.84179
           13722         2.81227
           13723         1.45847
           13724         1.07314
           13725         1.42217
           13726         1.42871
           13727         1.46651
           13728         2.99506
           13729         3.03075
           13730         2.43750
           13731         8.33242
           13732         9.19464
           13733         8.61300
           13734         7.83728
           13735         7.81752
           13736         2.64561
           13737         2.50695
           13738         2.33648
           13739         2.25585
           13740         2.52989
           13741         2.47923
           13742         2.37033
           13743         2.38310
           13744         2.50074
           13745         2.99222
           13746     954.645E-03
           13747     615.635E-03
           13748     799.710E-03
           13749     480.028E-03
           13750     807.800E-03
           13751     625.101E-03
           13752         1.41724
           13753         1.47454
           13754     493.288E-03
           13755     491.970E-03
           13756     297.245E-03
           13757     686.233E-03
           13758     796.099E-03
           13759     446.160E-03
           13760     453.014E-03
           13761     509.808E-03
           13762     308.253E-03
           13763     509.687E-03
           13764     364.460E-03
           13765     364.607E-03
           13766     557.239E-03
           13767     577.327E-03
           13768     406.574E-03
           13769     298.749E-03
           13770     305.526E-03
           13771     309.209E-03
           13772     304.126E-03
           13773     165.513E-03
           13774     276.443E-03
           13775         1.77520
           13776         1.48500
           13777         1.36932
           13778         1.65081
           13779         1.94771
           13780         2.06095
           13781         2.90045
           13782         2.85808
           13783         2.89019
           13784         2.91910
           13785         2.96316
           13786         2.92915
           13787         2.61971
           13788         1.90870
           13789         1.48233
           13790         2.07843
           13791         5.06145
           13792         4.28699
           13793         4.19073
           13794         3.80438
           13795         4.52804
           13796         4.64811
           13797         4.50309
           13798         4.79598
           13799         4.98825
           13800         5.14217
           13801         4.67082
           13802         5.88438
           13803         5.74674
           13804         5.09341
           13805         5.26582
           13806         5.85414
           13807         2.61171
           13808         2.58788
           13809         2.60168
           13810         2.58061
           13811         2.60253
           13812         2.58877
           13813         5.70963
           13814         5.35968
           13815         5.07666
           13816         5.42142
           13817         6.45362
           13818         6.16882
           13819         6.65269
           13820         6.21051
           13821         5.91007
           13822         4.92121
           13823         4.83468
           13824         4.99318
           13825         6.83107
           13826         7.03693
           13827         6.27038
           13828         6.41065
           13829         6.93920
           13830         5.43514
           13831         4.80602
           13832         3.43882
           13833         3.79189
           13834         3.99624
           13835         3.64397
           13836         3.54804
           13837         3.12959
           13838         3.98718
           13839         2.48363
           13840         2.53500
           13841         2.51941
           13842         2.60163
           13843         2.46976
           13844         6.52469
           13845         6.63822
           13846         6.67104
           13847         6.78702
           13848         6.09348
           13849         7.08190
           13850         6.92253
           13851         7.12783
           13852         6.95474
           13853         5.87527
           13854         5.72396
           13855         6.50238
           13856         6.54253
           13857         6.71279
           13858         6.64423
           13859         6.17069
           13860         6.27653
           13861         6.38941
           13862         6.40062
           13863         6.55012
           13864         6.53064
           13865         6.14582
           13866         6.22198
           13867         6.46965
           13868         6.63177
           13869         6.91453
           13870         6.65927
           13871         6.99787
           13872         6.62879
           13873         5.53673
           13874         5.58934
           13875         5.99229
           13876         6.78212
           13877         6.69919
           13878         7.08186
           13879         6.30778
           13880         6.38591
           13881         6.10613
           13882         6.01690
           13883         5.69642
           13884         6.78821
           13885         7.09424
           13886         6.74695
           13887         7.57889
           13888         7.37088
           13889         7.47947
           13890         7.19118
           13891         7.05882
           13892         6.48086
           13893         6.34474
           13894         3.88029
           13895         3.93217
           13896         3.49172
           13897         3.77425
           13898         3.43247
           13899         4.05144
           13900         3.94865
           13901         4.23121
           13902         3.99156
           13903         3.52364
           13904         3.73017
           13905         3.29395
           13906         3.56988
           13907         5.08339
           13908         4.47201
           13909         4.44256
           13910         4.95394
           13911         4.70809
           13912         4.97928
           13913         1.54145
           13914         1.54167
           13915         1.99711
           13916         2.31235
           13917         2.18515
           13918         2.53672
           13919         2.34287
           13920     160.589E-03
           13921     156.125E-03
           13922     56.4588E-03
           13923     197.280E-03
           13924     198.028E-03
           13925     399.803E-03
           13926     512.956E-03
           13927     253.667E-03
           13928         1.47931
           13929         1.22858
           13930     396.878E-03
           13931     482.504E-03
           13932     343.699E-03
           13933     349.464E-03
           13934     261.927E-03
           13935     395.325E-03
           13936     455.884E-03
           13937     595.323E-03
           13938     321.488E-03
           13939     113.676E-03
           13940     259.237E-03
           13941         2.64589
           13942         2.63404
           13943         2.64714
           13944     48.6169E-03
           13945     83.1002E-03
           13946         6.64833
           13947         6.81360
           13948         6.91613
           13949         7.09183
           13950         6.91181
           13951         6.78280
           13952         6.37682
           13953         6.15401
           13954         6.30315
           13955         6.23711
           13956         6.47698
           13957         6.32406
           13958         6.57161
           13959         6.46196
           13960         6.72968
           13961         6.16444
           13962         6.32242
           13963         6.23225
           13964         6.05215
           13965         6.35626
           13966         6.13258
           13967         6.02954
           13968         5.02009
           13969         5.04490
           13970         5.02618
           13971         5.12648
           13972         5.12435
           13973         5.20590
           13974         5.07996
           13975         5.08829
           13976         5.04788
           13977         5.71131
           13978         5.68639
           13979         5.65733
           13980         5.19526
           13981         5.62715
           13982         5.63531
           13983         5.07232
           13984         5.05985
           13985         5.03578
           13986         5.08120
           13987         5.09149
           13988         5.11611
           13989         5.07206
           13990         2.66046
           13991         2.65978
           13992         2.66215
           13993         2.65472
           13994         2.65304
           13995         5.01546
           13996         5.03221
           13997         5.07464
           13998         5.03947
           13999         5.05893
           14000         5.17769
           14001         5.14244
           14002         5.33449
           14003         5.23805
           14004         5.27843
           14005         5.19210
           14006         5.31727
           14007         5.25122
           14008         5.18270
           14009         5.09059
           14010         5.14531
           14011         5.08790
           14012         5.03305
           14013         5.02961
           14014         5.45704
           14015         5.70026
           14016         5.28003
           14017         5.39847
           14018         5.21777
           14019         5.32994
           14020         5.30789
           14021         5.35353
           14022         5.33798
           14023         5.31937
           14024         5.68620
           14025         6.24887
           14026         5.96762
           14027         5.74843
           14028         5.67114
           14029         5.44975
           14030         5.36118
           14031         5.41224
           14032         5.50553
           14033         5.39967
           14034         5.31704
           14035         5.45301
           14036         5.52855
           14037         6.05278
           14038         6.00835
           14039         5.99242
           14040         6.11820
           14041         6.30371
           14042         5.83237
           14043         6.00966
           14044         5.86940
           14045         5.94322
           14046         2.06001
           14047         2.10809
           14048         2.08762
           14049         2.01563
           14050         1.97058
           14051         1.98045
           14052         5.49618
           14053         5.16493
           14054         5.23420
           14055         6.12162
           14056         5.24751
           14057         5.31209
           14058         5.65147
           14059         5.30160
           14060         4.90075
           14061         4.73525
           14062         4.63121
           14063         5.06003
           14064         4.81384
           14065         4.72795
           14066         5.66729
           14067         5.87377
           14068         5.19138
           14069         5.04159
           14070         5.10858
           14071         4.55386
           14072         4.75826
           14073         4.42126
           14074         2.60229
           14075         2.60046
           14076         4.28618
           14077         5.03651
           14078         5.02046
           14079         5.65209
           14080         5.55385
           14081         5.55938
           14082         5.72653
           14083         5.67069
           14084         5.76303
           14085         5.51054
           14086         6.23636
           14087         6.00402
           14088         3.05348
           14089         3.38637
           14090         2.86997
           14091         3.09560
           14092         4.79309
           14093         4.50993
           14094         5.03311
           14095         2.84808
           14096         3.34843
           14097         2.45042
           14098         2.49864
           14099         1.93591
           14100         1.92662
           14101         3.63939
           14102     25.3626E-03
           14103         4.22614
           14104         1.81977
           14105         2.00756
           14106         1.88582
           14107         1.69581
           14108         1.78678
           14109         1.73122
           14110         1.49667
           14111         3.96869
           14112         2.99128
           14113         2.87824
           14114         3.05779
           14115         3.16187
           14116         1.70570
           14117     331.816E-03
           14118     361.694E-03
           14119     324.401E-03
           14120     462.769E-03
           14121     298.262E-03
           14122     155.196E-03
           14123     112.315E-03
           14124     613.103E-03
           14125     617.751E-03
           14126     432.693E-03
           14127     576.024E-03
           14128     323.067E-03
           14129     270.391E-03
           14130     466.737E-03
           14131     552.040E-03
           14132     615.864E-03
           14133     828.121E-03
           14134     728.756E-03
           14135     416.675E-03
           14136     417.873E-03
           14137     504.617E-03
           14138         2.75565
           14139         2.91390
           14140         1.76171
           14141     302.566E-03
           14142     154.035E-03
           14143     175.555E-03
           14144     69.7984E-03
           14145     346.569E-03
           14146     163.923E-03
           14147     117.784E-03
           14148         2.26916
           14149         2.24366
           14150         2.30480
           14151     816.379E-03
           14152     566.758E-03
           14153     600.452E-03
           14154     888.129E-03
           14155         1.13795
           14156         1.03098
           14157         1.66725
           14158         1.85116
           14159         1.59561
           14160         1.84729
           14161         1.64972
           14162         1.90508
           14163         1.48255
           14164         1.58525
           14165         2.21444
           14166         2.53054
           14167         2.47183
           14168         2.15331
           14169         2.67002
           14170         1.56008
           14171         1.57561
           14172         1.65424
           14173         1.64164
           14174         2.22345
           14175     884.396E-03
           14176         1.55552
           14177         1.25056
           14178         1.31525
           14179     954.583E-03
           14180     952.361E-03
           14181         1.15973
           14182         1.16361
           14183     909.921E-03
           14184         3.74691
           14185         3.74575
           14186         3.92964
           14187         3.88933
           14188         2.07628
           14189         2.23909
           14190         2.02911
           14191         2.56174
           14192         2.77278
           14193         2.80009
           14194         2.92952
           14195         2.15030
           14196         2.32331
           14197         2.90417
           14198         2.82503
           14199         2.85110
           14200         2.43035
           14201         2.15787
           14202         2.15325
           14203         2.03571
           14204         2.80111
           14205         2.42786
           14206         2.13750
           14207         2.15263
           14208         3.49680
           14209         3.50193
           14210         3.16036
           14211         3.28002
           14212         3.28919
           14213         2.85303
           14214         2.61828
           14215         2.90417
           14216         2.68540
           14217         2.94799
           14218         2.63149
           14219         2.93024
           14220         3.12669
           14221         3.28213
           14222         3.10428
           14223         2.78112
           14224         3.15757
           14225         2.92695
           14226         2.97923
           14227         2.35005
           14228         2.34777
           14229         2.55162
           14230         2.40032
           14231         1.89342
           14232         1.89302
           14233         1.92022
           14234         1.61689
           14235         1.86089
           14236         1.62037
           14237         1.89967
           14238         1.66823
           14239         2.41180
           14240         2.13678
           14241         2.36264
           14242         3.00320
           14243         2.66544
           14244         2.89845
           14245         2.87633
           14246         3.20603
           14247         2.95989
           14248         2.81883
           14249         2.66430
           14250         3.00085
           14251         2.96816
           14252         3.11716
           14253         3.28275
           14254         3.11842
           14255         3.09863
           14256         2.13429
           14257         4.73500
           14258         4.77989
           14259         4.86849
           14260         4.72828
           14261         4.68331
           14262         4.58517
           14263         4.45005
           14264         4.45781
           14265         4.52035
           14266         4.68536
           14267         4.61313
           14268         4.53313
           14269         4.73457
           14270         4.58690
           14271         4.37035
           14272         4.35694
           14273         4.35098
           14274         5.14057
           14275         5.01183
           14276         5.18185
           14277         4.51931
           14278         4.60456
           14279         4.41038
           14280         4.72099
           14281         4.80799
           14282         4.80081
           14283         4.24657
           14284         4.33935
           14285         4.30698
           14286         4.30871
           14287         4.22826
           14288         3.51385
           14289         4.01899
           14290         4.25465
           14291         4.17608
           14292         4.12870
           14293         4.27382
           14294         4.51336
           14295         4.11820
           14296         3.15386
           14297         3.08048
           14298         3.33405
           14299         2.85066
           14300         2.21529
           14301         2.94637
           14302         3.18198
           14303         2.84612
           14304         2.84768
           14305         2.51404
           14306         2.67642
           14307         2.69263
           14308         3.03124
           14309         3.60769
           14310         3.31827
           14311         3.44333
           14312         7.71169
           14313         6.99328
           14314         6.50020
           14315         2.50191
           14316         2.45130
           14317         4.37970
           14318         4.14326
           14319         4.29532
           14320         4.04735
           14321         9.97723
           14322         10.8240
           14323         9.61620
           14324         10.1039
           14325         9.47976
           14326         10.4737
           14327         4.77053
           14328         4.32719
           14329         4.15180
           14330         4.19390
           14331         3.68554
           14332         2.80237
           14333         2.81413
           14334         2.88080
           14335         2.86943
           14336         3.51656
           14337         3.44692
           14338         3.75044
           14339         3.48156
           14340         13.5024
           14341         14.6904
           14342         12.8085
           14343         12.0294
           14344         11.6161
           14345         12.4236
           14346         5.40757
           14347         5.47973
           14348         5.45689
           14349         5.48019
           14350         5.45187
           14351         5.44756
           14352         5.49315
           14353         5.46169
           14354         5.48408
           14355         5.46244
           14356         5.40455
           14357         5.39521
           14358         5.26725
           14359         5.27878
           14360         5.26749
           14361         4.87056
           14362         4.81849
           14363         5.04565
           14364         4.92850
           14365         5.03384
           14366         5.06184
           14367         4.41305
           14368         4.55658
           14369         5.30098
           14370         5.33327
           14371         5.30366
           14372         5.42549
           14373         5.39107
           14374         5.38688
           14375         5.28846
           14376         5.38108
           14377         5.43473
           14378         5.40116
           14379         4.60059
           14380         4.55558
           14381         1.57185
           14382         1.65199
           14383         1.25057
           14384         1.33580
           14385         1.27950
           14386         1.67810
           14387         4.89213
           14388         5.00157
           14389         4.89986
           14390         4.95096
           14391         5.03858
           14392         4.94534
           14393         4.77930
           14394         4.78111
           14395         4.69569
           14396         4.85687
           14397         4.46672
           14398         4.48592
           14399         4.69212
           14400         4.79514
           14401         4.86037
           14402         4.86255
           14403         5.12334
           14404         5.49575
           14405         4.83953
           14406         4.98628
           14407         4.97385
           14408         4.88726
           14409         4.90107
           14410         4.74617
           14411         4.59916
           14412         4.79580
           14413         4.11500
           14414         4.15799
           14415         4.42852
           14416         4.33886
           14417         4.43003
           14418         4.52149
           14419         4.53473
           14420         4.46951
           14421         4.34957
           14422         4.66437
           14423         4.67821
           14424         4.43786
           14425         4.66182
           14426         4.72120
           14427         4.60339
           14428         4.51660
           14429         4.71413
           14430         3.73444
           14431         3.74595
           14432         3.47868
           14433         3.18625
           14434         3.03335
           14435         3.02452
           14436         2.84771
           14437         3.00447
           14438         3.02363
           14439         3.03361
           14440         3.27523
           14441         3.32333
           14442         3.14542
           14443         4.31246
           14444         4.32879
           14445         4.05012
           14446         4.03335
           14447         4.17405
           14448         3.92281
           14449         3.98964
           14450         4.00439
           14451         4.82985
           14452         4.51320
           14453         10.9018
           14454         9.57607
           14455         10.5160
           14456         3.98750
           14457         3.91828
           14458         4.34300
           14459         3.58515
           14460         3.58939
           14461         3.32829
           14462         3.47374
           14463         4.56229
           14464         4.85663
           14465         4.45284
           14466         4.86986
           14467         5.04691
           14468         5.04928
           14469         5.15415
           14470         4.87139
           14471         5.47870
           14472         5.17163
           14473         5.17790
           14474         5.86102
           14475         5.81251
           14476         5.76578
           14477         5.68905
           14478         5.63118
           14479         5.91117
           14480         6.07286
           14481         6.03664
           14482         6.19815
           14483         6.00785
           14484         6.05213
           14485         6.14941
           14486         5.98718
           14487         5.86501
           14488         6.00863
           14489         5.98596
           14490         5.74341
           14491         5.70660
           14492         5.71961
           14493         5.70932
           14494         5.76258
           14495         5.69793
           14496         5.62444
           14497         5.92137
           14498         5.92925
           14499         5.88525
           14500         5.78344
           14501         5.78687
           14502         5.72306
           14503         5.57508
           14504         1.21099
           14505         1.21365
           14506         1.49995
           14507         5.72414
           14508     13.2109E-03
           14509         5.52029
           14510         5.54306
           14511         5.53404
           14512         5.58957
           14513         5.51401
           14514         5.48027
           14515         5.38904
           14516         5.45451
           14517         2.82315
           14518         2.51377
           14519         4.47381
           14520         3.90384
           14521         4.30129
           14522         5.49513
           14523         5.28366
           14524         5.21925
           14525         5.21364
           14526         5.16771
           14527         5.09094
           14528         5.16127
           14529         5.01205
           14530         5.01230
           14531         5.27481
           14532         5.27398
           14533         5.21294
           14534         5.23129
           14535         5.16024
           14536         5.09143
           14537         5.34033
           14538         5.34262
           14539         5.45253
           14540         5.44528
           14541         5.44060
           14542         5.32998
           14543         5.25287
           14544         5.21354
           14545         4.93651
           14546         4.88989
           14547         4.89235
           14548         4.86110
           14549         4.72199
           14550         4.17397
           14551         5.04362
           14552         4.98038
           14553         4.98005
           14554         4.67554
           14555         4.67367
           14556         3.81401
           14557         3.58713
           14558         4.98237
           14559         5.18249
           14560         5.09152
           14561         5.74647
           14562         5.75013
           14563         5.90577
           14564         5.71811
           14565         5.71893
           14566         5.90643
           14567         6.02324
           14568         5.01129
           14569         5.14521
           14570         5.41539
           14571         5.27047
           14572         5.16118
           14573         5.20462
           14574         5.01319
           14575         5.43867
           14576         5.74098
           14577         5.45046
           14578         5.73684
           14579         5.43754
           14580         5.43485
           14581         5.18447
           14582         5.67911
           14583         6.10733
           14584         5.99027
           14585         5.55560
           14586         5.48258
           14587         5.48194
           14588         5.15794
           14589         5.17798
           14590         5.27414
           14591         4.86688
           14592         5.71761
           14593         5.15521
           14594         6.16820
           14595         6.30220
           14596         6.29623
           14597         6.16218
           14598         6.56423
           14599         6.45242
           14600         6.44243
           14601         6.29258
           14602         6.17314
           14603         6.02674
           14604         5.65010
           14605         6.14128
           14606         6.42099
           14607         6.55648
           14608         6.31398
           14609         6.33355
           14610         6.43499
           14611         6.18738
           14612         5.94107
           14613         6.17660
           14614         6.04447
           14615         6.20230
           14616         5.95881
           14617         5.96629
           14618         6.31842
           14619         6.57788
           14620         6.19810
           14621         6.20090
           14622         5.98109
           14623         6.32025
           14624         5.71623
           14625         5.69679
           14626         5.96655
           14627         5.97666
           14628         6.00398
           14629         5.73670
           14630         6.34056
           14631         6.29919
           14632         6.42878
           14633         6.62927
           14634         6.46862
           14635         6.64882
           14636         6.44509
           14637         6.60266
           14638         6.22282
           14639         6.14478
           14640         6.20395
           14641         6.27028
           14642         6.63591
           14643         6.42953
           14644         6.61209
           14645         2.53667
           14646         2.28087
           14647         2.52019
           14648         2.43023
           14649         2.59082
           14650         2.42103
           14651         2.40185
           14652         2.24297
           14653         2.40761
           14654         6.16138
           14655         6.10639
           14656         6.05724
           14657         6.32748
           14658         6.36150
           14659         6.37804
           14660         5.74194
           14661         5.74323
           14662         5.89997
           14663         5.82331
           14664         5.24689
           14665         5.25529
           14666         5.46446
           14667         6.13377
           14668         6.17902
           14669         6.04425
           14670         6.10902
           14671         5.97934
           14672         5.98536
           14673         5.99986
           14674         5.90715
           14675         5.88496
           14676         5.93757
           14677         5.94471
           14678         5.91552
           14679         5.93989
           14680         5.61097
           14681         5.56030
           14682         5.61611
           14683         5.80297
           14684         6.23851
           14685         5.90493
           14686         5.97384
           14687         5.73138
           14688         5.71821
           14689         5.95942
           14690         5.64332
           14691         5.69671
           14692         5.64409
           14693         5.64334
           14694         5.65305
           14695         5.53292
           14696         5.48454
           14697         5.98054
           14698         5.58142
           14699         5.48614
           14700         5.68115
           14701         5.68070
           14702         5.76799
           14703         5.76600
           14704         2.65647
           14705         2.66584
           14706         2.64928
           14707         2.66013
           14708         2.64812
           14709         2.66460
           14710         2.63592
           14711         2.64467
           14712         2.63903
           14713         5.79716
           14714         5.16646
           14715         2.65917
           14716         2.66411
           14717         2.66706
           14718         2.77328
           14719         2.82279
           14720         2.99215
           14721         2.81265
           14722         2.76190
           14723         5.86905
           14724         5.76970
           14725         5.82863
           14726         5.15207
           14727         5.39591
           14728         5.32344
           14729         6.25014
           14730         7.62899
           14731         8.39400
           14732         7.38880
           14733         8.72586
           14734         7.88681
           14735         8.99825
           14736         5.75830
           14737         5.66486
           14738         5.70956
           14739         5.71850
           14740         5.68799
           14741         5.64140
           14742         5.74996
           14743         6.36221
           14744         6.09239
           14745         6.45844
           14746         6.91946
           14747         7.24483
           14748         7.24161
           14749         7.02997
           14750         6.71918
           14751         6.72179
           14752         6.81776
           14753         6.69210
           14754         6.82650
           14755         7.05881
           14756         5.64733
           14757         2.97988
           14758         2.98853
           14759         2.86649
           14760         3.04251
           14761         3.03302
           14762         3.16344
           14763         8.42334
           14764         7.38054
           14765         7.96054
           14766         6.89863
           14767         8.33924
           14768         5.61006
           14769         5.54921
           14770         5.54333
           14771         5.83690
           14772         5.80210
           14773         5.74096
           14774         5.89517
           14775         6.72828
           14776         6.44732
           14777         6.68518
           14778         6.99469
           14779         7.26577
           14780         6.16168
           14781         6.14024
           14782         3.39286
           14783         3.30835
           14784         3.11017
           14785         3.12697
           14786         3.23248
           14787         7.57274
           14788         7.38103
           14789         7.43111
           14790         7.76646
           14791         7.96564
           14792         7.91909
           14793         2.63366
           14794         2.64639
           14795         7.82148
           14796         7.55813
           14797         7.31488
           14798         7.63807
           14799         7.94197
           14800         8.01720
           14801         7.31666
           14802         7.76660
           14803         8.39400
           14804         8.00684
           14805         8.17676
           14806         8.64004
           14807         6.26579
           14808         6.30473
           14809         6.12997
           14810         6.43908
           14811         5.90245
           14812         6.55575
           14813         6.94360
           14814         6.81737
           14815         6.82393
           14816         6.45625
           14817         6.32527
           14818         6.51374
           14819         5.96059
           14820         5.86163
           14821         5.96298
           14822         5.94901
           14823         7.01074
           14824         7.07115
           14825         7.17069
           14826         7.14159
           14827         6.60469
           14828         6.38078
           14829         6.88305
           14830         6.00652
           14831         5.77077
           14832         5.51498
           14833         6.72365
           14834         6.89507
           14835         6.76542
           14836         7.21174
           14837         5.82061
           14838         5.81923
           14839         5.76309
           14840         5.79237
           14841         5.13957
           14842         5.14488
           14843         5.77549
           14844         5.76947
           14845         5.64154
           14846         5.68309
           14847         5.61548
           14848         5.75011
           14849         5.74248
           14850         5.76384
           14851         5.91905
           14852         5.67586
           14853         5.66894
           14854         7.34193
           14855         6.84992
           14856         6.84852
           14857         7.08282
           14858         7.10306
           14859         6.81058
           14860         6.22839
           14861         6.09630
           14862         6.24122
           14863         6.04568
           14864         5.94835
           14865         6.12611
           14866         6.32610
           14867         6.25630
           14868         6.43902
           14869         6.88132
           14870         5.73273
           14871         5.99872
           14872         6.08820
           14873         2.64356
           14874         2.62790
           14875         6.44367
           14876         8.02826
           14877         8.00153
           14878         7.33746
           14879         8.21931
           14880         8.39498
           14881         8.53174
           14882         8.53449
           14883         6.94494
           14884         7.23490
           14885         6.95588
           14886         7.51402
           14887         7.22363
           14888         7.49997
           14889         2.66807
           14890         2.66676
           14891         2.67740
           14892         2.67075
           14893         2.67157
           14894         6.00733
           14895         6.83483
           14896         5.75374
           14897         5.55544
           14898         5.74170
           14899         5.52500
           14900         5.53403
           14901         6.73366
           14902         6.96508
           14903         6.60583
           14904         6.92797
           14905         7.20382
           14906         6.94008
           14907         6.88976
           14908         5.89759
           14909         6.93593
           14910         6.88723
           14911         6.10570
           14912         5.94284
           14913         5.86410
           14914         5.81134
           14915         6.67130
           14916         6.97121
           14917         6.73783
           14918         7.18002
           14919         6.84375
           14920         7.10192
           14921         6.15334
           14922         6.07797
           14923         4.30729
           14924         4.46015
           14925         3.97668
           14926         4.03662
           14927         4.37987
           14928         5.52448
           14929         5.51728
           14930         5.54420
           14931         5.61047
           14932         5.59355
           14933         5.56981
           14934         5.67197
           14935         5.69162
           14936         5.63044
           14937         5.71118
           14938         2.10340
           14939         2.03322
           14940         2.00229
           14941         2.04277
           14942         2.12065
           14943         5.67404
           14944         5.69991
           14945         5.60893
           14946         5.66655
           14947         5.46999
           14948         5.42348
           14949         5.42666
           14950     84.7446E-03
           14951     88.3560E-03
           14952     142.400E-03
           14953     97.1049E-03
           14954     94.2926E-03
           14955     43.5926E-03
           14956         7.10460
           14957         6.73143
           14958         7.75605
           14959         7.75362
           14960         7.18532
           14961         7.19859
           14962         7.69761
           14963         5.66195
           14964         5.54326
           14965         5.59538
           14966         5.47739
           14967         5.59155
           14968         5.54429
           14969         5.59027
           14970         5.73199
           14971         5.69707
           14972         5.66727
           14973         5.70210
           14974         5.68570
           14975         5.72688
           14976         5.66992
           14977         5.68817
           14978         5.70789
           14979         5.71737
           14980         5.73366
           14981         5.73434
           14982         5.63162
           14983         5.58574
           14984         5.74788
           14985         5.73499
           14986         5.70877
           14987         5.53768
           14988         5.60946
           14989         5.83728
           14990         5.41800
           14991         6.17179
           14992         6.48526
           14993         6.40235
           14994         5.88594
           14995         6.00672
           14996         5.84305
           14997         5.87592
           14998         5.75936
           14999         5.92851
           15000         5.74930
           15001         5.86563
           15002         5.82627
           15003         6.01837
           15004         5.88691
           15005         2.79672
           15006         2.82383
           15007         2.84242
           15008         2.82710
           15009         2.80004
           15010         2.78161
           15011         6.06179
           15012         6.26719
           15013         6.17419
           15014         6.11534
           15015         6.41565
           15016         6.53208
           15017         6.37145
           15018         6.13110
           15019         2.90505
           15020         2.73735
           15021         2.95696
           15022         5.97388
           15023         5.93243
           15024         6.08032
           15025         6.05096
           15026         6.18131
           15027         5.72399
           15028         5.80831
           15029         5.81647
           15030         5.82255
           15031         5.78149
           15032         5.76435
           15033         5.83247
           15034         7.83684
           15035         7.40112
           15036         5.30491
           15037         5.77336
           15038         5.61152
           15039         6.76996
           15040         6.72393
           15041         8.35210
           15042         8.88468
           15043         8.83463
           15044         8.87766
           15045         8.34362
           15046         8.38803
           15047         5.28591
           15048         5.47255
           15049         5.81328
           15050         5.76824
           15051         6.23811
           15052         6.12079
           15053         7.33771
           15054         4.89454
           15055         4.77859
           15056         4.90197
           15057         4.72718
           15058         4.85706
           15059         4.72531
           15060         5.12488
           15061         5.12099
           15062         5.17441
           15063         5.14354
           15064         5.04840
           15065         5.00973
           15066         5.28775
           15067         5.17245
           15068         5.13892
           15069         5.19935
           15070         5.24582
           15071         5.37952
           15072         4.94184
           15073         4.95336
           15074         4.98896
           15075         4.97733
           15076         5.18583
           15077         4.99539
           15078         5.23764
           15079         6.71546
           15080         6.28702
           15081         6.14762
           15082         6.08624
           15083         6.59425
           15084         5.33949
           15085         5.29699
           15086         5.37687
           15087         5.40727
           15088         5.76008
           15089         5.55319
           15090         5.47486
           15091         5.41772
           15092         5.15458
           15093         5.28149
           15094         5.41461
           15095         5.21717
           15096         5.26940
           15097         5.12022
           15098         5.08594
           15099         5.41536
           15100         5.30890
           15101         5.37222
           15102         5.91380
           15103         6.01013
           15104         5.42270
           15105         5.72791
           15106         5.74916
           15107         5.84422
           15108         5.73976
           15109         5.62147
           15110         7.91844
           15111         7.88447
           15112         5.34712
           15113         5.51761
           15114         5.53678
           15115         5.78997
           15116         5.83608
           15117         5.76240
           15118         5.77010
           15119         5.77150
           15120         5.74900
           15121         5.71727
           15122         5.15473
           15123         2.49421
           15124         5.92987
           15125         5.94071
           15126         6.45084
           15127         7.67324
           15128         7.63573
           15129         6.53478
           15130         6.23021
           15131         6.34341
           15132         6.34536
           15133         6.42584
           15134         6.68144
           15135         6.42954
           15136         9.42721
           15137         8.89084
           15138         8.89960
           15139         8.15038
           15140         7.87746
           15141         8.25331
           15142         8.86497
           15143         8.37222
           15144         8.82505
           15145         8.82206
           15146         9.34300
           15147         8.86786
           15148         7.84068
           15149         8.34099
           15150         3.07675
           15151         3.00929
           15152         3.21456
           15153         3.05352
           15154         3.34046
           15155         3.32600
           15156         3.51458
           15157         3.95444
           15158         3.43287
           15159         3.73357
           15160         2.96532
           15161         2.71620
           15162         2.94204
           15163         2.85206
           15164         2.28673
           15165         2.47114
           15166         2.50333
           15167         2.64476
           15168         2.46721
           15169         2.43251
           15170         2.66288
           15171         3.30439
           15172         3.52069
           15173         3.14085
           15174         3.04239
           15175         4.15310
           15176         4.38383
           15177         4.25662
           15178         4.12793
           15179         3.57917
           15180         4.03848
           15181         3.92410
           15182         5.17947
           15183         5.42069
           15184         5.52022
           15185         5.08537
           15186         5.27770
           15187         4.45352
           15188         4.35163
           15189         4.67280
           15190         4.58685
           15191         4.80005
           15192         4.46006
           15193         4.71537
           15194         4.93741
           15195         4.82244
           15196         5.22470
           15197         5.75833
           15198         5.72189
           15199         5.61488
           15200         5.11659
           15201         6.30591
           15202         5.65546
           15203         5.77925
           15204         2.79179
           15205         2.80485
           15206         2.82823
           15207         2.80456
           15208         2.79139
           15209         2.77233
           15210         4.89832
           15211         5.04349
           15212         6.04676
           15213         6.38458
           15214         6.49434
           15215         5.65991
           15216         6.27741
           15217         6.13459
           15218         5.41251
           15219         5.27369
           15220         5.50998
           15221         4.16602
           15222         3.17618
           15223         4.11697
           15224         4.36906
           15225         4.18724
           15226         4.39737
           15227         4.55529
           15228         4.60627
           15229         4.51452
           15230         4.32855
           15231         3.59329
           15232         3.90056
           15233         4.52170
           15234         4.37140
           15235         4.43665
           15236         4.56045
           15237         4.61782
           15238         4.14504
           15239         4.93419
           15240         4.78765
           15241         4.91922
           15242         3.98402
           15243         4.63553
           15244         3.53851
           15245         3.64248
           15246         5.72784
           15247         4.47176
           15248         4.38500
           15249         5.23111
           15250         5.45268
           15251         4.05732
           15252         4.08804
           15253         7.87596
           15254         8.01146
           15255         4.13122
           15256         3.94905
           15257         3.93601
           15258         6.78700
           15259         5.04841
           15260         4.21326
           15261         4.29449
           15262         4.39987
           15263         4.21581
           15264         4.19525
           15265         4.50950
           15266         5.06475
           15267         4.85772
           15268         5.04605
           15269         5.00590
           15270         5.02885
           15271         5.45143
           15272         5.65311
           15273         5.62794
           15274         5.66441
           15275         5.46102
           15276         5.24963
           15277         5.50266
           15278         5.15699
           15279         5.09661
           15280         5.00626
           15281         5.21725
           15282         5.06205
           15283         5.23360
           15284         5.12445
           15285         5.16490
           15286         5.68333
           15287         5.75622
           15288         5.02745
           15289         6.65094
           15290         7.93422
           15291         8.05315
           15292         8.39392
           15293         6.33014
           15294         6.50788
           15295         6.20592
           15296         6.19146
           15297         8.36114
           15298         8.80726
           15299         8.85027
           15300         7.14802
           15301         7.27776
           15302         7.20988
           15303         7.20303
           15304         7.54311
           15305         7.69016
           15306         6.80559
           15307         6.89394
           15308         6.87634
           15309         8.72043
           15310         8.73744
           15311         9.26238
           15312         8.05003
           15313         8.03062
           15314         6.22940
           15315         6.19662
           15316         7.89759
           15317         6.12301
           15318         8.41538
           15319         8.40439
           15320         8.25368
           15321         8.26650
           15322         8.75827
           15323         7.17225
           15324         6.85905
           15325         7.44672
           15326         7.81514
           15327         7.67294
           15328         2.58217
           15329         2.72318
           15330         2.72028
           15331         2.67914
           15332         2.59670
           15333         2.77365
           15334         2.72554
           15335         2.56233
           15336         2.39306
           15337         2.43679
           15338         2.78778
           15339         2.81246
           15340         2.80543
           15341         2.81529
           15342         2.79482
           15343         2.84725
           15344         2.87287
           15345         2.84215
           15346         2.42191
           15347         2.46056
           15348         2.57583
           15349         2.43849
           15350         2.28373
           15351         2.26985
           15352         2.25640
           15353         5.71283
           15354         5.64346
           15355         5.36681
           15356         5.57606
           15357         1.99742
           15358         1.94459
           15359         2.07746
           15360         2.02479
           15361         1.95329
           15362         2.07432
           15363         1.96391
           15364         1.92258
           15365         1.97193
           15366         2.26076
           15367         2.74906
           15368         2.70110
           15369         2.83442
           15370         1.90525
           15371         1.89868
           15372         8.18861
           15373         7.02441
           15374         7.91149
           15375         2.26758
           15376         1.90671
           15377         1.88232
           15378         1.87562
           15379         1.90580
           15380         2.08399
           15381         2.47714
           15382         2.30420
           15383         2.52344
           15384         2.79261
           15385         2.60592
           15386         2.66004
           15387         2.81295
           15388         2.85131
           15389         2.83349
           15390         6.35675
           15391         6.77833
           15392         6.39864
           15393         3.12717
           15394         3.41393
           15395         3.28673
           15396         3.25265
           15397         3.17874
           15398         3.33692
           15399         3.37305
           15400         3.44761
           15401         3.09592
           15402         3.02959
           15403         3.01319
           15404         3.21543
           15405         3.04403
           15406         3.89402
           15407         4.03164
           15408         3.86709
           15409         3.95500
           15410         3.56314
           15411         3.46644
           15412         3.68902
           15413         3.57259
           15414         3.66734
           15415         3.56385
           15416         3.37510
           15417         3.44455
           15418         3.47019
           15419         4.40448
           15420         4.19390
           15421         4.64212
           15422         4.56719
           15423         5.07864
           15424         6.52121
           15425         6.34575
           15426         6.68065
           15427         4.17691
           15428         4.95638
           15429         4.98216
           15430         4.93565
           15431         5.05952
           15432         2.24373
           15433         2.25162
           15434         2.31102
           15435         2.25171
           15436         2.24337
           15437         2.18185
           15438         4.01454
           15439         3.78151
           15440         3.75669
           15441         3.91009
           15442         5.77776
           15443         5.60271
           15444         5.65599
           15445         5.88401
           15446         5.66749
           15447         5.65267
           15448         5.11269
           15449         5.73456
           15450         5.96534
           15451         5.95129
           15452         3.93060
           15453         4.28893
           15454         5.00624
           15455         5.07478
           15456         4.20001
           15457         4.23920
           15458         4.44098
           15459         6.51715
           15460         6.97579
           15461         6.48492
           15462         7.21630
           15463         7.21243
           15464         5.87735
           15465         5.94064
           15466         6.29891
           15467         6.51364
           15468         6.20440
           15469         6.26051
           15470         5.91542
           15471         6.21547
           15472         6.15927
           15473         5.72499
           15474         5.91126
           15475         5.84251
           15476         5.68591
           15477         5.68590
           15478         5.47910
           15479         5.76554
           15480         6.30407
           15481         6.40406
           15482         6.39795
           15483         6.03762
           15484         6.29710
           15485         6.05330
           15486         6.03583
           15487         6.06505
           15488         6.39177
           15489         6.35719
           15490         7.07920
           15491         7.38727
           15492         7.52953
           15493         7.52912
           15494         7.21931
           15495         3.00230
           15496         3.06975
           15497         3.05930
           15498         3.00300
           15499         2.93552
           15500         2.94590
           15501         7.52948
           15502         7.53336
           15503         8.05941
           15504         7.04866
           15505         6.37762
           15506         6.35369
           15507         6.89952
           15508         7.23707
           15509         7.09195
           15510         7.24152
           15511         6.90221
           15512         7.07366
           15513         2.38194
           15514         2.35851
           15515         2.38841
           15516         2.27392
           15517         2.29508
           15518         2.26920
           15519         2.54622
           15520         2.69592
           15521         2.55244
           15522         2.62578
           15523         2.48158
           15524         2.61824
           15525         2.60721
           15526         2.47212
           15527         2.61363
           15528         4.72384
           15529         4.51088
           15530         4.12505
           15531         4.29807
           15532         4.48632
           15533         2.16324
           15534         2.13568
           15535         2.13309
           15536         2.02000
           15537         2.04313
           15538         2.06545
           15539         1.94791
           15540         1.96204
           15541         2.22123
           15542         2.15841
           15543         2.14290
           15544         2.20527
           15545         1.87799
           15546         1.88397
           15547         1.87938
           15548         1.90252
           15549         1.93956
           15550         1.96846
           15551         2.15332
           15552         1.97415
           15553         1.96352
           15554         1.99162
           15555         1.98987
           15556         1.96302
           15557         1.96759
           15558         1.97117
           15559         2.02515
           15560         2.03007
           15561         2.01207
           15562         7.79621
           15563         7.80320
           15564         7.77630
           15565         1.91107
           15566         1.96107
           15567         1.94834
           15568         1.96911
           15569         1.91976
           15570         2.70487
           15571         2.73455
           15572         2.57918
           15573         2.61346
           15574         2.58036
           15575         2.73608
           15576         2.63932
           15577         2.97283
           15578         3.03361
           15579         2.75301
           15580         2.74341
           15581         2.75464
           15582         2.73474
           15583         2.73399
           15584         1.90166
           15585         1.88675
           15586         1.90673
           15587         1.98482
           15588         1.95253
           15589         1.93850
           15590         2.03067
           15591         2.13478
           15592         2.16731
           15593         2.13266
           15594         2.15264
           15595         1.96343
           15596         6.04329
           15597         6.14480
           15598         6.26966
           15599         6.09921
           15600         2.43862
           15601         2.45029
           15602         2.28739
           15603         2.45628
           15604         2.57988
           15605         2.36236
           15606         2.86808
           15607         2.91264
           15608         2.72834
           15609         2.65762
           15610         2.31031
           15611         2.38971
           15612         2.41810
           15613         2.87765
           15614         2.85881
           15615         2.98603
           15616         4.03798
           15617         3.99590
           15618         3.98302
           15619         4.16362
           15620         4.20457
           15621         2.91086
           15622         3.04545
           15623         3.07844
           15624         3.40592
           15625         3.78929
           15626         3.80305
           15627         3.69924
           15628         3.82248
           15629         3.61217
           15630         3.59925
           15631         3.51181
           15632         3.82357
           15633         3.76794
           15634         3.38381
           15635         3.40317
           15636         3.59111
           15637         3.43897
           15638         4.50828
           15639         4.28686
           15640         4.69528
           15641         4.63461
           15642         4.87410
           15643         3.99563
           15644         2.77470
           15645         2.84251
           15646         2.80603
           15647         3.18745
           15648         3.22185
           15649         3.29801
           15650         4.73240
           15651         4.91208
           15652         4.72290
           15653         4.80349
           15654         4.82853
           15655         4.74980
           15656         4.56468
           15657         4.53413
           15658         5.10909
           15659         5.35428
           15660         5.31864
           15661         5.53787
           15662         5.28600
           15663         5.32247
           15664         4.78629
           15665         4.86174
           15666         4.90879
           15667         4.63750
           15668         5.23855
           15669         5.55107
           15670         5.45088
           15671         5.33462
           15672         5.24530
           15673         4.36023
           15674         4.37343
           15675         5.33131
           15676         5.43788
           15677         6.42788
           15678         6.79581
           15679         6.39542
           15680         6.81296
           15681         6.14087
           15682         5.67100
           15683         5.77458
           15684         5.80520
           15685         5.84037
           15686         5.93808
           15687         6.15818
           15688         5.97336
           15689         5.47686
           15690         6.93955
           15691         6.79464
           15692         6.94122
           15693         6.55137
           15694         6.55004
           15695         6.51460
           15696         7.24339
           15697         7.15594
           15698         7.30537
           15699         7.15761
           15700         2.02118
           15701         2.01646
           15702         2.06185
           15703         2.06145
           15704         2.01652
           15705         2.04553
           15706         2.03666
           15707         2.08981
           15708         2.11945
           15709         2.09899
           15710         2.11277
           15711         2.17032
           15712         2.19370
           15713         2.13959
           15714         2.18538
           15715         1.99839
           15716         2.03726
           15717         2.02064
           15718         2.07182
           15719         2.06000
           15720         1.93249
           15721         1.92951
           15722         1.92999
           15723         1.97025
           15724         1.93460
           15725         1.94101
           15726         1.94826
           15727         1.99863
           15728         1.99064
           15729         1.99204
           15730         1.96192
           15731         1.95657
           15732         2.09017
           15733         1.97439
           15734         1.99090
           15735         1.99057
           15736         2.10716
           15737         2.12463
           15738         2.07626
           15739         2.13670
           15740         2.14308
           15741         2.10133
           15742         2.18546
           15743         2.31704
           15744         1.96037
           15745         1.93345
           15746         1.98508
           15747         2.21490
           15748         2.26406
           15749         2.24235
           15750         2.19067
           15751         2.16732
           15752         2.22337
           15753         1.94329
           15754         2.18191
           15755         5.40381
           15756         5.44696
           15757         2.32833
           15758         2.23530
           15759         2.14599
           15760         1.89199
           15761         2.37617
           15762         2.45276
           15763         2.35781
           15764         2.44704
           15765         2.36675
           15766         2.26358
           15767         2.22478
           15768         2.21964
           15769         2.29039
           15770         2.25005
           15771         2.33667
           15772         2.30827
           15773         2.17578
           15774         2.40134
           15775         2.46386
           15776         2.40194
           15777         2.39547
           15778         2.39199
           15779         2.26491
           15780         2.33405
           15781         2.25430
           15782         2.32663
           15783         2.35754
           15784         2.18810
           15785         2.09834
           15786         1.92895
           15787         1.92379
           15788         1.92414
           15789         1.85546
           15790         1.92947
           15791         2.11142
           15792         2.11221
           15793         2.93658
           15794         2.37183
           15795         2.36400
           15796         2.43383
           15797         2.12827
           15798         2.06508
           15799         2.04430
           15800         2.01195
           15801         2.00726
           15802         2.33476
           15803         2.78988
           15804         2.94877
           15805         2.89370
           15806         2.92853
           15807         3.15421
           15808         3.28425
           15809         3.30072
           15810         3.09421
           15811         2.75131
           15812         2.89495
           15813         2.72090
           15814         2.60038
           15815         2.53269
           15816         2.46759
           15817         2.98281
           15818         3.50536
           15819         3.50607
           15820         3.51407
           15821         2.96986
           15822         3.11007
           15823         3.03270
           15824         2.91080
           15825         3.14364
           15826         3.29808
           15827         3.93437
           15828         2.86334
           15829         2.82538
           15830         2.89789
           15831         2.80122
           15832         2.80384
           15833         3.02849
           15834         5.50974
           15835         3.66521
           15836         3.53555
           15837         3.53870
           15838         3.66848
           15839         3.61751
           15840         3.61330
           15841         3.80997
           15842         3.87552
           15843         4.01972
           15844         4.07290
           15845         3.79680
           15846         3.93387
           15847         3.68226
           15848         4.63489
           15849         4.61190
           15850         4.91499
           15851         5.12639
           15852         3.57820
           15853         4.74601
           15854         4.78797
           15855         4.93470
           15856         5.22108
           15857         5.02956
           15858         4.28891
           15859         4.37824
           15860         4.51169
           15861         4.36023
           15862         4.27211
           15863         4.14725
           15864         4.75084
           15865         4.73186
           15866         4.90849
           15867         4.53930
           15868         4.52107
           15869         4.37702
           15870         4.59435
           15871         5.06842
           15872         5.97891
           15873         5.97820
           15874         5.78699
           15875         5.72999
           15876         5.96432
           15877         5.77226
           15878         5.51777
           15879         5.29201
           15880         5.48054
           15881         5.53499
           15882         5.57150
           15883         5.44628
           15884         5.65536
           15885         5.46998
           15886         4.04814
           15887         4.95366
           15888         4.72599
           15889         5.43457
           15890         5.39258
           15891         6.03091
           15892         5.84269
           15893         5.83742
           15894         5.83455
           15895         5.67094
           15896         5.48531
           15897         5.15165
           15898         6.64936
           15899         6.64678
           15900         6.83338
           15901         6.98075
           15902         6.98350
           15903         5.23496
           15904         6.02400
           15905         6.26986
           15906         6.25781
           15907         6.01217
           15908         6.50109
           15909         6.53814
           15910         6.69783
           15911         6.94569
           15912         5.86342
           15913         5.95531
           15914         5.50078
           15915         5.83254
           15916         5.58599
           15917         5.81668
           15918         5.48420
           15919         5.72828
           15920         5.94961
           15921         5.96665
           15922         6.05466
           15923         6.20772
           15924         6.17431
           15925         5.88692
           15926         6.02243
           15927         6.05538
           15928         6.34917
           15929         4.81503
           15930         5.07427
           15931         5.04343
           15932         2.18503
           15933         2.18187
           15934         2.23091
           15935         2.18939
           15936         2.26433
           15937         2.25871
           15938         2.22121
           15939         2.22813
           15940         2.22836
           15941         2.26567
           15942         2.28788
           15943         2.28374
           15944         2.31912
           15945         2.26798
           15946         2.14910
           15947         2.18942
           15948         2.23151
           15949         2.18879
           15950         2.19275
           15951         2.18494
           15952         2.20051
           15953         2.18114
           15954         2.16141
           15955         2.16322
           15956         2.18890
           15957         2.20282
           15958         2.12279
           15959         2.15064
           15960         2.14885
           15961         2.22075
           15962         2.20355
           15963         2.22258
           15964         2.18536
           15965         5.76805
           15966         2.26258
           15967         2.28871
           15968         2.25140
           15969         2.28479
           15970         2.29555
           15971         2.03580
           15972         2.19559
           15973         2.23111
           15974         2.22015
           15975         2.26650
           15976         2.23252
           15977         2.24562
           15978         2.26815
           15979         2.24216
           15980         2.27961
           15981         2.30853
           15982         2.78657
           15983         2.89028
           15984         2.76613
           15985         2.05799
           15986     690.656E-03
           15987     710.253E-03
           15988     708.132E-03
           15989     663.235E-03
           15990     648.749E-03
           15991     771.022E-03
           15992         2.48148
           15993         2.42245
           15994         2.48663
           15995         2.38585
           15996         2.24288
           15997         2.34528
           15998         2.29166
           15999         2.25775
           16000         2.26982
           16001         2.29458
           16002         3.02428
           16003         2.22985
           16004         2.24128
           16005         2.24225
           16006         2.26930
           16007         2.23131
           16008         2.54793
           16009         2.56832
           16010         2.48295
           16011         2.54090
           16012         2.30893
           16013         2.24051
           16014         2.97321
           16015         2.96437
           16016         2.90722
           16017         3.24090
           16018         3.26427
           16019         3.15811
           16020         3.13374
           16021         3.27936
           16022         3.26981
           16023         3.37336
           16024         3.29123
           16025         3.23975
           16026         3.14349
           16027         3.22130
           16028         2.10946
           16029         2.51595
           16030         2.54537
           16031         2.51939
           16032         2.41407
           16033         3.00534
           16034         2.97786
           16035         2.91728
           16036         3.12575
           16037         3.27229
           16038         3.17487
           16039         3.32708
           16040         3.37791
           16041         3.52345
           16042         3.39247
           16043         3.34247
           16044         3.20580
           16045         3.17511
           16046         3.05541
           16047         3.24185
           16048         2.96171
           16049         3.48388
           16050         3.46047
           16051         2.87143
           16052         3.62330
           16053         2.55308
           16054         3.02611
           16055         3.07641
           16056         3.16504
           16057         2.92606
           16058         2.89848
           16059         3.01958
           16060         3.05803
           16061         3.04862
           16062         3.17099
           16063         3.34631
           16064         3.95791
           16065         3.85244
           16066         4.02126
           16067         3.97958
           16068         4.08815
           16069         5.69941
           16070         3.84476
           16071         3.94844
           16072         3.78189
           16073         3.90897
           16074         4.08349
           16075         3.90029
           16076         4.22127
           16077         4.22788
           16078         4.27126
           16079         4.23787
           16080         4.10837
           16081         4.03537
           16082         3.60964
           16083         3.44444
           16084         3.61440
           16085         3.47745
           16086         3.64249
           16087         3.47268
           16088         3.53298
           16089         3.53685
           16090         3.63386
           16091         3.63839
           16092         3.78695
           16093         3.77825
           16094         4.55437
           16095         3.62864
           16096         3.61141
           16097         3.62372
           16098         3.79623
           16099         3.82169
           16100         4.37302
           16101         4.21572
           16102         3.96228
           16103         3.77775
           16104         3.84208
           16105         4.09846
           16106         3.96315
           16107         4.99805
           16108         4.83228
           16109         4.92846
           16110         6.24478
           16111         5.53313
           16112         5.70488
           16113         5.99613
           16114         5.19327
           16115         5.44194
           16116         5.05139
           16117         5.27085
           16118         5.19869
           16119         4.85930
           16120         5.08308
           16121         5.00443
           16122         4.64934
           16123         4.62016
           16124         4.86450
           16125         4.89379
           16126         4.65394
           16127         3.26457
           16128         3.26085
           16129         3.08228
           16130         3.26053
           16131         3.26324
           16132         4.61890
           16133         5.54724
           16134         5.46207
           16135         6.64517
           16136         6.50082
           16137         6.35707
           16138         6.50199
           16139         4.57696
           16140         4.35280
           16141         4.45007
           16142         6.50510
           16143         6.19979
           16144         6.18919
           16145         5.87016
           16146         5.98417
           16147         5.80516
           16148         6.03245
           16149         5.98301
           16150         5.73888
           16151         5.75969
           16152         6.06056
           16153         6.10207
           16154         5.94263
           16155         5.80087
           16156         5.52269
           16157         5.25711
           16158         5.28069
           16159         5.01530
           16160         5.06512
           16161         6.42862
           16162         6.18139
           16163         6.15741
           16164         5.82376
           16165         5.77139
           16166         6.06831
           16167         5.55255
           16168         5.78439
           16169         6.39635
           16170         5.99847
           16171         6.13805
           16172         2.75016
           16173         2.74843
           16174         2.78273
           16175         2.77194
           16176         2.77520
           16177         5.47408
           16178         5.52388
           16179         5.31512
           16180         5.60317
           16181         3.89975
           16182         3.74625
           16183         3.73635
           16184         5.36237
           16185         5.58617
           16186         5.45474
           16187         5.33203
           16188         5.95167
           16189         2.44398
           16190         2.41389
           16191         2.39930
           16192         2.39955
           16193         2.42944
           16194         2.44302
           16195         2.40874
           16196         2.37816
           16197         2.40840
           16198         2.31960
           16199         2.33042
           16200         2.33509
           16201         2.43817
           16202         2.40817
           16203         2.43754
           16204         2.38780
           16205         2.38319
           16206         2.34114
           16207         2.30708
           16208         2.35168
           16209         2.38415
           16210         2.35843
           16211         2.25492
           16212         2.31500
           16213         2.30356
           16214         2.30381
           16215         2.26882
           16216         2.30470
           16217         2.15603
           16218         2.19340
           16219         2.38121
           16220         2.38042
           16221         2.39919
           16222         2.36148
           16223         2.34899
           16224         2.31619
           16225         2.35018
           16226         2.33446
           16227         2.33511
           16228         2.30114
           16229         2.30494
           16230         2.39363
           16231         2.35977
           16232         2.37276
           16233         2.35891
           16234         2.36419
           16235         2.32501
           16236         2.36322
           16237         2.56473
           16238         2.31511
           16239         2.37041
           16240         2.34008
           16241         2.60555
           16242         2.66800
           16243         2.29044
           16244         2.24710
           16245         2.75630
           16246         2.50954
           16247         2.55425
           16248         2.54220
           16249         2.53258
           16250         2.45937
           16251         2.45981
           16252         2.50484
           16253         2.51450
           16254         2.48612
           16255         2.46344
           16256         2.46286
           16257         2.41946
           16258         2.46646
           16259         2.47980
           16260         2.43678
           16261         2.48527
           16262         2.53904
           16263         2.53826
           16264         2.76820
           16265         2.65429
           16266         2.79283
           16267         2.54790
           16268         2.55227
           16269         2.55112
           16270         2.59768
           16271         2.54332
           16272         2.51042
           16273         2.37566
           16274         2.37426
           16275         2.41568
           16276         2.44250
           16277         2.42838
           16278         2.38567
           16279         2.39178
           16280         2.42940
           16281         2.37624
           16282         2.44162
           16283         2.37618
           16284         2.39815
           16285         2.38360
           16286         3.12214
           16287         3.24075
           16288         3.12536
           16289         3.19446
           16290         3.19118
           16291         3.15268
           16292         3.04418
           16293         3.15522
           16294         6.36670
           16295         2.90239
           16296         2.90289
           16297         2.93964
           16298         2.84585
           16299         2.84559
           16300         2.94383
           16301         2.97447
           16302         3.03900
           16303         3.00792
           16304         2.78880
           16305         2.75414
           16306         2.78832
           16307         2.88041
           16308         2.90978
           16309         2.91135
           16310         3.00448
           16311         2.97284
           16312         6.12817
           16313         6.18754
           16314         6.24369
           16315         2.49217
           16316         2.50933
           16317         3.20780
           16318         3.08926
           16319         3.25908
           16320         3.49378
           16321         3.40310
           16322         3.30604
           16323         4.61942
           16324         4.71461
           16325         4.42057
           16326         3.94693
           16327         3.73811
           16328         3.17895
           16329         3.07454
           16330         3.17958
           16331         3.15372
           16332         3.26468
           16333         3.30582
           16334         3.20239
           16335         3.20075
           16336         3.21416
           16337         3.90355
           16338         2.79453
           16339         2.92912
           16340         3.39404
           16341         3.37036
           16342         3.26764
           16343         3.36758
           16344         3.33824
           16345         3.30247
           16346         3.28814
           16347         3.33579
           16348         2.75392
           16349         2.74354
           16350         2.76334
           16351         4.56399
           16352         4.39953
           16353         4.55257
           16354         4.41204
           16355         4.24218
           16356         4.23061
           16357         4.40984
           16358         3.82242
           16359         3.81481
           16360         4.22730
           16361         4.24055
           16362         4.08662
           16363         4.23442
           16364         3.64006
           16365         3.64213
           16366         3.53532
           16367         3.66584
           16368         3.66025
           16369         2.91743
           16370         3.36813
           16371         3.50553
           16372         3.47440
           16373         3.15146
           16374         3.27224
           16375         3.50993
           16376         3.64008
           16377         3.41874
           16378         2.67826
           16379         3.07096
           16380         2.95936
           16381         4.05350
           16382         3.92306
           16383         3.90287
           16384         4.05408
           16385         4.03366
           16386         4.22312
           16387         4.21113
           16388         5.22274
           16389         3.76923
           16390         5.44278
           16391         5.52760
           16392         5.12352
           16393         5.32170
           16394         5.27624
           16395         4.57504
           16396         3.92647
           16397         3.93190
           16398         5.90081
           16399         5.82257
           16400         5.82212
           16401         6.04545
           16402         6.04632
           16403         5.25521
           16404         5.26640
           16405         5.13088
           16406         5.52106
           16407         5.32178
           16408         5.80477
           16409         5.57649
           16410         5.67792
           16411         4.96597
           16412         4.95527
           16413         5.28586
           16414         5.43073
           16415         5.46314
           16416         5.43483
           16417         5.46285
           16418         5.45842
           16419         5.49231
           16420         5.40533
           16421         5.27598
           16422         5.27212
           16423         5.40190
           16424         5.06361
           16425         4.83392
           16426         4.95328
           16427         4.95725
           16428         5.06681
           16429         5.06355
           16430         5.12255
           16431         5.24694
           16432         4.88969
           16433         5.11860
           16434         4.73102
           16435         4.95500
           16436         4.83504
           16437         5.14977
           16438         2.62535
           16439         2.66625
           16440         2.62575
           16441         2.65435
           16442         2.61772
           16443         2.65468
           16444         2.57348
           16445         2.60034
           16446         2.61713
           16447         2.59557
           16448         2.56882
           16449         2.55781
           16450         2.62735
           16451         2.58864
           16452         2.62736
           16453         2.51922
           16454         2.51554
           16455         2.53421
           16456         2.50358
           16457         2.53851
           16458         2.45739
           16459         2.46496
           16460         2.49137
           16461         2.47557
           16462         2.46906
           16463         2.44167
           16464         2.36743
           16465         2.34006
           16466         2.45888
           16467         2.45014
           16468         2.47656
           16469         2.45632
           16470         2.46505
           16471         2.48063
           16472         2.47107
           16473         2.49523
           16474         2.49355
           16475         2.49715
           16476         2.47311
           16477         2.48425
           16478         2.49003
           16479         2.49293
           16480         2.50170
           16481         2.48770
           16482         2.52013
           16483         2.52388
           16484         2.53816
           16485         2.41463
           16486         6.18337
           16487         2.50983
           16488         2.51384
           16489         2.51324
           16490         2.45283
           16491         2.42511
           16492         2.44038
           16493         2.45184
           16494         5.79367
           16495         2.50580
           16496         2.49756
           16497         2.51599
           16498         2.43226
           16499         2.45847
           16500         2.45622
           16501         2.47504
           16502         2.44578
           16503         2.51397
           16504         2.55874
           16505         2.64538
           16506         2.78303
           16507         2.80234
           16508         2.78198
           16509         2.79829
           16510         2.78078
           16511         2.80015
           16512         2.61455
           16513         2.61699
           16514         2.58983
           16515         2.63291
           16516         2.58674
           16517         2.65124
           16518         2.69622
           16519         2.65363
           16520         2.60013
           16521         2.64396
           16522         2.60239
           16523         5.75832
           16524         5.62022
           16525         5.72991
           16526         5.86567
           16527         2.61840
           16528         2.50987
           16529         2.74572
           16530         2.74573
           16531         2.83209
           16532         2.66520
           16533         2.61885
           16534         2.69268
           16535         2.72179
           16536         2.72200
           16537         2.58393
           16538         2.60094
           16539         5.61763
           16540         5.41751
           16541         5.55845
           16542         5.66436
           16543         3.02527
           16544         2.95853
           16545         2.94047
           16546         2.95859
           16547         3.02562
           16548         2.86002
           16549         2.85926
           16550         2.83045
           16551         2.83035
           16552         2.91053
           16553         3.00515
           16554         3.00403
           16555         2.97296
           16556         3.09649
           16557         2.32216
           16558         2.53489
           16559         2.54397
           16560         5.59208
           16561         5.59126
           16562         5.63035
           16563         2.61035
           16564         3.54509
           16565         3.43162
           16566         2.78233
           16567         2.78212
           16568         3.21707
           16569         3.20595
           16570         5.09792
           16571         4.91562
           16572         5.04361
           16573         5.08657
           16574         5.13999
           16575         3.32777
           16576         3.22890
           16577         3.22513
           16578         3.32358
           16579         2.66447
           16580         2.67220
           16581         2.65465
           16582         2.66745
           16583         3.43261
           16584         3.05632
           16585         3.04831
           16586         3.09633
           16587         3.09937
           16588         3.18184
           16589         3.70007
           16590         4.23464
           16591         3.80821
           16592         3.68189
           16593         3.67531
           16594         3.68573
           16595         3.67332
           16596         3.68207
           16597         3.98902
           16598         4.05053
           16599         3.91320
           16600         3.33311
           16601         3.43802
           16602         3.90697
           16603         3.60173
           16604         3.66851
           16605         3.55402
           16606         3.55200
           16607         4.33608
           16608         4.33806
           16609         4.24913
           16610         4.24667
           16611         4.19910
           16612         4.66037
           16613         4.50743
           16614         4.19356
           16615         4.13826
           16616         4.05637
           16617         4.11070
           16618         3.99647
           16619         5.13033
           16620         4.89241
           16621         4.76385
           16622         4.76350
           16623         4.66107
           16624         4.34125
           16625         4.50088
           16626         4.63884
           16627         4.74154
           16628         3.78139
           16629         3.90066
           16630         5.27171
           16631         5.36186
           16632         5.14962
           16633         5.15014
           16634         5.06399
           16635         4.89021
           16636         4.73529
           16637         4.82590
           16638         4.90761
           16639         5.02474
           16640         5.02528
           16641         4.94293
           16642         4.82562
           16643         4.76380
           16644         4.83456
           16645         4.38951
           16646         4.48462
           16647         4.39150
           16648         4.59787
           16649         4.59584
           16650         4.27129
           16651         4.12719
           16652         4.32734
           16653         4.82457
           16654         4.70897
           16655         4.90619
           16656         4.90696
           16657         5.02426
           16658         4.50064
           16659         4.59540
           16660         4.64701
           16661         2.50149
           16662         2.46349
           16663         2.48337
           16664         2.52169
           16665         2.52072
           16666         2.50107
           16667         2.50944
           16668         2.53973
           16669         2.50985
           16670         2.52832
           16671         2.47404
           16672         2.47918
           16673         2.60803
           16674         2.60899
           16675         2.60918
           16676         2.60781
           16677         2.63019
           16678         2.57048
           16679         2.56501
           16680         2.55236
           16681         2.55996
           16682         2.54406
           16683         2.63111
           16684         2.60794
           16685         2.63123
           16686         2.53675
           16687         2.63218
           16688         2.65358
           16689         2.58071
           16690         2.56427
           16691         2.56222
           16692         2.57922
           16693         2.54593
           16694         2.55817
           16695         2.58424
           16696         2.55703
           16697         2.58547
           16698         2.58550
           16699         2.55854
           16700         2.56733
           16701         2.56552
           16702         2.52539
           16703         2.53531
           16704         2.55929
           16705         2.52093
           16706         5.99358
           16707         6.09159
           16708         2.54865
           16709         2.56638
           16710         2.55182
           16711         2.55383
           16712         2.53534
           16713         2.53537
           16714         2.54420
           16715         2.52542
           16716         2.56427
           16717         2.56099
           16718         2.54575
           16719         2.47387
           16720         2.50449
           16721         2.49817
           16722         2.55138
           16723         2.56807
           16724         2.57505
           16725         2.56868
           16726         2.55963
           16727         2.55886
           16728         2.58075
           16729         2.58367
           16730         2.48477
           16731         2.59474
           16732         2.58647
           16733         2.57209
           16734         2.78759
           16735         2.84435
           16736         2.88626
           16737         2.88600
           16738         2.85971
           16739         2.54201
           16740         2.77576
           16741         2.72126
           16742         2.74192
           16743         2.74195
           16744         2.79783
           16745         2.61761
           16746         2.63731
           16747         2.62106
           16748         2.71543
           16749         2.69613
           16750         2.69695
           16751         2.71545
           16752         2.61913
           16753         2.60534
           16754         2.73616
           16755         2.69371
           16756         2.69343
           16757         2.71527
           16758         2.76139
           16759         2.73483
           16760         2.54213
           16761         7.17553
           16762         6.83367
           16763         7.00170
           16764         6.66410
           16765         7.00119
           16766         2.58011
           16767         2.61549
           16768         2.58725
           16769         2.57035
           16770         2.55633
           16771         2.58644
           16772         2.57064
           16773         2.52274
           16774         2.81078
           16775         2.80948
           16776         2.79724
           16777         2.79765
           16778         2.88699
           16779         2.92174
           16780         2.86676
           16781         2.78019
           16782         3.06100
           16783         3.06407
           16784         3.06004
           16785         3.02767
           16786         2.96137
           16787         3.06275
           16788         3.06792
           16789         3.07006
           16790         2.99159
           16791         3.06405
           16792         2.99557
           16793         3.22203
           16794         3.13928
           16795         3.14735
           16796         3.23111
           16797         2.90551
           16798         2.86359
           16799         4.09925
           16800         4.24140
           16801         3.23464
           16802         2.92170
           16803         3.41584
           16804         3.52532
           16805         3.54252
           16806         3.92818
           16807         4.05650
           16808         5.57111
           16809         5.23754
           16810         3.64871
           16811         3.43768
           16812         3.42899
           16813         3.41393
           16814         5.16867
           16815         5.24402
           16816         5.44567
           16817         5.30962
           16818         5.03727
           16819         3.69012
           16820         3.42744
           16821         3.23819
           16822         3.67231
           16823         3.44109
           16824         3.31125
           16825         3.39656
           16826         3.39758
           16827         3.31249
           16828         4.14243
           16829         3.83147
           16830         3.80387
           16831         3.82538
           16832         4.01922
           16833         3.97016
           16834         4.15555
           16835         4.07476
           16836         4.15444
           16837         4.23906
           16838         4.32641
           16839         4.38628
           16840         4.78722
           16841         4.78668
           16842         4.67316
           16843         4.21198
           16844         3.48714
           16845         4.32836
           16846         4.21906
           16847         4.37635
           16848         4.37406
           16849         4.49793
           16850         4.98891
           16851         4.23029
           16852         4.00826
           16853         4.11594
           16854         4.15863
           16855         4.07736
           16856         4.26539
           16857         3.89241
           16858         3.77420
           16859         4.31815
           16860         4.06768
           16861         4.37180
           16862         4.44569
           16863         4.44819
           16864         4.55638
           16865         4.33257
           16866         4.52144
           16867         4.21679
           16868         2.70396
           16869         2.72648
           16870         2.71531
           16871         2.73809
           16872         2.71507
           16873         2.72678
           16874         2.66323
           16875         2.66717
           16876         2.66303
           16877         2.64682
           16878         2.64565
           16879         2.64696
           16880         2.68499
           16881         2.67123
           16882         2.68701
           16883         2.68116
           16884         2.68124
           16885         2.67079
           16886         2.65848
           16887         2.66819
           16888         2.59487
           16889         2.59580
           16890         2.60814
           16891         2.60779
           16892         2.60919
           16893         2.61765
           16894         2.62095
           16895         2.62058
           16896         2.58184
           16897         2.59425
           16898         2.58069
           16899         4.80813
           16900         4.85228
           16901         4.91254
           16902         4.66683
           16903         2.59721
           16904         2.55087
           16905         2.57797
           16906         2.67389
           16907         2.63436
           16908         2.51535
           16909         2.58225
           16910         2.56729
           16911         2.58482
           16912         2.60241
           16913         2.59611
           16914         2.56808
           16915         2.57654
           16916         2.58091
           16917         2.61107
           16918         2.61579
           16919         2.61515
           16920         2.63941
           16921         2.62340
           16922         2.64093
           16923         2.63292
           16924         2.63062
           16925         2.66618
           16926         2.66341
           16927         2.66514
           16928         2.64687
           16929         2.64824
           16930         2.62777
           16931         2.64597
           16932         2.62902
           16933         2.70824
           16934         2.68441
           16935         2.71054
           16936         2.68659
           16937         2.71524
           16938         2.62200
           16939         2.61809
           16940         2.61574
           16941         2.62378
           16942         2.61649
           16943         7.83849
           16944         7.47207
           16945         7.82809
           16946         6.43990
           16947         6.35354
           16948         6.74964
           16949         6.83374
           16950         2.60999
           16951         2.61336
           16952         2.62015
           16953         2.62823
           16954         2.64867
           16955         2.65418
           16956         2.64213
           16957         6.07247
           16958         6.18712
           16959         5.91148
           16960         2.81117
           16961         2.77516
           16962         2.77239
           16963         2.73432
           16964         2.71209
           16965         2.74264
           16966         2.74908
           16967         2.74059
           16968         7.03590
           16969         7.02836
           16970         7.28368
           16971         2.74891
           16972         2.75116
           16973         2.82719
           16974         2.74113
           16975         2.73885
           16976         2.63022
           16977         2.71803
           16978         2.68782
           16979         2.68970
           16980         2.68266
           16981         2.63029
           16982         3.32260
           16983         3.40800
           16984         3.30653
           16985         2.85387
           16986         2.93357
           16987         2.92634
           16988         2.87558
           16989         2.92646
           16990         2.93447
           16991         2.82863
           16992         2.87499
           16993         2.93115
           16994         3.22617
           16995         3.23592
           16996         2.98461
           16997         3.05818
           16998         3.24092
           16999         3.50251
           17000         3.58622
           17001         2.93649
           17002         2.74736
           17003         2.72255
           17004         4.08711
           17005         3.94880
           17006         2.96753
           17007         3.20944
           17008         3.22933
           17009         3.21199
           17010         3.96059
           17011         3.67858
           17012         3.69346
           17013         3.25803
           17014         3.33239
           17015         3.33586
           17016         3.35331
           17017         3.35035
           17018         3.20002
           17019         3.18296
           17020         3.18344
           17021         3.20114
           17022         3.45589
           17023         3.30714
           17024         3.44666
           17025         3.17853
           17026         3.15519
           17027         3.24095
           17028         3.17409
           17029         3.23675
           17030         3.31580
           17031         3.02698
           17032         2.99978
           17033         3.07151
           17034         2.92668
           17035         2.99283
           17036         3.15043
           17037         3.37017
           17038         3.55510
           17039         3.68079
           17040         3.59072
           17041         3.63784
           17042         3.51645
           17043         3.46382
           17044         3.57132
           17045         3.78923
           17046         3.89292
           17047         3.66040
           17048         3.81424
           17049         3.34846
           17050         3.24406
           17051         3.38113
           17052         3.38128
           17053         3.34767
           17054         3.28830
           17055         3.31919
           17056         3.26017
           17057         3.18237
           17058         3.49660
           17059         3.49599
           17060         3.26365
           17061         3.16920
           17062         3.19613
           17063         3.18108
           17064         3.28935
           17065         3.66059
           17066         3.73767
           17067         3.73718
           17068         3.83753
           17069         3.66060
           17070         3.79883
           17071         3.89982
           17072         3.89981
           17073         3.06444
           17074         3.59554
           17075         3.54238
           17076         3.69136
           17077         3.69112
           17078         3.75175
           17079         3.59569
           17080         3.69045
           17081         3.58981
           17082         3.59831
           17083         3.89930
           17084         3.79824
           17085         3.96799
           17086         1.56967
           17087         1.79901
           17088         1.69536
           17089         1.72456
           17090         1.62232
           17091         1.72443
           17092         1.69475
           17093         1.72518
           17094         1.82719
           17095         1.80016
           17096         1.76462
           17097         1.76270
           17098         5.44271
           17099         5.31928
           17100         1.58359
           17101         1.47917
           17102         1.52053
           17103         1.52062
           17104         1.58352
           17105         2.07701
           17106         1.98516
           17107         1.98749
           17108         1.89998
           17109         1.99117
           17110         1.98840
           17111         2.07123
           17112         1.99553
           17113         1.98612
           17114         1.91187
           17115         1.99633
           17116         2.04706
           17117         1.66594
           17118         1.74074
           17119         1.73427
           17120         1.67947
           17121         1.68523
           17122         1.48304
           17123         1.81618
           17124         1.80832
           17125         1.80936
           17126         1.81715
           17127         2.14346
           17128         1.76468
           17129         1.80995
           17130         1.92962
           17131         1.92913
           17132         1.96028
           17133         1.86026
           17134         1.47905
           17135         1.12041
           17136         1.08110
           17137         1.18720
           17138         1.17989
           17139         1.22373
           17140         1.11144
           17141         7.60011
           17142         1.29307
           17143         1.28559
           17144         1.31603
           17145         1.32679
           17146         1.55326
           17147         1.44435
           17148         1.55768
           17149         1.53267
           17150         1.42354
           17151         1.50936
           17152         1.26177
           17153         1.36728
           17154         1.27542
           17155         1.16508
           17156         1.15243
           17157         1.04787
           17158         1.10727
           17159         1.14234
           17160         1.46953
           17161         1.38241
           17162         1.41822
           17163         1.21099
           17164         1.23191
           17165         1.17258
           17166         1.26962
           17167         1.25770
           17168         1.30672
           17169         1.36329
           17170         1.28427
           17171         1.26722
           17172         2.01552
           17173         2.02966
           17174         2.08035
           17175         2.01826
           17176         2.06779
           17177         1.71312
           17178         1.84648
           17179         1.77396
           17180         1.72933
           17181         1.80219
           17182         1.67554
           17183         1.77996
           17184         1.83982
           17185         1.83416
           17186         1.90559
           17187         1.81010
           17188         1.81066
           17189         1.74552
           17190         1.63700
           17191         1.62779
           17192         1.60429
           17193         1.61372
           17194         1.95976
           17195         2.00829
           17196         1.96233
           17197         1.95838
           17198         1.95826
           17199         5.52632
           17200         1.37353
           17201         1.32672
           17202         1.81518
           17203         1.52040
           17204         1.57041
           17205         5.56659
           17206         5.63743
           17207     938.547E-03
           17208     820.086E-03
           17209     867.534E-03
           17210     851.202E-03
           17211     923.078E-03
           17212     766.031E-03
           17213     821.276E-03
           17214     884.110E-03
           17215     900.270E-03
           17216     837.976E-03
           17217         1.13110
           17218         1.25057
           17219         1.24616
           17220         1.20893
           17221         1.08980
           17222     854.852E-03
           17223     854.854E-03
           17224     836.329E-03
           17225     753.736E-03
           17226     754.130E-03
           17227     787.943E-03
           17228     854.638E-03
           17229     940.966E-03
           17230     923.921E-03
           17231     941.384E-03
           17232     890.920E-03
           17233     760.885E-03
           17234     694.394E-03
           17235     680.334E-03
           17236     754.121E-03
           17237     675.599E-03
           17238     985.826E-03
           17239         1.77348
           17240         1.74219
           17241         1.75096
           17242         1.81955
           17243         1.84567
           17244         1.94500
           17245         1.98775
           17246         1.95390
           17247         1.93232
           17248         1.96749
           17249         1.84553
           17250         1.96869
           17251         2.02750
           17252         2.01771
           17253         1.99440
           17254         2.07277
           17255         2.02653
           17256         1.58801
           17257         1.58233
           17258         1.67920
           17259         1.67240
           17260         1.63817
           17261         1.50910
           17262         1.37790
           17263         1.89226
           17264         1.82537
           17265         1.72928
           17266         1.84249
           17267         1.75066
           17268         1.68471
           17269         1.70505
           17270         1.65235
           17271         1.60292
           17272         1.59652
           17273         1.67735
           17274         1.74697
           17275         1.65814
           17276         1.87469
           17277         1.60450
           17278         1.47033
           17279         1.60458
           17280         1.47471
           17281         1.60927
           17282         1.47488
           17283         1.86946
           17284         1.95242
           17285         1.92579
           17286         1.93858
           17287         1.58578
           17288         1.55680
           17289         1.57528
           17290         1.31529
           17291         1.38289
           17292         1.33475
           17293         1.37331
           17294         1.47577
           17295         1.43871
           17296         5.76944
           17297         1.27077
           17298         1.20837
           17299         1.36578
           17300         1.34633
           17301         1.74859
           17302         1.06910
           17303         1.04788
           17304         1.06736
           17305     962.507E-03
           17306         1.00101
           17307     948.506E-03
           17308     923.850E-03
           17309         1.31670
           17310         1.00598
           17311     718.383E-03
           17312     713.818E-03
           17313     609.496E-03
           17314     638.843E-03
           17315     613.716E-03
           17316     23.7091E-03
           17317     23.6701E-03
           17318     25.1524E-03
           17319     21.2153E-03
           17320     15.5505E-03
           17321     14.1453E-03
           17322     13.6494E-03
           17323     13.5038E-03
           17324     12.8993E-03
           17325         2.88931
           17326         2.88211
           17327         2.85074
           17328         2.88026
           17329     25.0926E-03
           17330     3.64012E-03
           17331     11.0523E-03
           17332     3.99783E-03
           17333     24.0756E-03
           17334     130.395E-03
           17335     136.742E-03
           17336     105.549E-03
           17337     99.5225E-03
           17338     94.5812E-03
           17339     124.662E-03
           17340     96.7327E-03
           17341     52.2611E-03
           17342     61.6775E-03
           17343     64.3140E-03
           17344     48.2142E-03
           17345     20.9070E-03
           17346     47.9465E-03
           17347     24.1240E-03
           17348     23.7729E-03
           17349     15.0315E-03
           17350     10.0429E-03
           17351     14.1558E-03
           17352     87.8368E-03
           17353     23.8245E-03
           17354     7.68975E-03
           17355     21.7183E-03
           17356     11.3324E-03
           17357     40.5642E-03
           17358     13.8856E-03
           17359     91.4146E-03
           17360     104.028E-03
           17361     74.6928E-03
           17362     76.5797E-03
           17363     64.1402E-03
           17364     123.403E-03
           17365     92.0076E-03
           17366     121.209E-03
           17367         5.54419
           17368         5.52640
           17369     44.9054E-03
           17370     19.4663E-03
           17371     23.6870E-03
           17372     24.9665E-03
           17373         2.81768
           17374         2.79228
           17375         2.82021
           17376         2.80987
           17377     12.8529E-03
           17378     11.2371E-03
           17379     17.9770E-03
           17380     28.5630E-03
           17381     32.9447E-03
           17382     10.7372E-03
           17383         7.70550
           17384         7.52166
           17385         7.52012
           17386         7.17692
           17387     24.9734E-03
           17388     36.4533E-03
           17389     20.8778E-03
           17390     46.8232E-03
           17391     17.6009E-03
           17392     19.2221E-03
           17393     31.6324E-03
           17394     19.3402E-03
           17395     19.3369E-03
           17396     13.6576E-03
           17397     24.1993E-03
           17398     33.7335E-03
           17399     56.4773E-03
           17400     58.6719E-03
           17401         6.88310
           17402     14.4926E-03
           17403     52.5131E-03
           17404     42.7889E-03
           17405         6.47888
           17406         3.99737
           17407         2.51964
           17408         2.19998
           17409         1.78789
           17410         2.21890
           17411         3.03699
           17412     17.0767E-03
           17413     13.3037E-03
           17414     8.95674E-03
           17415     7.57965E-03
           17416     4.59842E-03
           17417     5.31874E-03
           17418     35.5778E-03
           17419     34.8411E-03
           17420     55.1870E-03
           17421     69.0766E-03
           17422     45.0546E-03
           17423     75.7745E-03
           17424     57.6377E-03
           17425     197.331E-03
           17426     159.992E-03
           17427     169.204E-03
           17428     12.4437E-03
           17429     163.763E-03
           17430     239.708E-03
           17431     166.983E-03
           17432     204.415E-03
           17433     133.387E-03
           17434     202.755E-03
           17435     285.970E-03
           17436     269.499E-03
           17437     245.005E-03
           17438     270.723E-03
           17439     287.112E-03
           17440     312.236E-03
           17441     115.301E-03
           17442     83.9932E-03
           17443     50.7180E-03
           17444     44.2834E-03
           17445     77.2965E-03
           17446     119.620E-03
           17447         7.30192
           17448         7.61260
           17449         7.18672
           17450         7.17120
           17451         7.28766
           17452     183.397E-03
           17453     163.946E-03
           17454     178.737E-03
           17455     197.035E-03
           17456     166.461E-03
           17457     185.180E-03
           17458     226.337E-03
           17459     224.817E-03
           17460     248.007E-03
           17461     215.009E-03
           17462     244.713E-03
           17463     290.038E-03
           17464     278.890E-03
           17465     165.092E-03
           17466     135.579E-03
           17467     23.1172E-03
           17468     3.79736E-03
           17469     15.7240E-03
           17470     12.8274E-03
           17471     12.3835E-03
           17472     64.2132E-03
           17473     46.8013E-03
           17474     49.4577E-03
           17475     5.64921E-03
           17476     10.2187E-03
           17477     48.4317E-03
           17478     10.3069E-03
           17479     35.1942E-03
           17480         7.76265
           17481         8.02783
           17482         7.76185
           17483         8.18436
           17484         7.91298
           17485         8.18649
           17486     52.8850E-03
           17487     13.9603E-03
           17488     13.3227E-03
           17489     71.0429E-03
           17490     41.2530E-03
           17491     40.5584E-03
           17492     35.4776E-03
           17493     57.8060E-03
           17494     16.2040E-03
           17495     596.135E-03
           17496     670.510E-03
           17497     578.036E-03
           17498     735.426E-03
           17499     685.350E-03
           17500     673.274E-03
           17501     724.886E-03
           17502     787.500E-03
           17503     833.478E-03
           17504     876.820E-03
           17505     873.174E-03
           17506     919.350E-03
           17507     772.191E-03
           17508     521.893E-03
           17509     540.329E-03
           17510     567.036E-03
           17511         6.11764
           17512         6.11655
           17513         5.82172
           17514         5.74113
           17515     467.896E-03
           17516     357.736E-03
           17517     422.725E-03
           17518     337.287E-03
           17519     445.329E-03
           17520     381.061E-03
           17521     627.767E-03
           17522     589.770E-03
           17523     595.142E-03
           17524     454.490E-03
           17525     408.979E-03
           17526     176.354E-03
           17527     259.151E-03
           17528     228.682E-03
           17529     280.904E-03
           17530     195.078E-03
           17531     339.418E-03
           17532     377.852E-03
           17533     344.083E-03
           17534     10.3842E-03
           17535     28.1548E-03
           17536     11.4242E-03
           17537     21.3553E-03
           17538     22.8507E-03
           17539     172.380E-03
           17540     224.308E-03
           17541     43.9396E-03
           17542     26.1590E-03
           17543     66.3051E-03
           17544     532.850E-03
           17545     538.922E-03
           17546     389.805E-03
           17547     536.684E-03
           17548     531.555E-03
           17549     418.624E-03
           17550     424.532E-03
           17551     559.383E-03
           17552     283.760E-03
           17553     373.695E-03
           17554     314.753E-03
           17555     406.710E-03
           17556     372.958E-03
           17557     479.480E-03
           17558     557.898E-03
           17559     526.378E-03
           17560     476.046E-03
           17561     506.807E-03
           17562     124.200E-03
           17563     130.587E-03
           17564     158.217E-03
           17565     131.754E-03
           17566     197.856E-03
           17567     177.975E-03
           17568     308.191E-03
           17569     367.134E-03
           17570     40.6421E-03
           17571     37.7472E-03
           17572     38.9347E-03
           17573     62.0918E-03
           17574     75.5645E-03
           17575     75.0716E-03
           17576     111.456E-03
           17577     130.560E-03
           17578     66.0889E-03
           17579     118.225E-03
           17580     109.429E-03
           17581     11.6159E-03
           17582     265.206E-03
           17583     248.449E-03
           17584     247.306E-03
           17585     358.872E-03
           17586     377.370E-03
           17587     384.307E-03
           17588     82.7686E-03
           17589     387.666E-03
           17590     326.684E-03
           17591     278.317E-03
           17592     260.399E-03
           17593     262.470E-03
           17594         2.92222
           17595         5.60505
           17596     543.666E-03
           17597     578.668E-03
           17598     713.232E-03
           17599     458.879E-03
           17600     487.848E-03
           17601     546.453E-03
           17602     520.459E-03
           17603     648.330E-03
           17604         6.80373
           17605         2.61213
           17606         2.55430
           17607         1.24259
           17608         1.24068
           17609         1.00745
           17610     995.905E-03
           17611     935.304E-03
           17612     803.937E-03
           17613     684.091E-03
           17614     799.200E-03
           17615         1.74115
           17616         1.84817
           17617         1.72409
           17618         2.04897
           17619         1.98027
           17620         2.30797
           17621         2.08924
           17622         2.16155
           17623         2.35988
           17624         2.16734
           17625         2.47019
           17626         1.09025
           17627     987.713E-03
           17628         1.52439
           17629         1.57150
           17630         1.83542
           17631         1.91396
           17632         1.87451
           17633         1.62371
           17634         1.88603
           17635         1.84213
           17636         1.72500
           17637         1.67780
           17638         2.24246
           17639         2.32440
           17640         2.33916
           17641     883.364E-03
           17642     695.386E-03
           17643     871.832E-03
           17644     800.201E-03
           17645         1.45650
           17646         1.15484
           17647         1.47780
           17648         1.24604
           17649         5.90283
           17650         1.10147
           17651         1.12467
           17652         1.20900
           17653         1.28655
           17654         1.14782
           17655     705.431E-03
           17656     879.823E-03
           17657     692.313E-03
           17658         1.27323
           17659         1.10771
           17660     992.213E-03
           17661     719.182E-03
           17662     614.365E-03
           17663     653.853E-03
           17664     767.624E-03
           17665     601.423E-03
           17666     323.939E-03
           17667     615.502E-03
           17668     535.243E-03
           17669     490.352E-03
           17670     479.436E-03
           17671     576.423E-03
           17672     548.512E-03
           17673     427.454E-03
           17674     111.438E-03
           17675         16.2406
           17676         8.26543
           17677         9.24661
           17678         7.72859
           17679         12.3707
           17680         12.2979
           17681     875.002E-03
           17682         1.33316
           17683         1.47113
           17684         5.99495
           17685         5.99046
           17686         5.75892
           17687         6.06840
           17688         6.07513
           17689         6.32566
           17690     234.361E-03
           17691     389.777E-03
           17692     515.023E-03
           17693     393.142E-03
           17694     500.401E-03
           17695     430.648E-03
           17696     493.742E-03
           17697     170.226E-03
           17698     179.345E-03
           17699     182.305E-03
           17700     177.480E-03
           17701     183.019E-03
           17702     378.152E-03
           17703     139.072E-03
           17704     833.942E-03
           17705     651.745E-03
           17706     765.896E-03
           17707     122.432E-03
           17708     15.2054E-03
           17709     614.103E-03
           17710     535.189E-03
           17711     608.458E-03
           17712     601.761E-03
           17713     761.707E-03
           17714     606.115E-03
           17715         1.05099
           17716     428.370E-03
           17717     321.963E-03
           17718     394.864E-03
           17719     57.6817E-03
           17720     777.191E-03
           17721     920.296E-03
           17722     631.351E-03
           17723     616.442E-03
           17724     611.046E-03
           17725     638.724E-03
           17726     876.909E-03
           17727     682.534E-03
           17728     811.316E-03
           17729     788.212E-03
           17730     257.925E-03
           17731     367.043E-03
           17732     611.493E-03
           17733     652.532E-03
           17734         1.51146
           17735     830.911E-03
           17736         1.87989
           17737     521.189E-03
           17738     506.446E-03
           17739     463.255E-03
           17740     486.629E-03
           17741     235.410E-03
           17742     288.693E-03
           17743     251.608E-03
           17744     202.649E-03
           17745     138.188E-03
           17746     945.344E-03
           17747         1.12115
           17748         1.14051
           17749     711.096E-03
           17750     459.147E-03
           17751     450.656E-03
           17752         2.57057
           17753         2.38652
           17754         2.44119
           17755         2.32608
           17756         2.49906
           17757         2.45067
           17758         5.86079
           17759         5.78749
           17760         2.55247
           17761         2.56179
           17762         2.56859
           17763         2.52877
           17764         2.55893
           17765         2.93680
           17766         2.83354
           17767         2.94505
           17768         2.72177
           17769         2.62428
           17770         2.52022
           17771         2.51383
           17772         2.52619
           17773         2.47718
           17774         2.48532
           17775         2.47097
           17776         2.54904
           17777         2.54453
           17778         2.27158
           17779         2.18674
           17780         2.09689
           17781         2.05073
           17782         1.96425
           17783         2.10674
           17784         1.92930
           17785         2.10464
           17786         2.18404
           17787         2.02885
           17788         2.17771
           17789         2.24505
           17790         1.55326
           17791         1.98186
           17792         1.90857
           17793         2.22161
           17794         2.13964
           17795         2.22501
           17796         2.13164
           17797         2.04702
           17798         1.36906
           17799         1.36936
           17800         1.34758
           17801         1.24594
           17802         1.34823
           17803         1.46829
           17804         7.34322
           17805         7.32746
           17806         7.34638
           17807         7.07716
           17808         7.07204
           17809         1.22088
           17810         1.20070
           17811         1.17701
           17812         1.05512
           17813         1.15037
           17814         1.14915
           17815         1.05360
           17816         1.33003
           17817         1.26868
           17818         1.17340
           17819         1.28734
           17820         7.48989
           17821         7.47339
           17822         7.77851
           17823         7.79272
           17824         1.52529
           17825     995.942E-03
           17826         1.08474
           17827     991.063E-03
           17828         1.07866
           17829         1.07790
           17830         1.09993
           17831         1.01823
           17832     811.789E-03
           17833     915.777E-03
           17834     817.540E-03
           17835     967.670E-03
           17836         5.37242
           17837         5.37194
           17838         5.22455
           17839         5.24098
           17840         5.24110
           17841         5.37949
           17842         1.09404
           17843         1.59885
           17844         1.14791
           17845     689.949E-03
           17846     683.095E-03
           17847     740.602E-03
           17848     805.831E-03
           17849     632.214E-03
           17850     708.157E-03
           17851     502.531E-03
           17852     588.989E-03
           17853     583.568E-03
           17854     581.320E-03
           17855     886.203E-03
           17856     326.988E-03
           17857     418.938E-03
           17858     359.949E-03
           17859     404.662E-03
           17860     312.927E-03
           17861     373.466E-03
           17862     127.411E-03
           17863     76.1739E-03
           17864     124.748E-03
           17865     169.108E-03
           17866     220.707E-03
           17867     169.534E-03
           17868     123.128E-03
           17869     223.528E-03
           17870     123.261E-03
           17871     269.493E-03
           17872     328.315E-03
           17873     325.535E-03
           17874     419.988E-03
           17875     361.329E-03
           17876     636.578E-03
           17877     681.137E-03
           17878     578.477E-03
           17879     363.598E-03
           17880     421.480E-03
           17881     454.453E-03
           17882     510.636E-03
           17883     507.412E-03
           17884     543.804E-03
           17885     546.214E-03
           17886     577.462E-03
           17887     533.249E-03
           17888     630.611E-03
           17889     170.659E-03
           17890     133.585E-03
           17891     126.716E-03
           17892     51.6645E-03
           17893     82.7992E-03
           17894     90.6071E-03
           17895     266.955E-03
           17896     220.201E-03
           17897     281.267E-03
           17898     213.382E-03
           17899     194.216E-03
           17900     283.340E-03
           17901     303.386E-03
           17902     187.673E-03
           17903     260.057E-03
           17904     213.348E-03
           17905     32.0405E-03
           17906     34.9962E-03
           17907     91.0869E-03
           17908     61.4758E-03
           17909     17.0931E-03
           17910     151.479E-03
           17911     149.254E-03
           17912     121.731E-03
           17913     323.313E-03
           17914     272.748E-03
           17915         6.80006
           17916         7.02996
           17917     124.703E-03
           17918     135.865E-03
           17919     232.794E-03
           17920     535.493E-03
           17921     546.036E-03
           17922     529.513E-03
           17923     502.270E-03
           17924     497.718E-03
           17925     329.129E-03
           17926     390.098E-03
           17927     421.700E-03
           17928     329.074E-03
           17929     280.224E-03
           17930     862.409E-03
           17931     883.321E-03
           17932     769.195E-03
           17933     845.842E-03
           17934     577.637E-03
           17935     323.673E-03
           17936     355.301E-03
           17937     279.597E-03
           17938     461.187E-03
           17939     347.871E-03
           17940     421.094E-03
           17941     347.638E-03
           17942     459.687E-03
           17943     420.679E-03
           17944     341.983E-03
           17945     185.294E-03
           17946     279.895E-03
           17947     280.137E-03
           17948     221.883E-03
           17949         1.11365
           17950     988.542E-03
           17951     758.527E-03
           17952     279.885E-03
           17953     299.047E-03
           17954         1.87543
           17955         1.87424
           17956         8.25518
           17957         1.29331
           17958         7.49687
           17959         7.90808
           17960         7.75589
           17961     911.641E-03
           17962     812.769E-03
           17963     682.019E-03
           17964     241.218E-03
           17965     68.4921E-03
           17966         1.55974
           17967         1.57378
           17968     619.292E-03
           17969     731.132E-03
           17970         7.14217
           17971         7.65506
           17972         7.40012
           17973         7.37171
           17974         6.90761
           17975         7.11715
           17976         2.61973
           17977         2.59964
           17978         2.61141
           17979         2.60292
           17980         2.62325
           17981         1.02732
           17982         2.62754
           17983         2.62466
           17984         2.30227
           17985         2.43999
           17986         2.32041
           17987         2.65114
           17988         2.81431
           17989         2.70946
           17990         2.57467
           17991         2.67492
           17992         2.11475
           17993         2.69064
           17994         2.53652
           17995         2.86726
           17996         2.80308
           17997         2.87399
           17998         2.77948
           17999         2.84421
           18000         2.77099
           18001         2.19422
           18002         2.13489
           18003         1.88480
           18004         2.93962
           18005         3.03711
           18006         2.92389
           18007         2.91173
           18008         2.92668
           18009         2.79583
           18010         3.04138
           18011         2.51660
           18012         2.57451
           18013         1.04772
           18014     953.966E-03
           18015         2.54573
           18016         2.64429
           18017         2.55380
           18018         2.65753
           18019         2.43626
           18020         2.44549
           18021         2.56746
           18022         2.54467
           18023         2.34101
           18024         2.44539
           18025         2.45691
           18026         2.34065
           18027         2.32940
           18028         2.04652
           18029         2.34741
           18030         2.23149
           18031         2.09430
           18032         2.05966
           18033         2.04419
           18034         2.00387
           18035         2.03965
           18036         2.05467
           18037         2.15752
           18038         2.07490
           18039         2.14474
           18040         2.00063
           18041         1.95317
           18042         1.95779
           18043         2.08274
           18044         1.64118
           18045         1.90026
           18046         1.98911
           18047         2.14200
           18048         2.00381
           18049         1.72418
           18050         1.88324
           18051         1.91252
           18052         2.02308
           18053         2.02771
           18054         1.98656
           18055         2.07563
           18056         1.74164
           18057     949.092E-03
           18058         1.06804
           18059         1.04333
           18060         1.79954
           18061         1.79841
           18062         1.78135
           18063         1.11460
           18064         1.12559
           18065         1.10199
           18066         1.39598
           18067     980.337E-03
           18068         2.11119
           18069         2.03860
           18070         2.09358
           18071         2.07603
           18072         2.11196
           18073         2.28667
           18074         2.21017
           18075         2.06479
           18076         2.53762
           18077         2.61294
           18078         2.52852
           18079         2.61507
           18080         2.54732
           18081         2.62659
           18082         2.33187
           18083         2.61734
           18084         2.58903
           18085         2.60889
           18086         2.51636
           18087         1.51235
           18088         1.46360
           18089         1.17419
           18090         3.14276
           18091         3.13525
           18092         3.07518
           18093         2.96623
           18094         2.99792
           18095         6.88564
           18096         6.89919
           18097         2.91301
           18098         3.07684
           18099         2.96522
           18100         2.95685
           18101         3.00067
           18102         3.13093
           18103         3.30332
           18104         3.29354
           18105         3.31463
           18106         3.09658
           18107         3.09604
           18108         3.14102
           18109         3.15928
           18110         3.37220
           18111         3.30281
           18112         3.28296
           18113         3.53253
           18114         3.37960
           18115         7.66038
           18116         7.40294
           18117         7.91263
           18118         3.01533
           18119         2.84719
           18120         2.91289
           18121         3.06762
           18122         3.02365
           18123         3.01015
           18124         3.08780
           18125         3.14324
           18126         3.42298
           18127         3.58578
           18128         3.32380
           18129         2.98267
           18130     819.177E-03
           18131         1.13972
           18132         1.04248
           18133     975.647E-03
           18134     699.794E-03
           18135     763.998E-03
           18136     495.239E-03
           18137     462.914E-03
           18138     670.069E-03
           18139     435.409E-03
           18140     462.597E-03
           18141     377.017E-03
           18142         6.59930
           18143         6.61128
           18144         7.09283
           18145         1.03929
           18146         1.37149
           18147     985.637E-03
           18148         1.17196
           18149     855.256E-03
           18150         1.21127
           18151         6.33204
           18152     974.389E-03
           18153         1.17269
           18154         1.20751
           18155     856.163E-03
           18156         1.66664
           18157         1.86724
           18158         1.52972
           18159         1.90616
           18160         1.69346
           18161         2.05720
           18162     203.790E-03
           18163     285.876E-03
           18164     267.790E-03
           18165     266.496E-03
           18166     398.854E-03
           18167     287.566E-03
           18168     294.751E-03
           18169     383.260E-03
           18170     373.310E-03
           18171     272.054E-03
           18172     283.366E-03
           18173     310.413E-03
           18174     132.361E-03
           18175     252.144E-03
           18176     287.413E-03
           18177     321.949E-03
           18178     340.711E-03
           18179     441.461E-03
           18180     424.027E-03
           18181     529.104E-03
           18182     43.5355E-03
           18183     21.2514E-03
           18184     98.6224E-03
           18185     197.004E-03
           18186     202.764E-03
           18187     213.325E-03
           18188     218.254E-03
           18189         2.79892
           18190         2.87264
           18191         2.93790
           18192         3.01036
           18193         2.92957
           18194         7.18169
           18195         7.17575
           18196         7.36736
           18197         7.37311
           18198     22.8098E-03
           18199     75.1084E-03
           18200     36.7828E-03
           18201     25.8436E-03
           18202     22.8734E-03
           18203     10.0111E-03
           18204     23.9254E-03
           18205     24.1640E-03
           18206         5.82443
           18207         5.81857
           18208     22.5221E-03
           18209     12.7855E-03
           18210     32.9024E-03
           18211         6.11824
           18212         5.92759
           18213         6.15061
           18214         6.05539
           18215     24.6789E-03
           18216     15.4907E-03
           18217     125.791E-03
           18218     127.692E-03
           18219     95.7991E-03
           18220     170.986E-03
           18221     200.726E-03
           18222     106.926E-03
           18223     77.3182E-03
           18224     52.0152E-03
           18225     119.610E-03
           18226     38.8268E-03
           18227     39.3949E-03
           18228     19.3371E-03
           18229     108.592E-03
           18230     59.2180E-03
           18231     78.8209E-03
           18232         2.89209
           18233         2.89721
           18234         2.83666
           18235         2.86893
           18236         2.86382
           18237         2.92973
           18238     24.1147E-03
           18239     21.7218E-03
           18240     14.5996E-03
           18241     13.8543E-03
           18242     22.2019E-03
           18243     8.57355E-03
           18244     9.15507E-03
           18245     37.5789E-03
           18246     26.9944E-03
           18247     26.9140E-03
           18248     52.2397E-03
           18249     20.3331E-03
           18250     23.5764E-03
           18251     7.71302E-03
           18252     36.6828E-03
           18253     27.3133E-03
           18254     42.3720E-03
           18255     27.8781E-03
           18256     27.1972E-03
           18257     27.2454E-03
           18258     16.2577E-03
           18259     18.7805E-03
           18260     29.1498E-03
           18261     19.6877E-03
           18262     18.9837E-03
           18263     15.1253E-03
           18264     12.4551E-03
           18265     16.2095E-03
           18266         1.87524
           18267         1.87617
           18268     26.8617E-03
           18269     7.77001E-03
           18270     575.066E-03
           18271     572.524E-03
           18272     629.443E-03
           18273     216.716E-03
           18274     167.625E-03
           18275     198.354E-03
           18276     862.070E-03
           18277     806.435E-03
           18278         1.06166
           18279     861.268E-03
           18280     882.651E-03
           18281     684.710E-03
           18282     381.340E-03
           18283     250.443E-03
           18284     442.131E-03
           18285     428.461E-03
           18286     594.165E-03
           18287     369.141E-03
           18288     392.593E-03
           18289     372.796E-03
           18290     420.564E-03
           18291     413.271E-03
           18292     404.338E-03
           18293     342.634E-03
           18294     324.311E-03
           18295     467.878E-03
           18296     544.129E-03
           18297     749.237E-03
           18298         7.19648
           18299     249.710E-03
           18300     229.156E-03
           18301     169.930E-03
           18302     304.947E-03
           18303     293.944E-03
           18304     517.456E-03
           18305     410.954E-03
           18306     536.434E-03
           18307     449.420E-03
           18308     658.328E-03
           18309     291.997E-03
           18310     178.941E-03
           18311     178.708E-03
           18312     183.473E-03
           18313     288.176E-03
           18314     377.402E-03
           18315     262.757E-03
           18316     396.108E-03
           18317     386.202E-03
           18318     581.914E-03
           18319     398.193E-03
           18320     389.599E-03
           18321     615.837E-03
           18322     373.951E-03
           18323     480.578E-03
           18324     636.817E-03
           18325     409.801E-03
           18326     395.708E-03
           18327         5.59236
           18328         5.57645
           18329         5.58750
           18330         5.54865
           18331         5.55785
           18332     593.528E-03
           18333     340.786E-03
           18334         6.15294
           18335         6.05247
           18336         5.94561
           18337         6.14867
           18338         5.97254
           18339         6.05766
           18340         5.98520
           18341         5.90064
           18342         5.97163
           18343         5.32732
           18344         5.34824
           18345     974.007E-03
           18346     684.561E-03
           18347     685.840E-03
           18348     41.0291E-03
           18349     38.9171E-03
           18350     19.0134E-03
           18351     20.0156E-03
           18352     107.966E-03
           18353         1.03317
           18354     859.692E-03
           18355     307.633E-03
           18356     153.717E-03
           18357     829.614E-03
           18358         1.06153
           18359         1.25246
           18360         1.40458
           18361         1.43828
           18362     45.1819E-03
           18363     461.987E-03
           18364     383.919E-03
           18365     292.081E-03
           18366     342.525E-03
           18367     288.500E-03
           18368     406.758E-03
           18369     548.186E-03
           18370     548.710E-03
           18371     358.232E-03
           18372     296.052E-03
           18373     323.651E-03
           18374     274.869E-03
           18375     245.758E-03
           18376     660.119E-03
           18377         2.80271
           18378         2.75745
           18379         2.78103
           18380         2.76041
           18381         2.80580
           18382     257.380E-03
           18383     350.945E-03
           18384     487.552E-03
           18385     539.272E-03
           18386     545.959E-03
           18387     649.221E-03
           18388     416.011E-03
           18389     693.498E-03
           18390     39.4917E-03
           18391     23.1129E-03
           18392     141.182E-03
           18393     144.267E-03
           18394     158.398E-03
           18395     204.496E-03
           18396     202.024E-03
           18397     187.722E-03
           18398     195.151E-03
           18399     133.956E-03
           18400     201.325E-03
           18401     260.410E-03
           18402     261.100E-03
           18403     195.931E-03
           18404     268.912E-03
           18405         7.47062
           18406         7.46721
           18407         7.62570
           18408         7.62826
           18409         7.86739
           18410     552.831E-03
           18411     92.5910E-03
           18412     71.7912E-03
           18413     94.3769E-03
           18414     349.434E-03
           18415     73.5646E-03
           18416     42.0846E-03
           18417     172.270E-03
           18418     199.442E-03
           18419     212.120E-03
           18420     206.259E-03
           18421     164.215E-03
           18422     175.804E-03
           18423     208.661E-03
           18424     129.868E-03
           18425     152.232E-03
           18426         6.21310
           18427         6.52519
           18428         6.24727
           18429         6.17177
           18430     86.1434E-03
           18431     38.3645E-03
           18432     24.3150E-03
           18433     80.4743E-03
           18434     101.862E-03
           18435     17.9420E-03
           18436     19.3485E-03
           18437         2.77919
           18438         2.72762
           18439         2.77584
           18440         2.74634
           18441         2.80153
           18442         2.74954
           18443         4.10157
           18444         4.10778
           18445         4.11674
           18446         5.68258
           18447         5.67868
           18448         5.75249
           18449         5.75791
           18450         5.58270
           18451     20.7266E-03
           18452     21.3735E-03
           18453     64.9380E-03
           18454     57.7343E-03
           18455     112.028E-03
           18456     27.1911E-03
           18457     25.9665E-03
           18458     13.6555E-03
           18459     32.2392E-03
           18460     17.3609E-03
           18461     15.2823E-03
           18462         4.96356
           18463         2.31168
           18464         2.26441
           18465         1.97747
           18466         2.06169
           18467         2.13970
           18468         2.40601
           18469         1.79832
           18470         1.73514
           18471         1.69333
           18472         1.75121
           18473         1.69026
           18474         1.89174
           18475         1.63604
           18476         2.31430
           18477         1.68656
           18478         1.61177
           18479         1.43385
           18480         1.48001
           18481     305.160E-03
           18482         1.37801
           18483         1.39331
           18484         1.46303
           18485         1.25710
           18486         1.24409
           18487         1.17492
           18488         5.17915
           18489         5.35269
           18490         3.62966
           18491         3.69932
           18492         3.75377
           18493         3.80926
           18494         3.74022
           18495         3.68535
           18496     861.182E-03
           18497     657.438E-03
           18498         2.24627
           18499         2.26649
           18500         1.35617
           18501     612.358E-03
           18502     500.940E-03
           18503     527.911E-03
           18504     518.444E-03
           18505     492.735E-03
           18506     553.722E-03
           18507     848.650E-03
           18508         1.01311
           18509     853.224E-03
           18510         5.66403
           18511         5.66740
           18512         5.65943
           18513         5.71804
           18514         5.71199
           18515         5.73316
           18516         5.53990
           18517         5.63776
           18518         5.63722
           18519     617.693E-03
           18520     569.617E-03
           18521     740.211E-03
           18522         3.71877
           18523         3.55298
           18524         3.67472
           18525         3.62150
           18526         3.79212
           18527         3.66641
           18528         5.69447
           18529         5.67857
           18530         5.72298
           18531     636.109E-03
           18532     629.531E-03
           18533     702.973E-03
           18534     709.861E-03
           18535     624.236E-03
           18536     699.733E-03
           18537     348.428E-03
           18538     436.524E-03
           18539     506.600E-03
           18540         1.21586
           18541         1.10311
           18542     549.622E-03
           18543     468.175E-03
           18544     968.828E-03
           18545         5.29738
           18546     833.728E-03
           18547     216.981E-03
           18548     224.665E-03
           18549     86.0801E-03
           18550     48.8305E-03
           18551     36.6396E-03
           18552     224.847E-03
           18553     283.340E-03
           18554     378.179E-03
           18555     379.602E-03
           18556     287.169E-03
           18557     342.755E-03
           18558     310.073E-03
           18559     311.807E-03
           18560     402.843E-03
           18561     219.650E-03
           18562     227.130E-03
           18563         2.73466
           18564         2.73130
           18565     401.206E-03
           18566     377.964E-03
           18567     593.821E-03
           18568     519.547E-03
           18569     630.513E-03
           18570     487.136E-03
           18571     561.585E-03
           18572     250.374E-03
           18573     161.490E-03
           18574     242.434E-03
           18575     227.092E-03
           18576     277.515E-03
           18577     186.895E-03
           18578     195.868E-03
           18579     333.215E-03
           18580     255.973E-03
           18581         1.13719
           18582         1.10447
           18583         1.10496
           18584     111.130E-03
           18585     118.510E-03
           18586     575.537E-03
           18587     159.056E-03
           18588     125.012E-03
           18589     133.919E-03
           18590     158.771E-03
           18591     93.2950E-03
           18592     133.772E-03
           18593     64.9562E-03
           18594     298.407E-03
           18595     131.035E-03
           18596     129.840E-03
           18597     85.4256E-03
           18598     49.7100E-03
           18599     50.0760E-03
           18600     25.8606E-03
           18601     121.003E-03
           18602     131.071E-03
           18603     85.0351E-03
           18604         5.77985
           18605         1.58780
           18606         1.57823
           18607         2.04705
           18608         1.53010
           18609         1.51238
           18610         1.82373
           18611         1.81987
           18612         1.66413
           18613         1.77459
           18614         1.44338
           18615         1.51878
           18616         1.83128
           18617         1.74816
           18618         1.12985
           18619         1.14207
           18620         1.40630
           18621         1.26970
           18622     721.880E-03
           18623     663.661E-03
           18624         5.52247
           18625         5.47620
           18626     539.811E-03
           18627     448.961E-03
           18628     546.011E-03
           18629     497.020E-03
           18630     270.362E-03
           18631     161.312E-03
           18632     613.062E-03
           18633     618.008E-03
           18634     637.283E-03
           18635     685.141E-03
           18636     543.875E-03
           18637     534.186E-03
           18638     483.259E-03
           18639     735.684E-03
           18640     695.252E-03
           18641     642.885E-03
           18642     474.471E-03
           18643     478.750E-03
           18644     663.810E-03
           18645     718.778E-03
           18646     859.072E-03
           18647     781.321E-03
           18648     792.668E-03
           18649     752.468E-03
           18650     764.351E-03
           18651     800.022E-03
           18652         5.51054
           18653         5.45395
           18654         5.56437
           18655         5.52479
           18656         9.16408
           18657         9.21165
           18658         9.20341
           18659         8.72568
           18660         8.69253
           18661         8.69624
           18662     506.311E-03
           18663     402.299E-03
           18664     425.037E-03
           18665     323.325E-03
           18666     425.571E-03
           18667     404.311E-03
           18668     735.115E-03
           18669     709.276E-03
           18670     735.083E-03
           18671     624.788E-03
           18672     624.340E-03
           18673     811.905E-03
           18674     731.288E-03
           18675         2.95458
           18676         3.07508
           18677         3.26056
           18678         3.19715
           18679         3.07950
           18680         2.90037
           18681         3.22010
           18682         3.33824
           18683         3.14732
           18684         3.02801
           18685         2.89043
           18686         2.86249
           18687         2.91079
           18688         2.87833
           18689         2.90680
           18690         2.85805
           18691         2.84267
           18692         2.86374
           18693         2.88268
           18694         2.88474
           18695         2.80971
           18696         2.87820
           18697         2.94816
           18698         3.00906
           18699         2.96427
           18700         2.96967
           18701         2.70543
           18702         2.63278
           18703         2.78470
           18704         3.31971
           18705         3.44062
           18706         3.25351
           18707         3.20799
           18708         3.27672
           18709         2.84118
           18710         3.00322
           18711         3.04208
           18712         2.80436
           18713         3.08439
           18714         2.95483
           18715         3.02559
           18716         3.02527
           18717         2.82598
           18718         2.92076
           18719         3.17049
           18720         3.21947
           18721         3.06184
           18722         2.53630
           18723         2.49483
           18724         2.47453
           18725         2.39889
           18726         2.42298
           18727         2.59931
           18728         2.61053
           18729         2.66253
           18730         2.65181
           18731         2.72202
           18732         2.37290
           18733         2.42218
           18734         2.45374
           18735         2.55251
           18736         2.65551
           18737         2.64506
           18738         2.36315
           18739         2.37657
           18740         2.38796
           18741         2.25984
           18742         2.33479
           18743         2.34305
           18744         2.23448
           18745         2.20217
           18746         2.05251
           18747         2.05100
           18748         1.56747
           18749         2.47073
           18750         2.40158
           18751     57.7932E-03
           18752     89.1969E-03
           18753     42.0960E-03
           18754         1.57280
           18755         1.69649
           18756         1.55172
           18757         1.68842
           18758         1.56685
           18759         1.71012
           18760         2.06808
           18761         2.14649
           18762         2.03221
           18763         2.06596
           18764         2.07150
           18765         2.15260
           18766         2.06266
           18767         2.07722
           18768         1.95662
           18769         1.82615
           18770         1.87112
           18771         1.75009
           18772         1.88077
           18773         1.83495
           18774         1.95436
           18775         1.82462
           18776         1.84317
           18777         1.13362
           18778         1.27241
           18779         1.24261
           18780         1.18645
           18781         1.07415
           18782         1.00308
           18783         1.04661
           18784         1.05551
           18785     922.059E-03
           18786     989.897E-03
           18787     917.802E-03
           18788         1.04213
           18789         1.45124
           18790         1.30382
           18791         1.14663
           18792         1.03059
           18793         1.02772
           18794         1.48950
           18795         1.38757
           18796         1.17152
           18797         1.50579
           18798         1.52256
           18799         1.46451
           18800         1.57559
           18801         1.24064
           18802         1.78145
           18803         1.92592
           18804         1.81298
           18805         1.95544
           18806         1.84971
           18807         1.83558
           18808         1.84572
           18809         1.95592
           18810         1.96576
           18811         2.61244
           18812         2.55803
           18813         2.61830
           18814     779.790E-03
           18815     914.926E-03
           18816     812.514E-03
           18817     448.130E-03
           18818     708.701E-03
           18819     652.808E-03
           18820     461.245E-03
           18821     472.187E-03
           18822     628.426E-03
           18823     220.340E-03
           18824     221.287E-03
           18825         1.06155
           18826     907.789E-03
           18827         1.07750
           18828     824.775E-03
           18829     927.212E-03
           18830     590.572E-03
           18831     591.001E-03
           18832     849.222E-03
           18833     756.502E-03
           18834     684.241E-03
           18835     680.234E-03
           18836     683.158E-03
           18837     756.475E-03
           18838     850.266E-03
           18839         1.12718
           18840         1.21187
           18841         1.09951
           18842         1.13548
           18843         1.03923
           18844         1.15233
           18845         5.65729
           18846         5.65567
           18847         2.55817
           18848         2.48855
           18849         2.49536
           18850         2.65067
           18851         2.69912
           18852         2.71086
           18853         2.66410
           18854         2.73893
           18855         2.70903
           18856         2.66544
           18857         2.67955
           18858         2.70766
           18859         2.72264
           18860         2.72048
           18861         2.73876
           18862         2.78788
           18863         2.76903
           18864         2.75587
           18865         2.80716
           18866         2.83612
           18867         2.99809
           18868         2.92413
           18869         2.84785
           18870         2.99365
           18871         2.77911
           18872         2.80195
           18873         2.81212
           18874         2.86965
           18875         2.94104
           18876         2.85040
           18877         2.63678
           18878         2.71160
           18879         5.54576
           18880         5.60871
           18881         5.60032
           18882         5.59229
           18883         5.53499
           18884         5.53695
           18885         1.55965
           18886         1.56622
           18887         2.07608
           18888         2.88122
           18889         2.86806
           18890         2.60668
           18891         2.60160
           18892         2.57211
           18893         2.63136
           18894         2.55054
           18895         2.54997
           18896         2.47461
           18897         2.49632
           18898         2.46724
           18899         2.43820
           18900         2.49144
           18901         2.42968
           18902         2.56940
           18903         2.55123
           18904         2.58418
           18905         2.59824
           18906         2.50981
           18907         2.48657
           18908         2.51361
           18909         2.45132
           18910         2.93165
           18911         2.91622
           18912         2.64718
           18913         5.33819
           18914         5.33966
           18915         5.46871
           18916         2.61630
           18917         2.64139
           18918         2.61042
           18919         2.65675
           18920         2.52200
           18921         2.54409
           18922         2.57261
           18923         2.54576
           18924         2.52540
           18925         2.51254
           18926         2.40522
           18927         2.38954
           18928         2.46088
           18929         2.46615
           18930         2.39270
           18931         5.87628
           18932         5.91242
           18933         5.96739
           18934         1.49681
           18935         1.64037
           18936         1.59058
           18937         1.52877
           18938         2.52941
           18939         2.22760
           18940         2.14622
           18941         2.19957
           18942         2.12780
           18943         2.21156
           18944         2.15968
           18945         2.36592
           18946         2.35793
           18947         2.25801
           18948         2.38562
           18949         2.08378
           18950         1.65300
           18951         1.60371
           18952         1.95080
           18953         1.50930
           18954         1.64592
           18955         4.92481
           18956         4.74668
           18957         4.75558
           18958         4.83227
           18959         5.01155
           18960         5.00270
           18961         1.54651
           18962     578.235E-03
           18963         1.90393
           18964         1.92586
           18965         1.83117
           18966         1.78311
           18967         1.87842
           18968         1.77488
           18969         1.84014
           18970         1.87515
           18971         1.81212
           18972         1.77851
           18973         5.09733
           18974         5.10077
           18975         4.93376
           18976         4.93963
           18977         4.93681
           18978         5.10175
           18979         1.75771
           18980         1.68740
           18981         1.75905
           18982         1.88190
           18983         1.36260
           18984         1.34697
           18985         1.24957
           18986         1.26362
           18987         1.28250
           18988         1.37613
           18989         1.27857
           18990         1.31638
           18991         1.38726
           18992         1.49343
           18993         1.40172
           18994         1.41495
           18995         1.37610
           18996         1.29017
           18997         1.39686
           18998         1.43460
           18999         1.50869
           19000         5.10778
           19001         5.17467
           19002         5.34536
           19003         5.27599
           19004         5.68570
           19005         5.70746
           19006         5.63770
           19007         5.64722
           19008         5.64001
           19009         5.69541
           19010         1.33476
           19011         1.45908
           19012         1.32155
           19013         1.05351
           19014         1.00823
           19015     938.987E-03
           19016     968.775E-03
           19017     935.895E-03
           19018     947.190E-03
           19019     857.695E-03
           19020     860.557E-03
           19021         1.10348
           19022         1.16506
           19023         1.21332
           19024         1.13831
           19025         5.68372
           19026         5.73272
           19027         5.65288
           19028     946.552E-03
           19029     858.492E-03
           19030     887.391E-03
           19031         5.11428
           19032         5.38790
           19033         5.39790
           19034         5.12074
           19035         1.24465
           19036         1.34038
           19037         1.38367
           19038         1.27504
           19039         1.28823
           19040         1.31798
           19041         1.10836
           19042         1.05468
           19043         1.05567
           19044         1.17535
           19045         1.17492
           19046         1.12966
           19047         1.16317
           19048         2.42583
           19049         2.38143
           19050         2.29932
           19051         2.36566
           19052         2.32727
           19053         2.39683
           19054         2.32287
           19055         2.67141
           19056         2.69972
           19057         2.67667
           19058         2.68507
           19059         2.69642
           19060         2.67342
           19061         2.69912
           19062         2.61145
           19063         2.61885
           19064         2.49114
           19065         2.56901
           19066         2.67256
           19067         2.65023
           19068         2.67683
           19069         5.83644
           19070         5.84327
           19071         2.58710
           19072         2.56226
           19073         2.58804
           19074         2.51701
           19075         2.57288
           19076         2.55513
           19077         2.56503
           19078         2.52400
           19079         2.56197
           19080         2.56462
           19081         2.60037
           19082         2.47697
           19083         2.48287
           19084         2.37988
           19085         2.37528
           19086         2.53438
           19087         2.49307
           19088         2.30786
           19089         2.22970
           19090         2.23933
           19091         1.96548
           19092         2.25565
           19093         2.18883
           19094         2.17189
           19095         2.26614
           19096         2.27060
           19097         2.25888
           19098         2.24770
           19099         2.24875
           19100         2.18970
           19101         2.05852
           19102         2.38228
           19103         2.31760
           19104         2.32747
           19105         2.20099
           19106         2.26230
           19107         2.20022
           19108         2.43732
           19109         2.48486
           19110         2.26255
           19111         1.71728
           19112         1.78613
           19113         1.69108
           19114         4.34874
           19115         4.33808
           19116         4.29559
           19117         4.30591
           19118     781.205E-03
           19119     781.519E-03
           19120         1.80392
           19121         1.79158
           19122         1.56383
           19123         1.96442
           19124         1.97327
           19125         1.97084
           19126         1.96233
           19127         1.99415
           19128         1.92834
           19129         1.83474
           19130         1.83304
           19131         1.92634
           19132         1.90441
           19133         1.99514
           19134         1.99183
           19135         2.30920
           19136         2.32773
           19137         4.22164
           19138         4.22256
           19139         4.02234
           19140         4.26389
           19141         2.30754
           19142         2.25046
           19143         2.10009
           19144         1.50569
           19145         1.38747
           19146         1.28409
           19147         1.27029
           19148         1.31878
           19149         1.20650
           19150         1.75524
           19151         1.81342
           19152         1.75751
           19153         1.70643
           19154         1.71060
           19155         1.68618
           19156         1.59855
           19157         1.81394
           19158         1.89260
           19159         1.99916
           19160         1.92365
           19161     490.874E-03
           19162     590.574E-03
           19163     507.125E-03
           19164         1.72807
           19165         1.62081
           19166         3.46987
           19167         3.62050
           19168         3.52391
           19169         3.67867
           19170         3.51826
           19171         3.61508
           19172         1.80585
           19173         5.81804
           19174         1.38371
           19175         1.43701
           19176         1.86745
           19177         1.95693
           19178         1.90225
           19179         1.81863
           19180         1.76713
           19181         1.87314
           19182         1.76654
           19183         1.81869
           19184         1.75826
           19185         1.55303
           19186         1.60773
           19187         1.60861
           19188         1.49938
           19189         2.39590
           19190         2.62511
           19191         2.62313
           19192         2.60397
           19193         2.59978
           19194         2.60221
           19195         2.62197
           19196         2.59982
           19197         2.56446
           19198         2.66168
           19199         2.65358
           19200         2.65146
           19201         2.66002
           19202         2.66783
           19203         2.66842
           19204         2.64122
           19205         2.62057
           19206         2.61893
           19207         2.63241
           19208         2.64843
           19209         2.45665
           19210         2.62277
           19211         2.62541
           19212         2.65578
           19213         2.65608
           19214         2.57167
           19215         2.57196
           19216         2.64745
           19217         2.51734
           19218         2.54511
           19219         2.54542
           19220         2.54083
           19221         2.51155
           19222         2.56002
           19223         2.55037
           19224         2.47516
           19225         2.48127
           19226         2.47845
           19227         2.53177
           19228         2.51259
           19229         2.43212
           19230         2.47315
           19231         2.61487
           19232         2.62534
           19233         2.60496
           19234         2.36890
           19235         2.37766
           19236         2.61904
           19237         2.64033
           19238         2.62114
           19239         2.62155
           19240         5.39073
           19241         5.40771
           19242         5.15084
           19243         2.38616
           19244         2.42812
           19245         2.39453
           19246         2.43167
           19247         2.38775
           19248         2.42205
           19249         2.42826
           19250         2.37420
           19251         2.43110
           19252         5.60692
           19253         5.67822
           19254         2.47988
           19255         2.44160
           19256         2.37010
           19257         2.36478
           19258         2.57415
           19259         2.57364
           19260         2.39048
           19261         2.47371
           19262         2.31593
           19263         2.20879
           19264         2.17579
           19265         2.21000
           19266         2.25533
           19267         2.17659
           19268         2.25644
           19269         1.97742
           19270         1.97764
           19271         2.04327
           19272         2.06454
           19273         2.06256
           19274         2.06164
           19275         2.23522
           19276         2.18159
           19277         2.16292
           19278         2.13928
           19279         2.21034
           19280         2.21523
           19281         2.15716
           19282         2.21014
           19283         2.29895
           19284         2.45673
           19285         2.45656
           19286         2.25680
           19287         2.18692
           19288         1.83865
           19289         1.97698
           19290         1.93007
           19291         2.05271
           19292         2.10347
           19293         2.04846
           19294         2.09400
           19295         2.09048
           19296         2.13738
           19297         2.13998
           19298         2.07247
           19299         2.06742
           19300         1.97762
           19301         2.06980
           19302         2.06490
           19303         2.15393
           19304         1.98103
           19305         2.08876
           19306         1.98185
           19307         2.06135
           19308         1.95142
           19309         2.06090
           19310         1.87411
           19311         2.01391
           19312         6.24078
           19313         6.71616
           19314         6.57713
           19315         6.11328
           19316         2.99456
           19317         3.72190
           19318         5.06481
           19319         3.88260
           19320         3.27408
           19321         2.30633
           19322         1.72410
           19323         1.72408
           19324         1.80910
           19325         1.83406
           19326         1.83386
           19327         1.76601
           19328         1.71544
           19329         2.22069
           19330         2.30327
           19331         2.22356
           19332         2.19791
           19333         2.11843
           19334         2.19528
           19335         2.11699
           19336         2.11777
           19337         2.19457
           19338         2.22067
           19339         1.95081
           19340         1.98102
           19341         2.65957
           19342         2.66955
           19343         2.66901
           19344         7.55472
           19345         7.45834
           19346         7.85022
           19347         7.47192
           19348         7.93260
           19349         2.66122
           19350         2.65148
           19351         2.65172
           19352         2.64414
           19353         2.65316
           19354         2.64313
           19355         2.64300
           19356         2.65220
           19357         2.65349
           19358         2.48246
           19359         2.46874
           19360         2.67428
           19361         2.67860
           19362         2.66199
           19363         2.67619
           19364         2.68479
           19365         2.66354
           19366         2.62418
           19367         2.59160
           19368         2.57531
           19369         2.62378
           19370         2.60204
           19371         2.57396
           19372         2.54886
           19373         2.57465
           19374         2.57246
           19375         2.38502
           19376         2.43432
           19377         2.43059
           19378         2.37696
           19379         2.64535
           19380         2.65089
           19381         2.66113
           19382         2.66460
           19383         2.59605
           19384         2.60883
           19385         2.60183
           19386         2.58878
           19387         2.58437
           19388         2.57240
           19389         2.56425
           19390         2.62722
           19391         2.54887
           19392         2.58249
           19393         2.59314
           19394         2.57805
           19395         7.54966
           19396         6.94837
           19397         7.38357
           19398         2.63078
           19399         2.61540
           19400         2.63435
           19401         2.37227
           19402         2.47396
           19403         1.93743
           19404         2.34507
           19405         5.73437
           19406         5.73422
           19407         2.50383
           19408         2.50634
           19409         2.54786
           19410         2.52212
           19411         2.54563
           19412         2.49774
           19413         2.46756
           19414         2.46723
           19415         2.63844
           19416         2.55766
           19417         5.64386
           19418         5.61123
           19419         5.63784
           19420         5.63656
           19421         1.72518
           19422         2.05507
           19423         1.97224
           19424         2.38969
           19425         2.39287
           19426         2.35665
           19427         2.35378
           19428         2.35490
           19429         2.11332
           19430         2.12602
           19431         2.38634
           19432         2.37907
           19433         2.35316
           19434         2.50753
           19435         2.26503
           19436         2.61594
           19437         2.06427
           19438         2.02225
           19439         2.02358
           19440         2.07002
           19441         2.34070
           19442         2.25799
           19443         2.35609
           19444         2.32792
           19445         2.31000
           19446         2.37000
           19447         2.36597
           19448         2.43384
           19449         6.41638
           19450         6.26053
           19451         6.42128
           19452         2.40126
           19453         2.43854
           19454     49.1231E-03
           19455     28.3781E-03
           19456     27.4764E-03
           19457         2.40820
           19458         2.50949
           19459         2.40489
           19460         2.51871
           19461         2.40398
           19462         2.50861
           19463         2.28528
           19464         2.28630
           19465         2.28360
           19466         2.40130
           19467         2.40104
           19468         2.40209
           19469         2.28829
           19470         1.83418
           19471         2.46123
           19472         2.48774
           19473         2.16136
           19474         2.17739
           19475         2.17783
           19476         2.16537
           19477         2.17882
           19478         6.00138
           19479         6.27355
           19480         6.39775
           19481         6.55859
           19482         2.32919
           19483         2.32550
           19484         2.52269
           19485         2.44860
           19486         2.46305
           19487         2.62896
           19488         2.62945
           19489         2.62279
           19490         2.62766
           19491         1.92768
           19492         5.14785
           19493         5.22398
           19494         2.62854
           19495         2.62882
           19496         2.51597
           19497         2.42983
           19498         2.50646
           19499         2.41350
           19500         2.51408
           19501         2.64560
           19502         2.68947
           19503         2.69036
           19504         2.68415
           19505         2.68305
           19506         2.68306
           19507         2.68868
           19508         2.67604
           19509         2.67691
           19510         2.67705
           19511         2.67579
           19512         2.68042
           19513         2.67683
           19514         2.67913
           19515         5.44396
           19516         5.57325
           19517         5.53860
           19518         5.42706
           19519         5.55280
           19520         3.54778
           19521         3.54827
           19522         3.52388
           19523         3.65416
           19524         3.65295
           19525         3.68397
           19526         2.58403
           19527         2.56938
           19528         2.61698
           19529         2.67454
           19530         2.67237
           19531         2.50428
           19532         6.49659
           19533         6.55312
           19534         6.80551
           19535         2.66647
           19536         2.67150
           19537         2.66615
           19538         6.11299
           19539         6.16433
           19540         6.11285
           19541         6.05008
           19542         6.00065
           19543         2.66025
           19544         2.66257
           19545         2.65899
           19546         2.64657
           19547         2.64369
           19548         2.64414
           19549         2.61655
           19550         2.62976
           19551         2.67558
           19552         2.66706
           19553         2.66394
           19554         2.68395
           19555         2.67926
           19556         2.59625
           19557         2.58566
           19558         2.59776
           19559         2.67697
           19560         2.68285
           19561         2.67858
           19562         2.67350
           19563         2.68762
           19564         2.69065
           19565         2.68905
           19566         2.67352
           19567         2.67754
           19568         2.67065
           19569         2.68123
           19570         2.66964
           19571         5.46838
           19572         2.54803
           19573         2.48039
           19574         2.50939
           19575         2.42716
           19576         2.43119
           19577         2.39594
           19578         5.14230
           19579         2.59691
           19580         2.55260
           19581         2.55925
           19582         2.61621
           19583         2.44865
           19584         2.24407
           19585         2.63174
           19586         2.27951
           19587         2.25458
           19588         2.61740
           19589         2.57908
           19590         2.62073
           19591         2.60180
           19592         2.63453
           19593         2.59310
           19594         2.67632
           19595         2.70800
           19596         2.72728
           19597         2.65543
           19598         2.59237
           19599         2.63846
           19600         2.57083
           19601         2.63342
           19602         2.59421
           19603         2.65080
           19604         2.66235
           19605         2.66273
           19606         5.35563
           19607         5.42439
           19608         2.46879
           19609         2.47659
           19610         2.62020
           19611         2.64843
           19612         2.64933
           19613         2.66561
           19614         2.63773
           19615         2.53821
           19616         2.60615
           19617         2.73711
           19618         2.69196
           19619         2.61877
           19620         2.60002
           19621         2.82069
           19622         2.83708
           19623         2.73743
           19624         2.63720
           19625         2.63002
           19626         2.75214
           19627         2.62902
           19628         2.72930
           19629         2.73023
           19630         2.57301
           19631         2.50795
           19632         2.60815
           19633         2.62071
           19634         2.37006
           19635         2.46945
           19636         2.44226
           19637         2.55488
           19638         2.58329
           19639         3.04228
           19640         3.06062
           19641         3.03937
           19642         2.84471
           19643         2.96357
           19644         2.85400
           19645         2.95524
           19646         4.63863
           19647         4.85202
           19648         2.70414
           19649         2.70524
           19650         2.71661
           19651         2.71879
           19652         2.70815
           19653         2.70457
           19654         2.69681
           19655         2.69866
           19656         2.70578
           19657         2.69921
           19658         2.73346
           19659         2.72716
           19660         2.72995
           19661         2.70592
           19662         2.71354
           19663         2.70487
           19664         2.69514
           19665         2.68751
           19666         2.68960
           19667         2.69467
           19668         2.67878
           19669         2.67618
           19670         2.68735
           19671         2.69106
           19672         6.32113
           19673         2.70205
           19674         2.66349
           19675         2.65565
           19676         2.59672
           19677         2.70058
           19678         2.72453
           19679         2.71796
           19680         2.71851
           19681         2.72588
           19682         2.71876
           19683         2.69270
           19684         2.69778
           19685         2.68254
           19686         2.68847
           19687         2.68825
           19688         2.68230
           19689         2.68287
           19690         2.68121
           19691         2.68723
           19692         2.70090
           19693         2.71298
           19694         2.70165
           19695         2.68931
           19696         2.72085
           19697         2.70391
           19698         2.75275
           19699         2.67717
           19700         2.68720
           19701         2.69467
           19702         2.71778
           19703         2.70605
           19704         2.67175
           19705         2.67355
           19706         2.67630
           19707         2.67613
           19708         2.67710
           19709         2.68056
           19710         2.70802
           19711         2.48447
           19712         2.54042
           19713         2.51521
           19714         2.53841
           19715         2.52341
           19716         2.32534
           19717         2.41745
           19718         2.44281
           19719         2.74327
           19720         2.73049
           19721         2.59107
           19722         2.70402
           19723         2.68387
           19724         2.46214
           19725         3.16863
           19726         3.21520
           19727         3.08298
           19728         3.14922
           19729         3.10810
           19730         3.23687
           19731         3.74131
           19732         3.74153
           19733         3.78752
           19734         3.62791
           19735         3.78718
           19736         3.01814
           19737         3.03158
           19738         3.03357
           19739         2.96268
           19740         2.95788
           19741         2.94634
           19742         3.06870
           19743         3.08457
           19744         3.13223
           19745         3.19384
           19746         3.14381
           19747         3.04832
           19748         3.09116
           19749         3.18157
           19750         2.98943
           19751         3.06555
           19752         2.94209
           19753         2.95931
           19754         2.93256
           19755         2.98599
           19756         2.99178
           19757         3.06273
           19758         3.00953
           19759         3.02056
           19760         2.96850
           19761         2.89431
           19762         2.82603
           19763         3.11151
           19764         3.10381
           19765         3.22684
           19766         3.17574
           19767         3.19151
           19768         3.24446
           19769         3.30709
           19770         3.09793
           19771         3.21781
           19772         3.20237
           19773         3.18391
           19774         2.82653
           19775         2.87954
           19776         2.85159
           19777         2.78348
           19778         2.95470
           19779         2.87769
           19780         2.92906
           19781         6.43584
           19782         3.04526
           19783         3.16280
           19784         3.07707
           19785         3.17786
           19786         3.05241
           19787         3.17873
           19788         3.07808
           19789         3.21420
           19790         3.30036
           19791         3.41021
           19792         3.27573
           19793         3.41014
           19794         3.30074
           19795         3.44387
           19796         3.55788
           19797         3.52353
           19798         3.55796
           19799         3.32898
           19800         3.32892
           19801         3.29211
           19802         3.18686
           19803         3.16005
           19804         5.41457
           19805         5.49790
           19806         5.76157
           19807         5.68910
           19808         5.63516
           19809         4.97324
           19810         4.86463
           19811         5.04608
           19812         2.95415
           19813         2.98393
           19814         3.09918
           19815         3.09890
           19816         3.06873
           19817         2.86812
           19818         2.84453
           19819         2.73888
           19820         2.85305
           19821         3.03207
           19822         2.68573
           19823         2.69131
           19824         2.69647
           19825         2.68865
           19826         2.69041
           19827         2.69850
           19828         2.68364
           19829         2.69731
           19830         2.69277
           19831         2.68437
           19832         2.68573
           19833         2.69848
           19834         2.63602
           19835         2.66412
           19836         2.77303
           19837         2.81109
           19838         2.76665
           19839         2.79439
           19840         2.75518
           19841         2.80278
           19842         2.71411
           19843         2.73557
           19844         2.77954
           19845         2.76975
           19846         2.40301
           19847         2.68572
           19848         2.70292
           19849         2.71474
           19850         2.72869
           19851         2.71542
           19852         2.72916
           19853         2.72952
           19854         2.78109
           19855         2.68312
           19856         2.68015
           19857         2.61964
           19858         4.15298
           19859         4.16969
           19860         4.14360
           19861         4.32163
           19862         4.30418
           19863         4.33092
           19864         2.99259
           19865         3.06289
           19866         3.02682
           19867         3.20475
           19868         3.12582
           19869         3.20554
           19870         3.10623
           19871         3.02937
           19872         2.97225
           19873         2.83560
           19874         2.87288
           19875         2.83449
           19876         2.97546
           19877         2.92184
           19878         2.87101
           19879         2.86410
           19880         2.90939
           19881         2.79141
           19882         2.81210
           19883         2.82365
           19884         2.82088
           19885         2.80809
           19886         2.78596
           19887         2.72950
           19888         2.73460
           19889         2.71759
           19890         2.70888
           19891         2.88860
           19892         2.91513
           19893         2.91242
           19894         2.98282
           19895         2.95328
           19896         4.31678
           19897         4.32719
           19898         4.47283
           19899         4.32858
           19900         4.31793
           19901         4.17798
           19902         2.79728
           19903         2.87076
           19904         2.85605
           19905         2.83357
           19906         2.76938
           19907         2.93331
           19908         2.93574
           19909         2.99423
           19910         2.97499
           19911         2.92373
           19912         2.83472
           19913         2.84082
           19914         2.88939
           19915         2.90942
           19916         2.83678
           19917         2.97383
           19918         2.88126
           19919         2.60912
           19920         2.78016
           19921         2.77245
           19922         3.23230
           19923         2.94286
           19924         2.94620
           19925         2.97549
           19926         2.88335
           19927         2.88626
           19928         2.94166
           19929         2.93886
           19930         2.89717
           19931         3.12837
           19932         3.33532
           19933         3.42409
           19934         3.43124
           19935         3.40893
           19936         3.32782
           19937         3.31252
           19938         5.40125
           19939         5.44950
           19940         3.37345
           19941         3.35899
           19942         3.29442
           19943         3.24903
           19944         3.25587
           19945         3.32183
           19946         3.39351
           19947         3.53911
           19948         3.47292
           19949         3.49520
           19950         2.61223
           19951         2.66766
           19952         3.39055
           19953         3.31741
           19954         3.55315
           19955         3.40601
           19956         3.55802
           19957         2.55830
           19958         2.56275
           19959         3.31406
           19960         3.02578
           19961         3.35065
           19962         3.44721
           19963         3.48068
           19964         3.46945
           19965         3.37290
           19966         3.34020
           19967         3.26452
           19968         3.25665
           19969         3.15522
           19970         3.25920
           19971         1.92853
           19972         3.27023
           19973         3.32087
           19974         3.40266
           19975         3.44623
           19976         3.54962
           19977         3.73520
           19978         3.84318
           19979         3.68442
           19980         3.69066
           19981         3.58385
           19982         3.67103
           19983         3.76125
           19984         3.71814
           19985         3.62732
           19986         3.66430
           19987         3.55348
           19988         3.45266
           19989         3.62787
           19990         3.48677
           19991         3.52378
           19992         3.67286
           19993         3.78703
           19994         3.09033
           19995         3.58823
           19996         3.58907
           19997         3.43197
           19998         3.84330
           19999         4.06522
           20000         3.95729
           20001         3.82240
           20002         3.71705
           20003         3.71697
           20004         2.72085
           20005         2.71479
           20006         2.76897
           20007         2.82598
           20008         2.82863
           20009         2.80084
           20010         2.78051
           20011         2.88335
           20012         2.88553
           20013         2.85192
           20014         2.85041
           20015         2.85147
           20016         2.84915
           20017         2.75342
           20018         2.75386
           20019         2.78030
           20020         2.76177
           20021         2.78095
           20022         2.68134
           20023         2.78274
           20024         2.76376
           20025         2.72853
           20026         2.74294
           20027         2.74414
           20028         2.72435
           20029         2.73111
           20030         2.71824
           20031         2.73138
           20032         2.71496
           20033         2.84820
           20034         2.88619
           20035         2.84211
           20036         2.84987
           20037         2.87975
           20038         2.79495
           20039         2.81791
           20040         2.83106
           20041         2.81300
           20042         2.81372
           20043         5.49946
           20044         2.87163
           20045         2.87382
           20046         2.84757
           20047         3.07875
           20048         3.12307
           20049         3.08157
           20050         3.22083
           20051         3.29508
           20052         3.21326
           20053         3.28562
           20054         3.28384
           20055         3.20198
           20056         3.08806
           20057         3.08080
           20058         3.08308
           20059         3.07656
           20060         2.97541
           20061         3.07892
           20062         3.02599
           20063         3.07957
           20064         5.03804
           20065         5.03820
           20066         2.83027
           20067         2.97492
           20068         3.52747
           20069         3.44308
           20070         3.54354
           20071         3.53540
           20072         3.51873
           20073         3.34122
           20074         3.33446
           20075         3.42021
           20076         3.39799
           20077         3.40457
           20078         3.31682
           20079         3.60138
           20080         3.50134
           20081         3.49545
           20082         3.51344
           20083         2.94523
           20084         3.14104
           20085         3.08461
           20086         3.34547
           20087         3.34552
           20088         3.18550
           20089         3.21754
           20090         1.13497
           20091         1.55473
           20092         1.24159
           20093         1.20331
           20094     857.210E-03
           20095         1.07920
           20096         2.52355
           20097         3.02962
           20098         3.48007
           20099         5.00582
           20100         5.02472
           20101         2.96403
           20102         4.75898
           20103         4.64479
           20104         4.57021
           20105         4.56800
           20106         3.05655
           20107         3.06871
           20108         3.00108
           20109         2.99765
           20110         3.01684
           20111         3.06122
           20112         3.33938
           20113         3.57282
           20114         3.67652
           20115         3.48622
           20116         3.56142
           20117         3.57851
           20118         3.65311
           20119         3.44222
           20120         3.54253
           20121         3.45789
           20122         3.66787
           20123         3.66242
           20124         3.79088
           20125         3.79399
           20126         3.78434
           20127         3.79053
           20128         3.91817
           20129         3.98956
           20130         3.86072
           20131         3.36193
           20132         3.36272
           20133         3.95933
           20134         3.95980
           20135         3.78872
           20136         3.78832
           20137         3.82803
           20138         4.11594
           20139         4.00529
           20140         3.95867
           20141         4.07036
           20142         5.71588
           20143         3.89803
           20144         3.22861
           20145         3.65757
           20146         3.82665
           20147         3.65348
           20148         3.94220
           20149         3.93628
           20150         3.86480
           20151         3.87165
           20152         3.32910
           20153         2.77550
           20154         2.75747
           20155         2.75918
           20156         2.77737
           20157         2.74238
           20158         2.75458
           20159         2.77773
           20160         2.73443
           20161         2.75783
           20162         2.75858
           20163         2.85304
           20164         2.72562
           20165         2.72791
           20166         2.74107
           20167         2.75595
           20168         2.84651
           20169         2.83852
           20170         2.70383
           20171         2.72590
           20172         2.71433
           20173         2.74071
           20174         2.76155
           20175         2.75324
           20176         2.74389
           20177         5.76515
           20178         5.45276
           20179         5.60276
           20180         5.58852
           20181         5.48192
           20182         2.69060
           20183         2.70857
           20184         2.72159
           20185         2.71946
           20186         2.70111
           20187         2.73821
           20188         2.73605
           20189         2.71883
           20190         2.71601
           20191         2.80275
           20192         2.84488
           20193         2.70701
           20194         2.67982
           20195         2.69730
           20196         2.72526
           20197         2.69577
           20198         2.68823
           20199         2.67284
           20200         2.69808
           20201         2.68903
           20202         2.72629
           20203         2.70613
           20204         2.72625
           20205         2.74157
           20206         2.68830
           20207         2.89389
           20208         2.84922
           20209         2.86057
           20210         2.88972
           20211         2.78024
           20212         2.94363
           20213         2.94682
           20214         2.89711
           20215         2.83232
           20216         2.80557
           20217         3.00496
           20218         3.06752
           20219         3.07223
           20220         3.00958
           20221         2.93682
           20222         2.95210
           20223         2.85379
           20224         3.21554
           20225         3.14606
           20226         3.14129
           20227         3.21403
           20228         3.20594
           20229         3.28745
           20230         3.28531
           20231         3.29383
           20232         3.21229
           20233         3.37695
           20234         3.58408
           20235         3.58114
           20236         3.48768
           20237         3.48969
           20238         3.59177
           20239         3.13537
           20240         3.13385
           20241         3.07823
           20242         3.02227
           20243         3.01537
           20244         2.92024
           20245         3.04866
           20246         3.68210
           20247         3.60364
           20248         3.57782
           20249         3.58894
           20250         3.79096
           20251         3.59220
           20252         3.39477
           20253         3.37372
           20254         3.39088
           20255         3.49523
           20256         3.56008
           20257         3.56992
           20258         3.47611
           20259         3.19906
           20260         3.36157
           20261         3.37480
           20262         3.94850
           20263         3.94724
           20264         3.96838
           20265         3.97072
           20266         4.10301
           20267         3.99923
           20268         4.09368
           20269         4.09973
           20270         4.23202
           20271         4.20712
           20272         4.20125
           20273         3.88199
           20274         4.03059
           20275         4.00829
           20276         3.82095
           20277         3.61009
           20278         3.71704
           20279         3.77213
           20280         5.60707
           20281         4.40431
           20282         4.21479
           20283         4.40615
           20284         4.25912
           20285         4.52587
           20286         4.41109
           20287         4.60153
           20288         4.56620
           20289         4.35307
           20290         4.39626
           20291         5.75462
           20292         3.18959
           20293         3.23341
           20294         4.18064
           20295         4.18110
           20296         3.25734
           20297         3.23575
           20298         4.07075
           20299         5.95302
           20300         5.78162
           20301         2.64310
           20302         2.58878
           20303         2.64285
           20304         2.62739
           20305         2.68345
           20306         2.69586
           20307         2.63366
           20308         2.63343
           20309         2.79923
           20310         2.77646
           20311         2.79311
           20312         2.73579
           20313         2.75709
           20314         2.74153
           20315         2.71587
           20316         2.72142
           20317         2.71382
           20318         2.72362
           20319         2.71073
           20320         2.61023
           20321         2.60969
           20322         2.61138
           20323         2.66744
           20324         2.76265
           20325         2.74161
           20326         2.83300
           20327         2.80638
           20328         2.90956
           20329         2.93886
           20330         2.87723
           20331         2.97868
           20332         3.00896
           20333         2.98764
           20334         3.08920
           20335         3.04391
           20336         2.97442
           20337         3.02123
           20338         3.16848
           20339         3.08679
           20340         2.94535
           20341         2.95324
           20342         3.02740
           20343         3.00525
           20344         3.04030
           20345         2.96553
           20346         3.34206
           20347         3.32562
           20348         3.09599
           20349         3.10940
           20350         2.83902
           20351         2.81213
           20352         2.85914
           20353         2.81429
           20354         2.83468
           20355         2.87554
           20356         2.90205
           20357         2.94432
           20358         3.26536
           20359         3.17664
           20360         3.18303
           20361         3.29946
           20362         3.11181
           20363         3.20031
           20364         3.11745
           20365         3.08442
           20366         2.99984
           20367         3.06527
           20368         3.59946
           20369         3.49062
           20370         3.36314
           20371         3.25623
           20372         3.35679
           20373         3.34301
           20374         3.45888
           20375         3.34999
           20376         3.58124
           20377         3.45741
           20378         3.27740
           20379         3.27112
           20380         3.37081
           20381         3.92704
           20382         3.94455
           20383         4.01821
           20384         4.03852
           20385         4.42029
           20386         4.28757
           20387         4.43388
           20388         4.39986
           20389         4.25470
           20390         3.97981
           20391         3.72575
           20392         3.71099
           20393         3.83132
           20394         4.12600
           20395         4.29890
           20396         4.14810
           20397         4.27974
           20398         4.10555
           20399         3.96320
           20400         3.82107
           20401         3.70222
           20402         3.17399
           20403         3.30342
           20404         3.07469
           20405         3.06524
           20406         3.12645
           20407         3.21968
           20408         4.58185
           20409         4.42468
           20410         4.49046
           20411         3.38353
           20412         4.51953
           20413         4.57641
           20414         4.52237
           20415         4.43713
           20416         3.99783
           20417         4.16399
           20418         4.13187
           20419         4.74650
           20420         4.69165
           20421         4.75071
           20422         1.38366
           20423         1.33798
           20424         1.28824
           20425         3.26132
           20426         3.60799
           20427         2.93522
           20428         2.92253
           20429         5.12490
           20430         5.12492
           20431         5.33950
           20432         5.24808
           20433         5.24816
           20434         5.12552
           20435         4.14689
           20436         4.15505
           20437         4.16889
           20438         4.05959
           20439         4.05019
           20440         4.47711
           20441         4.30853
           20442         4.48796
           20443         4.64499
           20444         2.53857
           20445         2.54256
           20446         2.49501
           20447         2.48043
           20448         2.48100
           20449         2.52375
           20450         2.47275
           20451         2.40906
           20452         2.47280
           20453         2.44656
           20454         2.51968
           20455         2.44702
           20456         2.68319
           20457         4.64278
           20458         2.52417
           20459         2.53835
           20460         2.50344
           20461         2.54520
           20462         2.48969
           20463         2.61684
           20464         2.58103
           20465         2.57956
           20466         2.54113
           20467         2.53356
           20468         2.64380
           20469         2.70417
           20470         2.65102
           20471         2.63713
           20472         2.67635
           20473         2.71127
           20474         2.68438
           20475         2.61266
           20476         2.56636
           20477         2.56708
           20478         2.68575
           20479         2.67355
           20480         2.72873
           20481         2.68930
           20482         2.68680
           20483         2.68176
           20484         2.78424
           20485         2.88513
           20486         2.74409
           20487         2.69772
           20488         2.69484
           20489         2.71570
           20490         2.54866
           20491         2.64494
           20492         2.60146
           20493         2.68053
           20494         2.65296
           20495         3.02742
           20496         3.05744
           20497         3.13218
           20498         3.06099
           20499         3.03164
           20500         2.99437
           20501         2.84764
           20502         2.69813
           20503         2.99141
           20504         3.17208
           20505         3.16815
           20506         3.25329
           20507         3.25749
           20508         3.33060
           20509         3.19842
           20510         3.29114
           20511         3.21396
           20512         3.34786
           20513         3.16633
           20514         3.83144
           20515         3.11357
           20516         3.85609
           20517         3.97897
           20518         3.85175
           20519         3.58884
           20520         3.47725
           20521         3.49096
           20522         3.45248
           20523         3.43779
           20524         3.51877
           20525         3.66254
           20526         3.52367
           20527         3.54947
           20528         3.51469
           20529         4.86215
           20530         4.85956
           20531         5.04228
           20532         3.79584
           20533         3.94405
           20534         3.80183
           20535         3.63643
           20536         3.62132
           20537         3.74827
           20538         3.76436
           20539         4.15193
           20540         2.61927
           20541         2.63624
           20542         2.66153
           20543         2.58046
           20544         2.57986
           20545         2.55998
           20546         3.39060
           20547         3.39809
           20548         3.99743
           20549         3.86486
           20550         4.23295
           20551         4.11700
           20552         3.98897
           20553         5.22371
           20554         4.41771
           20555         4.25824
           20556         4.59478
           20557         4.60597
           20558         4.42400
           20559         6.58641
           20560         3.36908
           20561         4.14076
           20562         4.11517
           20563         4.12977
           20564         4.94166
           20565         5.17110
           20566         5.16195
           20567         4.93300
           20568         4.77027
           20569         4.75762
           20570         4.76340
           20571         5.19762
           20572         4.79947
           20573         4.42718
           20574         4.63051
           20575         4.62023
           20576         4.63742
           20577         4.70195
           20578         4.94463
           20579         4.75165
           20580         4.75807
           20581         3.58683
           20582         3.58963
           20583         2.94618
           20584         3.08279
           20585         3.03671
           20586         3.08174
           20587         2.94744
           20588         3.04826
           20589         5.16681
           20590         5.24744
           20591         3.62898
           20592         3.76776
           20593         3.79200
           20594         3.65247
           20595         3.80134
           20596         5.46940
           20597         4.75680
           20598         5.63902
           20599         5.50444
           20600         5.73407
           20601         6.28990
           20602         6.20460
           20603         6.19118
           20604         6.06079
           20605         5.91638
           20606         6.15119
           20607         6.01142
           20608         5.76574
           20609         6.10830
           20610         2.71340
           20611         2.68118
           20612         2.70219
           20613         2.91466
           20614         2.99365
           20615         2.92107
           20616         2.76101
           20617         2.74078
           20618         2.84779
           20619         2.79277
           20620         3.04008
           20621         2.99072
           20622         2.91951
           20623         3.01867
           20624         3.15510
           20625         3.07412
           20626         3.14498
           20627         3.09032
           20628         2.67789
           20629         2.59277
           20630         2.65589
           20631         2.59606
           20632         2.61988
           20633         2.94707
           20634         2.97874
           20635         2.84335
           20636         2.98910
           20637         2.77503
           20638         2.66473
           20639         2.68840
           20640         2.60770
           20641         2.71503
           20642         2.68859
           20643         2.60196
           20644         2.57751
           20645         5.43993
           20646         5.46661
           20647         2.44397
           20648         2.50155
           20649         2.50049
           20650         2.52622
           20651         2.52742
           20652         2.64328
           20653         2.73162
           20654         2.64033
           20655         2.71062
           20656         2.67718
           20657         2.71009
           20658         2.59872
           20659         2.55053
           20660         2.46996
           20661         2.53049
           20662         2.55348
           20663         4.72060
           20664         4.90663
           20665         2.38134
           20666         2.50880
           20667         2.42129
           20668         2.35049
           20669         2.41749
           20670         2.38992
           20671         2.39389
           20672         2.52484
           20673         2.50042
           20674         2.57501
           20675         2.59698
           20676         2.37838
           20677         2.38176
           20678         2.57796
           20679         2.37867
           20680         5.90580
           20681         2.84032
           20682         2.92726
           20683         2.82041
           20684         2.43882
           20685         2.49977
           20686         2.80531
           20687         2.45212
           20688         2.51942
           20689         2.89562
           20690         2.95195
           20691         3.29486
           20692         3.14381
           20693         3.24024
           20694         4.23876
           20695         3.23632
           20696         3.18905
           20697         3.35515
           20698         3.25813
           20699         3.30578
           20700         3.61616
           20701         3.15092
           20702         3.16603
           20703         3.04129
           20704         3.17236
           20705         3.15597
           20706         3.30756
           20707         3.40632
           20708         3.40578
           20709         3.50259
           20710         3.39792
           20711         3.39725
           20712         2.64230
           20713         2.55901
           20714         2.68453
           20715         3.79947
           20716         3.63104
           20717         3.67361
           20718         3.98168
           20719         4.10038
           20720         3.96628
           20721         3.97243
           20722         3.86131
           20723         3.54933
           20724         3.55787
           20725         3.72099
           20726         3.67806
           20727         3.90195
           20728         4.02494
           20729         4.15040
           20730         4.02457
           20731         4.08201
           20732         2.92891
           20733         3.32720
           20734         3.17718
           20735         3.07512
           20736         3.46457
           20737         4.19668
           20738         4.01171
           20739         4.75360
           20740         4.76351
           20741         3.68541
           20742         4.68847
           20743         3.60084
           20744         4.28738
           20745         4.14348
           20746         4.55066
           20747         4.32403
           20748         4.41765
           20749         4.56013
           20750         4.53259
           20751         4.73371
           20752         4.88930
           20753         3.26022
           20754         3.12473
           20755         3.16834
           20756         3.12000
           20757         3.43091
           20758         3.38062
           20759         3.60607
           20760         6.43858
           20761         6.59265
           20762         6.28916
           20763         6.44200
           20764         6.59310
           20765         6.20520
           20766         5.67906
           20767         5.98345
           20768         5.81556
           20769         6.01344
           20770         5.21218
           20771         5.21173
           20772         4.93414
           20773         6.45878
           20774         6.32151
           20775         6.27835
           20776         6.15065
           20777         6.19250
           20778         6.29465
           20779         6.29527
           20780         6.57846
           20781         6.44019
           20782         6.62414
           20783         6.73190
           20784         6.77891
           20785         6.59940
           20786         6.55429
           20787         6.87421
           20788         6.28712
           20789         6.74528
           20790         6.62295
           20791         6.21128
           20792         6.25349
           20793         6.34773
           20794         2.39752
           20795         2.44109
           20796         2.43950
           20797         2.55785
           20798         2.50657
           20799         2.50815
           20800         2.65465
           20801         2.65173
           20802         2.56694
           20803         2.52802
           20804         2.52933
           20805         2.61394
           20806         2.42026
           20807         2.48033
           20808         2.42146
           20809         2.31495
           20810         2.38980
           20811         2.35987
           20812         2.36040
           20813         2.28277
           20814         2.31493
           20815         2.47538
           20816         2.46298
           20817         2.42595
           20818         2.38038
           20819         2.35221
           20820         2.35146
           20821         2.39601
           20822         2.30682
           20823         2.25236
           20824         2.33360
           20825         2.33423
           20826         2.25303
           20827         2.94644
           20828         2.84034
           20829         2.99436
           20830         2.87753
           20831         2.83409
           20832         2.68164
           20833         2.77460
           20834         2.59790
           20835         2.48881
           20836         2.57638
           20837         2.46959
           20838         2.48059
           20839         2.72253
           20840         3.20373
           20841         3.04455
           20842         3.04967
           20843         3.20940
           20844         3.15798
           20845         3.15268
           20846         3.40278
           20847         3.35038
           20848         3.35295
           20849         3.46370
           20850         3.51520
           20851         3.51214
           20852         2.87918
           20853         3.03488
           20854         3.26188
           20855         3.26498
           20856         3.21309
           20857         5.73142
           20858         5.77356
           20859         5.74188
           20860         3.41205
           20861         4.46010
           20862         3.68476
           20863         3.56981
           20864         3.56539
           20865         4.12872
           20866         4.03268
           20867         4.23638
           20868         3.70965
           20869         3.81323
           20870         3.82999
           20871         3.72565
           20872         3.94059
           20873         4.23428
           20874         4.27702
           20875         4.09729
           20876         4.05702
           20877         4.14382
           20878         2.60995
           20879         2.65042
           20880         3.73481
           20881         3.14278
           20882         3.19631
           20883         3.04355
           20884         3.11470
           20885         4.88131
           20886         4.50969
           20887         4.63218
           20888         5.13834
           20889         4.95802
           20890         4.67334
           20891         4.70610
           20892         5.15806
           20893         4.88174
           20894         4.54979
           20895         3.32629
           20896         3.25374
           20897         3.47092
           20898         5.63000
           20899         5.73802
           20900         4.35667
           20901         3.82409
           20902         3.68162
           20903         6.23748
           20904         6.35146
           20905         6.20603
           20906         6.54971
           20907         6.39940
           20908         6.54583
           20909         6.20204
           20910         6.71937
           20911         6.97049
           20912         6.72051
           20913         6.68414
           20914         6.68200
           20915         5.96577
           20916         6.15213
           20917         6.43993
           20918         5.95996
           20919         7.33295
           20920         7.54296
           20921         7.17306
           20922         7.17425
           20923         7.54335
           20924         7.10745
           20925         7.10829
           20926         7.33197
           20927         6.83836
           20928         7.03226
           20929         6.83381
           20930         6.69812
           20931         2.44383
           20932         2.45149
           20933         2.47950
           20934         2.48677
           20935         2.59278
           20936         2.58781
           20937         2.46347
           20938         2.50930
           20939         2.73910
           20940         2.70990
           20941         2.73553
           20942         2.42486
           20943         2.33532
           20944         2.36427
           20945         2.33719
           20946         2.55173
           20947         2.28531
           20948         2.40522
           20949         2.36985
           20950         2.46029
           20951         3.70340
           20952         2.28711
           20953         2.26241
           20954         3.35671
           20955         3.24867
           20956         3.11133
           20957         3.09846
           20958         3.15430
           20959         2.48083
           20960         2.41814
           20961         3.16908
           20962         3.57394
           20963         3.74641
           20964         3.61019
           20965         3.55397
           20966         3.40023
           20967         3.51889
           20968         3.20625
           20969         3.40368
           20970         3.45350
           20971         3.26246
           20972         3.20531
           20973         3.61359
           20974         3.78210
           20975         3.27700
           20976         3.33256
           20977         3.14033
           20978         3.27848
           20979         2.97510
           20980         3.09819
           20981         2.97773
           20982         2.87787
           20983         2.88349
           20984         2.78379
           20985         2.97150
           20986         2.77805
           20987         3.14154
           20988         2.98454
           20989         2.87973
           20990         3.01400
           20991         3.12479
           20992         3.02238
           20993         2.87489
           20994         2.77756
           20995         3.26877
           20996         3.29012
           20997         2.75065
           20998         2.70286
           20999         3.34958
           21000         3.48697
           21001         3.40827
           21002         4.07662
           21003         5.72024
           21004         5.47207
           21005         3.47276
           21006         5.14346
           21007         5.20933
           21008         5.24342
           21009         3.96133
           21010         3.88271
           21011         3.84913
           21012         4.46799
           21013         4.50897
           21014         4.31597
           21015         4.37540
           21016         4.42804
           21017         4.37573
           21018         4.39749
           21019         4.94249
           21020         4.74292
           21021         4.88575
           21022         4.92704
           21023         4.78320
           21024         4.70085
           21025         5.04984
           21026         5.46448
           21027         5.07089
           21028         5.31928
           21029         4.95141
           21030         5.18829
           21031         5.14309
           21032         3.81897
           21033         3.71670
           21034         3.96809
           21035         3.96321
           21036         3.81586
           21037         3.91956
           21038         4.03068
           21039         4.99735
           21040         5.27251
           21041         5.34847
           21042         5.10870
           21043         5.80898
           21044         5.86246
           21045         5.86218
           21046         5.65106
           21047         5.59811
           21048         6.47066
           21049         6.13211
           21050         6.13585
           21051         6.04487
           21052         6.38548
           21053         3.20816
           21054         6.33540
           21055         6.00400
           21056         6.00452
           21057         6.13278
           21058         5.55083
           21059         5.47866
           21060         5.93565
           21061         5.97781
           21062         5.93088
           21063         5.47042
           21064         3.45765
           21065         3.49966
           21066         6.71288
           21067         6.84397
           21068         7.10412
           21069         7.16182
           21070         7.37498
           21071         7.30843
           21072         7.62388
           21073         7.19120
           21074         7.62009
           21075         8.03579
           21076         7.91238
           21077         8.33791
           21078         3.64172
           21079         3.61724
           21080         3.65883
           21081         3.39631
           21082         3.51039
           21083         3.31423
           21084         3.57190
           21085         3.03154
           21086         3.19968
           21087         3.50852
           21088         3.04884
           21089         2.90092
           21090         2.62097
           21091         2.89978
           21092         3.05133
           21093         2.89405
           21094         3.07406
           21095         3.28863
           21096         3.16972
           21097         2.72833
           21098         3.21891
           21099         2.69526
           21100         4.26796
           21101         2.78514
           21102         3.10893
           21103         3.23273
           21104         5.66853
           21105         4.15916
           21106         4.17422
           21107         4.39064
           21108         4.33706
           21109         4.15966
           21110         4.34702
           21111         4.13239
           21112         3.76822
           21113         3.65882
           21114         3.79752
           21115         3.86413
           21116         3.91556
           21117         4.15538
           21118         3.74920
           21119         3.57879
           21120         3.37499
           21121         3.46460
           21122         4.00361
           21123         3.57362
           21124         4.30101
           21125         4.07711
           21126         3.93995
           21127         2.65501
           21128         5.68846
           21129         5.86982
           21130         3.98693
           21131         5.72678
           21132         5.56836
           21133         5.02596
           21134         5.20967
           21135         5.29739
           21136         5.37465
           21137         3.92308
           21138         2.53243
           21139         3.99193
           21140         5.28908
           21141         5.06441
           21142         4.27562
           21143         4.33764
           21144         6.52036
           21145         6.18313
           21146         6.23068
           21147         6.26629
           21148         5.98596
           21149         6.30876
           21150         6.27465
           21151         6.37031
           21152         6.13739
           21153         6.04444
           21154         6.04398
           21155         3.59472
           21156         7.81204
           21157         2.47283
           21158         5.71637
           21159         7.07566
           21160         7.06228
           21161         5.98278
           21162         7.84814
           21163         8.17302
           21164         6.53346
           21165         6.95408
           21166         7.04445
           21167         3.58889
           21168         3.52716
           21169         7.09650
           21170         7.11731
           21171         7.07622
           21172         7.49311
           21173         5.85931
           21174         7.84465
           21175         8.75430
           21176         8.97886
           21177         4.79605
           21178         4.68684
           21179         4.54219
           21180         5.13760
           21181         5.04965
           21182         3.53393
           21183         3.47514
           21184         3.86601
           21185         3.87003
           21186         4.01687
           21187         3.83714
           21188         4.66622
           21189         4.89422
           21190         2.72015
           21191         3.31503
           21192         2.93148
           21193         2.73785
           21194         4.34099
           21195         3.04526
           21196         4.18259
           21197         3.98416
           21198         3.82310
           21199         2.63336
           21200         4.65031
           21201         4.81281
           21202         4.67445
           21203         4.69410
           21204         4.78955
           21205         4.91455
           21206         5.22835
           21207         5.11509
           21208         4.99606
           21209         5.01437
           21210         5.53737
           21211         6.26561
           21212         4.17779
           21213         4.70020
           21214         3.99223
           21215         6.00173
           21216         6.06415
           21217         6.26384
           21218         5.78830
           21219         5.59927
           21220         5.79433
           21221         5.81065
           21222         3.96901
           21223         5.43897
           21224         5.35583
           21225         6.18112
           21226         5.87199
           21227         5.77886
           21228         6.32480
           21229         6.68943
           21230         6.49402
           21231         3.82274
           21232         3.94451
           21233         5.52906
           21234         7.05509
           21235         7.07387
           21236         5.30184
           21237         5.47314
           21238         5.39829
           21239         5.44663
           21240         5.27611
           21241         7.83073
           21242         7.51536
           21243         7.92703
           21244         7.47966
           21245         7.39119
           21246         7.84550
           21247         7.40310
           21248         8.24685
           21249         8.71081
           21250         8.73570
           21251         7.81053
           21252         2.67557
           21253         2.67674
           21254         2.69931
           21255         2.70092
           21256         2.69619
           21257         2.66505
           21258         2.66224
           21259         2.63830
           21260         2.64490
           21261         2.64348
           21262         2.65367
           21263         2.64586
           21264         2.66036
           21265         2.65698
           21266         2.64481
           21267         2.64573
           21268         2.64442
           21269         2.67024
           21270         2.66279
           21271         2.66240
           21272         2.66599
           21273         2.63130
           21274         2.62185
           21275         2.63390
           21276         2.62946
           21277         2.63122
           21278         2.61888
           21279         2.63233
           21280         2.64325
           21281         2.64145
           21282         2.65547
           21283         2.64515
           21284         2.63094
           21285         2.62191
           21286         2.64454
           21287         2.64333
           21288         2.61124
           21289         2.61350
           21290         2.61015
           21291         2.61298
           21292         2.60961
           21293         2.61328
           21294         2.58105
           21295         2.60969
           21296         2.59636
           21297         2.60770
           21298         2.60647
           21299         2.61129
           21300         2.61212
           21301         2.61286
           21302         2.61195
           21303         2.61531
           21304         2.62091
           21305         2.58634
           21306         2.61075
           21307         2.61030
           21308         2.61759
           21309         2.61789
           21310         2.61737
           21311         2.61043
           21312         2.61078
           21313         2.61100
           21314         2.61281
           21315         2.61760
           21316         2.61630
           21317         2.61609
           21318         2.62381
           21319         2.33865
           21320         3.28588
           21321         5.73307
           21322         5.77149
           21323         2.33768
           21324         2.30157
           21325         4.89312
           21326         2.55387
           21327         2.61940
           21328         2.83116
           21329         2.78898
           21330         2.61028
           21331         2.61378
           21332         2.61206
           21333         2.61156
           21334         2.60828
           21335         2.59967
           21336         2.60495
           21337         2.61482
           21338         2.61128
           21339         2.69467
           21340         2.66860
           21341         2.75512
           21342         2.42053
           21343         2.39319
           21344         2.41789
           21345         2.48366
           21346         2.55450
           21347         2.55438
           21348         2.76915
           21349         2.48604
           21350         2.20066
           21351         2.19624
           21352         2.19610
           21353         2.23993
           21354         2.58550
           21355         4.20875
           21356         4.27913
           21357         4.30186
           21358         4.41674
           21359         2.59701
           21360         2.54592
           21361         2.61397
           21362         2.61149
           21363         2.61161
           21364         2.52471
           21365         2.50515
           21366         2.59155
           21367         2.61303
           21368         2.61987
           21369         2.64186
           21370         2.61070
           21371         2.60925
           21372         2.73991
           21373         2.73766
           21374         2.71467
           21375         2.74922
           21376         2.77808
           21377         2.66975
           21378         2.67103
           21379         2.54391
           21380         3.10712
           21381         2.97632
           21382         3.02751
           21383         2.80925
           21384         2.92093
           21385         2.69696
           21386         2.70365
           21387         3.74774
           21388         3.75919
           21389         3.65115
           21390         3.63677
           21391         3.77209
           21392         3.14437
           21393         3.14763
           21394         3.05819
           21395         3.16798
           21396         3.16435
           21397         3.25782
           21398         3.21864
           21399         3.10221
           21400         4.27752
           21401         3.10991
           21402         3.19986
           21403         3.16774
           21404         3.04079
           21405         3.08897
           21406         3.14476
           21407         4.02562
           21408         3.27588
           21409         3.54889
           21410         3.53419
           21411         3.43700
           21412         3.48331
           21413         3.48937
           21414         3.64461
           21415         5.66331
           21416         5.60996
           21417         3.35065
           21418         3.39130
           21419         3.34507
           21420         3.36644
           21421         3.35925
           21422         2.66680
           21423         3.12760
           21424         3.21803
           21425         3.13082
           21426         3.20640
           21427         3.18940
           21428         3.09420
           21429         3.24367
           21430         3.38055
           21431         3.33503
           21432         3.27421
           21433         3.28517
           21434         3.43030
           21435         3.14221
           21436         3.15240
           21437         3.18261
           21438         3.21569
           21439         2.62809
           21440         3.04032
           21441         3.13463
           21442         3.03304
           21443         3.04401
           21444         3.09856
           21445         2.80705
           21446         2.86371
           21447         2.83985
           21448         2.81409
           21449         2.78493
           21450         2.78431
           21451         2.83965
           21452         2.97865
           21453         3.00842
           21454         2.91711
           21455         2.89873
           21456         5.52235
           21457         2.95045
           21458         2.96273
           21459         2.76483
           21460         2.75176
           21461         2.78536
           21462         2.85838
           21463         2.61222
           21464         2.68857
           21465         2.72124
           21466         2.68724
           21467         3.17444
           21468         2.72640
           21469         2.94330
           21470         2.92478
           21471         2.95117
           21472         1.89854
           21473         2.66979
           21474         2.26714
           21475         2.30210
           21476         2.22496
           21477         2.31455
           21478         2.27922
           21479         1.91116
           21480         2.91781
           21481         2.50866
           21482         2.50450
           21483         2.33108
           21484         2.33586
           21485         2.62850
           21486         2.42885
           21487         2.73845
           21488         2.71229
           21489         4.48278
           21490         2.13293
           21491         2.11076
           21492         2.07283
           21493         1.57471
           21494         2.11492
           21495         2.06576
           21496         1.84025
           21497         2.14362
           21498         2.06889
           21499         6.57809
           21500         6.45254
           21501         6.52165
           21502         6.46649
           21503         6.41181
           21504         1.24317
           21505         2.31599
           21506         2.30663
           21507         2.14019
           21508         2.16639
           21509         2.11524
           21510         2.10753
           21511         2.13161
           21512         2.14859
           21513         2.19736
           21514         2.18869
           21515         2.05485
           21516         1.43266
           21517         5.09390
           21518         1.65896
           21519         1.73132
           21520         2.32368
           21521         2.56251
           21522         2.50484
           21523         1.36654
           21524         2.49689
           21525         2.51852
           21526         2.43165
           21527         2.40363
           21528         2.40585
           21529         2.49561
           21530         2.51236
           21531         2.38366
           21532         2.38652
           21533         2.35284
           21534         2.36162
           21535         2.27855
           21536         1.85129
           21537         2.24453
           21538         3.22639
           21539         3.38272
           21540         3.13746
           21541         2.81858
           21542         2.83760
           21543         2.79363
           21544         2.43896
           21545         2.39433
           21546         2.45513
           21547         2.46692
           21548         2.47414
           21549         2.48288
           21550         2.37638
           21551         2.01258
           21552         2.07167
           21553         2.25489
           21554         1.09010
           21555         1.20475
           21556         3.24408
           21557         3.13383
           21558         3.46978
           21559         1.29977
           21560         2.59801
           21561         2.67779
           21562         2.65333
           21563         1.64772
           21564         2.67718
           21565         2.65890
           21566         2.69720
           21567         2.76124
           21568         2.82059
           21569         3.12388
           21570         3.15974
           21571         3.20991
           21572         3.37471
           21573         3.33015
           21574         3.27133
           21575         3.10972
           21576         3.12730
           21577         3.22613
           21578         3.25723
           21579         3.15030
           21580         3.29418
           21581         3.01161
           21582         3.06876
           21583         3.02192
           21584         2.77958
           21585         2.95591
           21586         3.04337
           21587         3.03513
           21588         3.00269
           21589         2.98017
           21590         3.43535
           21591         3.54919
           21592         3.41985
           21593         3.59202
           21594         3.60929
           21595         3.58346
           21596         3.37970
           21597         3.37153
           21598         3.37887
           21599         3.59221
           21600         3.24988
           21601         3.34190
           21602         3.22334
           21603         3.23208
           21604         3.19207
           21605         3.06779
           21606         3.23431
           21607         3.10090
           21608         3.21938
           21609         3.23177
           21610         3.23920
           21611         3.61755
           21612         3.59828
           21613         3.35256
           21614         3.62948
           21615         3.88424
           21616         3.78187
           21617         3.56088
           21618         3.82472
           21619         2.77763
           21620         2.82353
           21621         2.73283
           21622         3.23847
           21623         3.10426
           21624         3.01716
           21625         2.75376
           21626         2.79764
           21627         2.79643
           21628         2.97617
           21629         5.81789
           21630         5.90609
           21631         2.63128
           21632         2.25940
           21633         2.69475
           21634         2.70631
           21635         2.67192
           21636         2.68113
           21637         2.58567
           21638         2.65569
           21639         2.64394
           21640         2.72853
           21641         2.72775
           21642         2.74614
           21643         2.72611
           21644         2.78775
           21645         1.94395
           21646         2.63202
           21647         2.66798
           21648         2.59800
           21649         2.72618
           21650         2.72678
           21651         2.72185
           21652         2.72565
           21653         2.63987
           21654         2.65975
           21655         2.65864
           21656         2.66010
           21657         2.66011
           21658         2.65951
           21659         2.65988
           21660         2.66047
           21661         2.65889
           21662         2.61958
           21663         2.65919
           21664         2.74786
           21665         2.74800
           21666         2.72459
           21667         2.64678
           21668         2.65094
           21669         2.65428
           21670         2.65305
           21671         2.65834
           21672         2.65838
           21673         2.65093
           21674         2.65939
           21675         2.65737
           21676         2.65195
           21677         2.65068
           21678         2.65704
           21679         2.65920
           21680         2.65410
           21681         2.65883
           21682         2.65960
           21683         2.66285
           21684         2.67082
           21685         2.63412
           21686         2.65899
           21687         2.64396
           21688         2.66101
           21689         2.66017
           21690         2.65885
           21691         2.65055
           21692         5.38078
           21693         2.64452
           21694         2.64736
           21695         2.63940
           21696         2.64864
           21697         2.69075
           21698         2.63927
           21699         2.63739
           21700         2.64483
           21701         2.67821
           21702         2.67427
           21703         2.67121
           21704         2.67498
           21705         2.67510
           21706         2.67187
           21707         2.69022
           21708         2.30440
           21709         2.66328
           21710         2.63285
           21711         2.67059
           21712         2.65362
           21713         2.54882
           21714         2.67877
           21715         2.61556
           21716         2.67421
           21717         2.68611
           21718         2.61874
           21719         2.57235
           21720         2.66371
           21721         2.67036
           21722         2.66893
           21723         2.66866
           21724         2.66907
           21725         4.05820
           21726         2.65594
           21727         2.63663
           21728         2.64527
           21729         2.64902
           21730         2.64700
           21731         2.64691
           21732         2.65499
           21733         2.65584
           21734         2.71372
           21735         2.68259
           21736         2.67874
           21737         2.67986
           21738         2.68402
           21739         2.66782
           21740         2.73971
           21741         2.72119
           21742         2.77049
           21743         5.33177
           21744         5.44661
           21745         5.34458
           21746         2.74418
           21747         2.77093
           21748         2.67948
           21749         2.68597
           21750         2.68125
           21751         2.67006
           21752         2.67031
           21753         2.62921
           21754         2.63212
           21755         2.69634
           21756         2.37198
           21757         2.37281
           21758         2.31288
           21759         2.68016
           21760         2.65635
           21761         2.66185
           21762         19.6891
           21763         11.3416
           21764         17.7771
           21765         12.2782
           21766         21.7617
           21767         13.3963
           21768         2.85800
           21769         2.70330
           21770         2.70071
           21771         2.70507
           21772         2.70392
           21773         2.71453
           21774         2.61103
           21775         5.92354
           21776         1.03191
           21777     998.630E-03
           21778         1.11949
           21779         4.61646
           21780         5.15965
           21781         2.60665
           21782         2.60758
           21783         2.67142
           21784         2.67128
           21785         2.64820
           21786         2.64813
           21787         2.65183
           21788         8.39421
           21789         1.57480
           21790         1.43939
           21791         1.30329
           21792         1.44191
           21793         1.61691
           21794         2.58445
           21795         2.61695
           21796         2.56375
           21797         2.81073
           21798         2.78584
           21799         2.61163
           21800         2.57495
           21801         2.61053
           21802         4.69790
           21803         4.63708
           21804         2.53149
           21805         2.56621
           21806         2.53446
           21807         2.50636
           21808         2.53748
           21809         2.55146
           21810         2.50843
           21811         2.53348
           21812         2.49403
           21813         2.60700
           21814         2.61428
           21815         4.12024
           21816     901.519E-03
           21817     717.116E-03
           21818     706.692E-03
           21819     528.055E-03
           21820     748.739E-03
           21821     763.186E-03
           21822     972.337E-03
           21823         2.29627
           21824         2.32878
           21825         2.58664
           21826         2.70148
           21827         2.55371
           21828         3.06302
           21829         2.67495
           21830         3.49518
           21831         2.46196
           21832         2.39508
           21833         2.28808
           21834         2.01458
           21835         2.01022
           21836         1.83814
           21837         2.14457
           21838         2.14652
           21839         2.31394
           21840         2.89223
           21841         1.44378
           21842     978.354E-03
           21843         1.28453
           21844         1.51283
           21845         3.44696
           21846         2.63973
           21847         2.44165
           21848         2.61266
           21849         1.79119
           21850         1.60864
           21851         1.62984
           21852         1.85429
           21853         2.07478
           21854         2.04309
           21855         2.55342
           21856         2.48099
           21857         5.24976
           21858         6.55854
           21859         6.66456
           21860         6.39386
           21861         6.66439
           21862         6.83218
           21863         2.41870
           21864         2.45200
           21865         2.45872
           21866         3.92221
           21867         3.93464
           21868         4.93030
           21869         4.55490
           21870         5.29647
           21871         5.29977
           21872         5.74590
           21873         4.94334
           21874         2.58517
           21875         2.58309
           21876         2.57086
           21877         4.58440
           21878         2.45284
           21879         2.32592
           21880         2.35757
           21881         3.31885
           21882     26.5459E-03
           21883     51.5745E-03
           21884     23.4702E-03
           21885     52.0377E-03
           21886         2.42256
           21887         3.62230
           21888         3.54486
           21889         5.85754
           21890         5.59999
           21891         3.20212
           21892         3.08831
           21893         2.25417
           21894         2.25401
           21895         2.35962
           21896         9.49230
           21897         9.15784
           21898         1.89111
           21899         2.24984
           21900         2.42293
           21901         2.93657
           21902         2.92449
           21903         2.31263
           21904         2.21343
           21905         2.33876
           21906         2.46834
           21907         2.46777
           21908         2.51107
           21909         1.93297
           21910         1.90109
           21911         1.90126
           21912         2.17243
           21913         1.93373
           21914         13.8622
           21915         14.4792
           21916         13.0703
           21917         12.8205
           21918         14.4893
           21919         2.60024
           21920         2.46529
           21921         3.31468
           21922         2.24236
           21923         2.26268
           21924         2.25895
           21925         2.33022
           21926         2.30784
           21927         2.21679
           21928         2.24554
           21929         2.17546
           21930         2.21362
           21931         2.18111
           21932         2.17389
           21933         2.21199
           21934         2.33379
           21935         2.14531
           21936         2.28279
           21937         2.22240
           21938         2.18521
           21939         2.21757
           21940     66.3541E-03
           21941     50.5945E-03
           21942     91.4853E-03
           21943     52.0362E-03
           21944     67.4750E-03
           21945         2.69757
           21946         2.70456
           21947         2.72059
           21948         2.72037
           21949         1.99263
           21950         2.00927
           21951         2.49748
           21952         10.1893
           21953         2.84470
           21954         5.17628
           21955         7.15770
           21956         7.35203
           21957         6.98221
           21958         7.35163
           21959         7.53209
           21960         9.26612
           21961         9.71887
           21962         3.67693
           21963         3.38005
           21964         3.29127
           21965         3.08591
           21966         2.87152
           21967         2.86103
           21968         2.79941
           21969         2.97643
           21970         2.18039
           21971         2.22545
           21972         2.33826
           21973         2.08212
           21974         2.17267
           21975         2.15809
           21976         2.17250
           21977         2.24974
           21978         5.99312
           21979         5.10778
           21980         5.23968
           21981         4.57457
           21982         5.12531
           21983         2.26562
           21984         2.00529
           21985         2.09716
           21986         2.66992
           21987         1.48622
           21988         1.52282
           21989         1.56808
           21990         1.63638
           21991         1.62106
           21992         5.65625
           21993         5.68853
           21994         5.66902
           21995         4.92224
           21996         4.26934
           21997         4.94740
           21998         2.25911
           21999         2.25105
           22000     165.889E-03
           22001         5.20635
           22002         2.98387
           22003         2.88145
           22004         4.28363
           22005         4.84464
           22006         4.88702
           22007         4.93032
           22008         4.74048
           22009         4.20178
           22010         4.14147
           22011     487.983E-03
           22012     437.239E-03
           22013         2.73939
           22014         5.67547
           22015         2.19984
           22016         2.25494
           22017         8.69428
           22018         8.71527
           22019         4.17457
           22020         2.26832
           22021         5.37781
           22022         1.70942
           22023         1.93587
           22024         1.66225
           22025         2.53519
           22026         2.69087
           22027         2.39398
           22028         2.23675
           22029         2.53249
           22030         3.74538
           22031         4.99654
           22032         5.12715
           22033         2.92926
           22034         2.25683
           22035         17.6509
           22036         24.4107
           22037         18.3802
           22038         22.5204
           22039         16.3520
           22040         21.5508
           22041         6.15048
           22042         6.44116
           22043         5.95590
           22044         5.06364
           22045         4.58367
           22046         5.09998
           22047         3.60503
           22048         3.80548
           22049         4.34283
           22050         4.15855
           22051         4.39705
           22052         2.66013
           22053         3.59423
           22054         3.49985
           22055         2.02539
           22056         2.81280
           22057         4.51095
           22058         2.38591
           22059         3.39778
           22060         4.25058
           22061         2.79658
           22062         2.13678
           22063         2.10834
           22064         1.44508
           22065         1.84747
           22066         1.38816
           22067         1.36513
           22068     983.828E-03
           22069         1.36394
           22070         2.66201
           22071         4.46500
           22072         3.51780
           22073     966.875E-03
           22074     829.022E-03
           22075     825.670E-03
           22076         2.92259
           22077         3.10947
           22078         1.59738
           22079         2.76365
           22080         5.26680
           22081         4.82514
           22082         5.32113
           22083         4.95963
           22084         5.03938
           22085         5.42479
           22086         5.13954
           22087         4.86952
           22088         4.77011
           22089         4.94754
           22090         5.06494
           22091         5.05193
           22092         4.91853
           22093         5.00470
           22094         5.38663
           22095         5.11829
           22096         9.85451
           22097         10.0277
           22098         8.43855
           22099         7.92560
           22100         7.79217
           22101         9.21736
           22102         4.79585
           22103         4.69238
           22104         5.87357
           22105         6.10532
           22106         5.81134
           22107         4.68952
           22108         4.75312
           22109         4.89830
           22110         5.56204
           22111         5.98127
           22112         5.21830
           22113         5.90115
           22114         5.45216
           22115         6.22793
           22116         5.15149
           22117         5.34037
           22118         6.53673
           22119         6.30254
           22120         6.33517
           22121         6.81132
           22122         7.08255
           22123         4.62543
           22124         6.35197
           22125         6.23741
           22126         4.91519
           22127         5.01640
           22128         5.03759
           22129         5.90725
           22130         6.24974
           22131         5.82236
           22132         5.60857
           22133         5.79505
           22134         5.79285
           22135         3.76270
           22136         3.92509
           22137         4.90523
           22138         4.72056
           22139         2.79015
           22140         2.98013
           22141         3.43022
           22142         3.32324
           22143         3.43029
           22144         3.39128
           22145         3.28513
           22146         5.18748
           22147     643.233E-03
           22148         5.28677
           22149         5.33362
           22150         5.36945
           22151         5.38089
           22152         5.36303
           22153         5.70639
           22154         5.69388
           22155         5.72827
           22156         5.60896
           22157         3.53562
           22158         3.75050
           22159         3.47647
           22160         3.29825
           22161         3.68767
           22162         6.82891
           22163         1.27940
           22164         1.36508
           22165         1.32188
           22166         1.27855
           22167         1.04966
           22168         1.29006
           22169     573.535E-03
           22170     945.805E-03
           22171     518.795E-03
           22172         1.17049
           22173     865.689E-03
           22174         1.54245
           22175         6.31209
           22176         3.94612
           22177         2.68351
           22178         6.71706
           22179         7.06825
           22180         1.43416
           22181     788.972E-03
           22182         1.12912
           22183     761.130E-03
           22184         1.24253
           22185     789.263E-03
           22186     872.676E-03
           22187         1.05846
           22188         1.04603
           22189         1.27062
           22190         1.06988
           22191         1.07900
           22192         7.05614
           22193         7.18393
           22194         7.14886
           22195         6.07130
           22196         7.15675
           22197         7.13936
           22198         7.28071
           22199         7.39605
           22200         4.69754
           22201         8.72172
           22202         9.20683
           22203         6.44052
           22204         5.83289
           22205         6.66421
           22206         7.06599
           22207         6.55552
           22208         7.00849
           22209         6.60132
           22210         7.08459
           22211         1.22241
           22212         1.22155
           22213         5.90940
           22214         6.20862
           22215         6.17788
           22216         4.05899
           22217         6.85778
           22218         6.69478
           22219         6.88283
           22220         6.99457
           22221         7.15176
           22222         7.40352
           22223         6.88476
           22224         7.59826
           22225         5.10129
           22226         5.76401
           22227         5.97722
           22228         5.99137
           22229         5.52517
           22230         5.53824
           22231         5.09209
           22232         5.42206
           22233         7.77791
           22234         2.52781
           22235         2.39580
           22236         2.68724
           22237         2.66285
           22238         2.50159
           22239         4.76588
           22240         2.72583
           22241         2.65733
           22242         2.94590
           22243         2.68071
           22244         2.74691
           22245         2.45604
           22246         5.86649
           22247         2.14086
           22248         5.93446
           22249         5.66565
           22250         5.68691
           22251         6.01482
           22252         6.12012
           22253         6.36229
           22254         6.25414
           22255         6.07894
           22256         6.12923
           22257         6.83374
           22258         6.58362
           22259         6.80105
           22260         5.68583
           22261         5.76509
           22262         5.68058
           22263         5.72686
           22264         5.72567
           22265         5.65864
           22266         5.83653
           22267         5.67548
           22268         5.78134
           22269         5.71757
           22270         5.80380
           22271         6.59386
           22272         4.72053
           22273         6.51221
           22274         5.82813
           22275         6.59552
           22276         6.89654
           22277     100.176E-03
           22278     96.2118E-03
           22279         5.85834
           22280         1.57863
           22281         6.59018
           22282         5.43431
           22283         5.72213
           22284         2.35277
           22285         7.05066
           22286     26.4931E-03
           22287     35.5745E-03
           22288     32.8222E-03
           22289     102.700E-03
           22290     39.4881E-03
           22291     40.4834E-03
           22292         7.02816
           22293         5.76672
           22294         6.61866
           22295         6.72333
           22296         4.41077
           22297         5.68234
           22298         5.69495
           22299         2.56845
           22300         5.55316
           22301         5.61549
           22302         5.61545
           22303         5.58848
           22304         4.84378
           22305         6.01280
           22306         5.80111
           22307         6.37342
           22308         6.44488
           22309         5.87953
           22310         4.49020
           22311         4.30990
           22312         4.42384
           22313         6.19129
           22314         6.25247
           22315         1.37233
           22316         1.37056
           22317         1.61405
           22318         1.63552
           22319         1.37701
           22320         5.72782
           22321         5.79351
           22322         6.01994
           22323         6.50030
           22324         6.47312
           22325         6.98073
           22326         6.96902
           22327         6.78198
           22328         6.72812
           22329         5.42657
           22330         4.78457
           22331         2.66029
           22332         6.24126
           22333         1.90557
           22334         6.72605
           22335     13.8709E-03
           22336         2.35250
           22337         2.38361
           22338         2.22005
           22339         2.71194
           22340         2.19045
           22341         7.72844
           22342         2.78544
           22343         2.78518
           22344         2.67657
           22345         2.65735
           22346         2.76480
           22347         7.44327
           22348         2.17104
           22349         2.17422
           22350         2.38297
           22351         8.17627
           22352         8.18988
           22353         8.67682
           22354         6.88600
           22355         6.01189
           22356         6.08286
           22357         2.34344
           22358         3.87177
           22359         6.49749
           22360         4.19666
           22361         2.78321
           22362         10.0036
           22363         14.5862
           22364         9.83751
           22365         10.2121
           22366         7.46417
           22367         10.4948
           22368         5.92064
           22369         6.19629
           22370         4.78692
           22371         4.76194
           22372         5.44974
           22373         5.11577
           22374         5.04681
           22375         2.26884
           22376         2.23418
           22377         2.66561
           22378         2.10435
           22379         2.67300
           22380         6.42915
           22381         7.61392
           22382         7.14020
           22383         7.10598
           22384         7.57181
           22385         6.69331
           22386         6.70211
           22387         6.58605
           22388         5.17577
           22389         2.62919
           22390         2.63732
           22391         5.92532
           22392         5.33018
           22393         6.69838
           22394         7.05016
           22395         7.90300
           22396         6.37772
           22397         5.93898
           22398         5.44041
           22399         7.68094
           22400         5.53850
           22401         5.35602
           22402         7.48029
           22403         7.85958
           22404         7.29503
           22405         7.58169
           22406         4.92216
           22407         4.93451
           22408         3.18258
           22409         3.21616
           22410         3.07643
           22411         3.10887
           22412         3.07640
           22413         3.21605
           22414     857.706E-03
           22415         6.74400
           22416         6.69750
           22417         6.60912
           22418         6.76885
           22419         6.20559
           22420         6.10551
           22421         7.11719
           22422         5.61741
           22423         5.49924
           22424         4.38889
           22425         5.67526
           22426         5.31557
           22427         5.63729
           22428         5.65260
           22429         5.64128
           22430         5.64648
           22431         5.48319
           22432         5.25093
           22433     387.343E-03
           22434     463.786E-03
           22435     366.209E-03
           22436     259.074E-03
           22437     185.901E-03
           22438     280.679E-03
           22439         2.33297
           22440         2.21995
           22441         1.87247
           22442         1.90977
           22443         2.02170
           22444         4.24479
           22445         3.84819
           22446         1.06670
           22447     681.662E-03
           22448     826.720E-03
           22449         8.54258
           22450         8.11316
           22451         6.03626
           22452         6.20960
           22453         4.73741
           22454         5.74068
           22455         5.80216
           22456         5.66921
           22457         5.68207
           22458         5.66802
           22459         6.93687
           22460         5.93522
           22461         5.36381
           22462         4.71414
           22463         10.8638
           22464         11.5110
           22465         11.9938
           22466         12.6388
           22467         11.8477
           22468         11.3940
           22469         6.54674
           22470         5.79042
           22471         3.30413
           22472         8.62737
           22473         8.18329
           22474         8.62820
           22475         1.80243
           22476         1.80408
           22477         1.95897
           22478         1.96068
           22479         2.07180
           22480         6.43003
           22481         8.54386
           22482         8.52433
           22483         6.42533
           22484         7.22229
           22485         9.62001
           22486         4.64961
           22487         5.83709
           22488         4.64277
           22489         1.44076
           22490         1.59860
           22491     517.152E-03
           22492     401.539E-03
           22493     395.538E-03
           22494     424.377E-03
           22495     398.672E-03
           22496         5.79856
           22497         1.81373
           22498         1.00802
           22499         1.14591
           22500         5.67496
           22501         5.95707
           22502         8.88047
           22503         8.88146
           22504         7.60974
           22505         7.83736
           22506         8.15005
           22507         8.15570
           22508         6.65271
           22509         5.65457
           22510         5.59222
           22511     69.0430E-03
           22512     48.2462E-03
           22513     70.5635E-03
           22514         5.82635
           22515         5.47224
           22516         5.30266
           22517         2.32806
           22518         2.71211
           22519         2.71127
           22520         2.35273
           22521         10.6277
           22522         8.07866
           22523         13.9055
           22524         13.5923
           22525         18.7281
           22526         10.0043
           22527         5.61412
           22528         5.77643
           22529         5.65633
           22530         5.91886
           22531         5.66211
           22532         5.59379
           22533         5.48886
           22534         11.7217
           22535         10.0657
           22536         9.92914
           22537         9.75572
           22538         11.0250
           22539         11.3653
           22540         6.20761
           22541         6.19883
           22542         6.34409
           22543         2.51957
           22544         2.13521
           22545         6.34636
           22546         6.79154
           22547         6.47894
           22548         6.03521
           22549         6.48180
           22550         2.65806
           22551         2.65234
           22552         2.65337
           22553         6.03149
           22554         6.15799
           22555         5.75284
           22556         5.74781
           22557         5.75000
           22558         6.64183
           22559         10.3101
           22560         11.2355
           22561         11.5577
           22562         12.0730
           22563         10.9182
           22564         10.8659
           22565         7.29084
           22566         8.21472
           22567         8.81109
           22568         8.98740
           22569         8.81099
           22570         6.93716
           22571         6.82912
           22572         6.80471
           22573         7.10511
           22574         3.11686
           22575         3.23225
           22576         3.12882
           22577         7.06208
           22578         7.35925
           22579         7.74141
           22580         8.52006
           22581         6.04450
           22582         6.23234
           22583         6.13784
           22584         7.80688
           22585         2.89349
           22586         7.11413
           22587         5.92825
           22588         5.96084
           22589         2.62269
           22590         2.63102
           22591         2.63124
           22592         2.12467
           22593         2.01328
           22594         7.44216
           22595         5.73929
           22596         5.65742
           22597         5.98172
           22598         6.01375
           22599         5.95693
           22600         5.77950
           22601         5.81360
           22602         5.20629
           22603         5.80096
           22604         6.11894
           22605         1.99595
           22606         6.03450
           22607         6.09145
           22608         6.40239
           22609         6.29548
           22610         4.50657
           22611         4.67972
           22612         5.64408
           22613         8.55161
           22614         6.08488
           22615         6.46481
           22616         6.36515
           22617         6.18930
           22618         11.6055
           22619         9.28849
           22620         11.8900
           22621         5.84152
           22622         5.84796
           22623         5.71505
           22624         5.78634
           22625         5.49276
           22626         5.40226
           22627         5.41874
           22628         5.72235
           22629         5.07851
           22630         4.81904
           22631         5.69506
           22632         5.75592
           22633         5.75536
           22634         5.75294
           22635         5.69923
           22636         2.77533
           22637         3.42416
           22638         5.69046
           22639         5.59312
           22640         5.59492
           22641         5.59095
           22642         5.61559
           22643         5.49842
           22644         6.33892
           22645         6.45519
           22646         7.08206
           22647         6.59223
           22648         7.08723
           22649         4.23353
           22650         4.06688
           22651         2.70686
           22652         2.70460
           22653         2.81258
           22654         2.87868
           22655         2.82875
           22656         5.73546
           22657         2.33451
           22658         3.80981
           22659         2.62646
           22660         6.25508
           22661         2.02202
           22662         5.91667
           22663         7.09687
           22664         6.90131
           22665         7.38167
           22666         2.30051
           22667         2.34729
           22668         5.23374
           22669         5.11037
           22670         5.23551
           22671         2.74599
           22672         3.99107
           22673         10.7608
           22674         10.1968
           22675         9.20373
           22676         9.69767
           22677         10.2942
           22678         11.1690
           22679         7.13811
           22680         7.66558
           22681         7.52448
           22682         8.51038
           22683         7.40668
           22684         7.49183
           22685         6.67287
           22686         6.60927
           22687         7.09436
           22688         3.72151
           22689         4.85840
           22690         2.68678
           22691         2.70376
           22692         4.24861
           22693         4.24871
           22694         4.42181
           22695         4.42954
           22696         2.65506
           22697         2.64269
           22698         1.81299
           22699         2.33120
           22700     739.543E-03
           22701     44.6373E-03
           22702         4.06983
           22703         1.16039
           22704         1.17070
           22705         1.42970
           22706         1.53419
           22707         1.52718
           22708         4.33326
           22709         4.82628
           22710         4.84504
           22711         4.61906
           22712     489.385E-03
           22713     554.406E-03
           22714         5.11544
           22715         5.11484
           22716         4.84467
           22717         4.20147
           22718         2.06950
           22719         1.93763
           22720         2.07657
           22721         1.80861
           22722         1.96102
           22723         2.39511
           22724         2.25528
           22725         3.20891
           22726         3.01421
           22727         3.29411
           22728         3.49326
           22729         2.96330
           22730         1.75368
           22731         1.81435
           22732         2.65656
           22733         2.58868
           22734         2.18706
           22735         2.60544
           22736         2.18717
           22737         2.22723
           22738         2.73483
           22739         2.38861
           22740         2.66619
           22741         1.65527
           22742         1.86737
           22743         1.64257
           22744         1.89195
           22745         1.69166
           22746         1.90518
           22747         1.34658
           22748         1.09165
           22749         1.18419
           22750     939.955E-03
           22751         1.19006
           22752         1.09936
           22753         1.36058
           22754         1.11448
           22755         1.10492
           22756         2.25435
           22757         2.79767
           22758         2.82679
           22759         2.56235
           22760         2.62139
           22761         2.53245
           22762         5.03545
           22763         2.54919
           22764         2.46767
           22765         2.40961
           22766         2.61140
           22767         3.25752
           22768         2.67410
           22769         2.86092
           22770         2.78729
           22771         2.70425
           22772         1.56494
           22773         1.52862
           22774         1.30640
           22775         1.22072
           22776         2.74167
           22777         1.55534
           22778         4.16798
           22779         2.71152
           22780         2.78683
           22781         2.71866
           22782         2.85064
           22783         2.92263
           22784         3.01403
           22785         1.44589
           22786         1.36630
           22787         1.60579
           22788         1.69339
           22789         2.20268
           22790         2.18172
           22791         2.16521
           22792         4.73901
           22793         2.50202
           22794         2.68179
           22795         2.41310
           22796         1.60124
           22797         1.69116
           22798         2.14568
           22799         1.88612
           22800         2.17419
           22801         1.95271
           22802         1.49887
           22803         2.25619
           22804         2.46246
           22805         2.17049
           22806         1.20966
           22807         1.42000
           22808         1.49605
           22809         1.29629
           22810         1.60117
           22811     963.551E-03
           22812     915.487E-03
           22813     705.928E-03
           22814     640.234E-03
           22815     685.845E-03
           22816     894.262E-03
           22817         1.16706
           22818         1.07412
           22819     663.308E-03
           22820     582.897E-03
           22821     912.511E-03
           22822     574.009E-03
           22823     503.469E-03
           22824     525.343E-03
           22825         12.7662
           22826         11.0283
           22827         13.5798
           22828         9.85553
           22829         12.0246
           22830         9.29499
           22831     565.211E-03
           22832     389.221E-03
           22833     490.714E-03
           22834     659.718E-03
           22835     480.697E-03
           22836     895.015E-03
           22837         1.17893
           22838         1.02091
           22839         1.24398
           22840         1.11458
           22841     304.372E-03
           22842     437.922E-03
           22843     302.361E-03
           22844         5.82587
           22845         2.64115
           22846         2.59371
           22847         5.71957
           22848         2.92232
           22849         2.91256
           22850         4.08889
           22851         5.66505
           22852         5.55468
           22853         5.57779
           22854         5.73378
           22855         5.85908
           22856         7.15341
           22857         6.80674
           22858         7.32193
           22859         7.10586
           22860         5.66893
           22861         5.54671
           22862         3.11399
           22863         2.97579
           22864         3.10728
           22865         2.33547
           22866         2.28189
           22867         1.97685
           22868         1.65461
           22869         1.73239
           22870         1.95082
           22871         2.81299
           22872         2.54924
           22873         2.96662
           22874         3.20840
           22875         3.19057
           22876         3.17123
           22877         3.40500
           22878         3.42411
           22879         3.42701
           22880         2.52571
           22881         2.00740
           22882         2.22316
           22883         1.50147
           22884         1.97488
           22885         1.90371
           22886         2.67673
           22887         1.50159
           22888         1.46446
           22889         1.83228
           22890         2.60878
           22891         3.39910
           22892         3.36695
           22893         6.01011
           22894         1.47091
           22895         1.33867
           22896         1.40385
           22897         2.03613
           22898         1.80130
           22899         2.08081
           22900     810.251E-03
           22901         1.02325
           22902         1.08538
           22903         5.14674
           22904         8.73910
           22905         7.71433
           22906         7.73046
           22907         1.05736
           22908         1.18703
           22909     904.637E-03
           22910     561.006E-03
           22911     643.697E-03
           22912     800.851E-03
           22913     814.401E-03
           22914     765.659E-03
           22915         1.21945
           22916         1.20971
           22917     972.202E-03
           22918     980.159E-03
           22919         5.62716
           22920         5.58078
           22921         1.69746
           22922         6.23809
           22923         6.18571
           22924         1.01103
           22925         1.18193
           22926         6.41192
           22927         6.39152
           22928         11.3170
           22929         9.92952
           22930         11.4991
           22931         13.8545
           22932         11.3402
           22933         1.53313
           22934         5.48959
           22935         2.38806
           22936         2.76499
           22937         2.73510
           22938     828.121E-03
           22939         1.11937
           22940         1.00552
           22941         1.00211
           22942         5.45811
           22943         5.14596
           22944     817.194E-03
           22945         1.35212
           22946         1.64559
           22947         7.49516
           22948         3.57140
           22949         5.70669
           22950         5.45163
           22951         5.64469
           22952         5.70031
           22953         9.78279
           22954         10.9175
           22955         10.8971
           22956         10.7970
           22957         9.64927
           22958         9.65821
           22959         1.00342
           22960     756.857E-03
           22961     828.180E-03
           22962         9.23164
           22963         9.77447
           22964         8.70390
           22965         8.74910
           22966         8.21694
           22967         9.23533
           22968     792.411E-03
           22969     770.622E-03
           22970     496.538E-03
           22971     653.131E-03
           22972     518.494E-03
           22973     407.888E-03
           22974     650.891E-03
           22975     518.214E-03
           22976     32.4666E-03
           22977     36.7007E-03
           22978     101.083E-03
           22979     106.484E-03
           22980     108.884E-03
           22981     31.8931E-03
           22982         5.99038
           22983         6.14808
           22984         5.59085
           22985     103.085E-03
           22986     89.7750E-03
           22987     125.774E-03
           22988     174.744E-03
           22989     193.030E-03
           22990     154.433E-03
           22991         6.19392
           22992         6.33844
           22993     18.2814E-03
           22994     26.4714E-03
           22995     18.2725E-03
           22996     46.8669E-03
           22997     83.6684E-03
           22998     45.0502E-03
           22999     344.899E-03
           23000     289.369E-03
           23001     293.526E-03
           23002     352.240E-03
           23003     456.529E-03
           23004     55.5505E-03
           23005     117.639E-03
           23006     109.288E-03
           23007     220.200E-03
           23008     147.330E-03
           23009         15.5405
           23010         12.2979
           23011         15.6896
           23012         2.66567
           23013         2.65119
           23014         4.12043
           23015         3.90135
           23016         3.72972
           23017         3.89456
           23018         4.12229
           23019         4.29947
           23020         1.52053
           23021         1.34579
           23022         1.68192
           23023         1.62369
           23024         1.90887
           23025         1.66323
           23026         2.02362
           23027         4.07518
           23028         1.36763
           23029     197.544E-03
           23030     99.5049E-03
           23031     55.4655E-03
           23032         4.50763
           23033         4.92582
           23034         5.12848
           23035         5.84268
           23036         5.19020
           23037         1.97498
           23038         1.61755
           23039         2.01648
           23040         4.48213
           23041         4.48407
           23042         4.82022
           23043         4.50912
           23044         4.50438
           23045         4.17578
           23046         1.13662
           23047         1.40132
           23048         2.39357
           23049         2.37077
           23050         1.20916
           23051         4.32109
           23052         5.32940
           23053         5.05823
           23054         4.18937
           23055         4.22946
           23056         1.12284
           23057         1.63616
           23058         1.31227
           23059         1.68884
           23060         1.02397
           23061     870.074E-03
           23062     943.479E-03
           23063         1.72327
           23064         1.77545
           23065         1.45110
           23066         2.18704
           23067         1.89149
           23068         1.68471
           23069         2.07582
           23070         2.04193
           23071         2.02383
           23072         1.18851
           23073         1.17989
           23074         2.74299
           23075         2.73281
           23076         2.66526
           23077         4.54040
           23078         6.03264
           23079         2.87520
           23080         4.20783
           23081         1.32597
           23082         1.07930
           23083         1.34489
           23084         1.15929
           23085         1.16610
           23086         5.41272
           23087         6.42623
           23088     952.920E-03
           23089     694.802E-03
           23090     706.409E-03
           23091     717.879E-03
           23092     793.793E-03
           23093         2.39272
           23094         1.08242
           23095         1.20895
           23096         5.29619
           23097         5.31318
           23098         5.32876
           23099         2.72403
           23100         2.24017
           23101         2.68923
           23102         1.34213
           23103     269.689E-03
           23104     185.235E-03
           23105     333.480E-03
           23106     165.124E-03
           23107     419.113E-03
           23108     469.415E-03
           23109     570.684E-03
           23110     538.603E-03
           23111     906.004E-03
           23112     792.120E-03
           23113     889.418E-03
           23114         1.00287
           23115         5.29638
           23116         14.7974
           23117         10.8234
           23118         14.3553
           23119     675.735E-03
           23120     670.283E-03
           23121     499.360E-03
           23122     505.795E-03
           23123     660.045E-03
           23124         1.67785
           23125         5.45811
           23126         6.15356
           23127         1.02392
           23128         1.16380
           23129         7.68220
           23130         7.48814
           23131         8.18799
           23132         8.37371
           23133         8.39651
           23134         2.68639
           23135         1.19736
           23136         1.02966
           23137         21.8600
           23138         14.6978
           23139         21.3648
           23140         15.4426
           23141         23.6510
           23142         17.1962
           23143         6.66424
           23144         1.15194
           23145         3.61427
           23146         3.62552
           23147         3.67772
           23148         8.92885
           23149     270.770E-03
           23150     398.620E-03
           23151     375.493E-03
           23152     362.885E-03
           23153     394.136E-03
           23154     404.324E-03
           23155     259.544E-03
           23156     232.893E-03
           23157         1.05235
           23158     281.435E-03
           23159     188.114E-03
           23160     274.143E-03
           23161     94.6921E-03
           23162     184.464E-03
           23163     103.906E-03
           23164     491.319E-03
           23165     257.388E-03
           23166     151.035E-03
           23167     253.146E-03
           23168     374.043E-03
           23169     34.2441E-03
           23170     66.4305E-03
           23171     38.6718E-03
           23172     41.9050E-03
           23173         5.70094
           23174         5.65489
           23175         5.61257
           23176         5.56255
           23177         8.39318
           23178     22.4829E-03
           23179     34.6020E-03
           23180     50.5113E-03
           23181     98.8129E-03
           23182     55.8316E-03
           23183     33.5761E-03
           23184     42.4920E-03
           23185     44.6890E-03
           23186     37.4915E-03
           23187     37.8350E-03
           23188     38.2060E-03
           23189     47.9911E-03
           23190         2.75483
           23191         3.62721
           23192         3.60546
           23193     257.439E-03
           23194     75.7156E-03
           23195     80.1276E-03
           23196     138.288E-03
           23197     135.444E-03
           23198     49.1003E-03
           23199         6.11044
           23200         2.46519
           23201         2.39980
           23202         2.43389
           23203     94.5973E-03
           23204     18.0811E-03
           23205     20.6263E-03
           23206     287.255E-03
           23207     220.676E-03
           23208     135.379E-03
           23209     129.811E-03
           23210         2.87369
           23211         2.87390
           23212         2.91023
           23213         2.84304
           23214         2.68309
           23215         2.73043
           23216         2.73463
           23217     34.2754E-03
           23218     27.6715E-03
           23219         1.58376
           23220         1.67349
           23221         1.78723
           23222         1.69558
           23223         1.67383
           23224         2.44200
           23225         2.40813
           23226     20.8951E-03
           23227         2.79061
           23228         1.71279
           23229         3.06791
           23230         3.00407
           23231         2.92289
           23232         2.93828
           23233         2.68321
           23234         2.70332
           23235     394.218E-03
           23236     492.912E-03
           23237     180.042E-03
           23238     19.7378E-03
           23239         3.15272
           23240         2.65437
           23241         2.73769
           23242         2.74733
           23243     382.253E-03
           23244         2.84333
           23245     351.773E-03
           23246     331.847E-03
           23247     163.158E-03
           23248     520.610E-03
           23249     660.209E-03
           23250     540.647E-03
           23251     413.098E-03
           23252     432.655E-03
           23253     521.255E-03
           23254     542.895E-03
           23255     681.712E-03
           23256         4.21618
           23257     561.585E-03
           23258         6.40481
           23259     707.802E-03
           23260         2.65064
           23261         2.69150
           23262     496.136E-03
           23263     626.191E-03
           23264     618.975E-03
           23265         3.08371
           23266         3.14920
           23267     696.019E-03
           23268     855.032E-03
           23269     765.968E-03
           23270     709.991E-03
           23271     809.062E-03
           23272     693.571E-03
           23273     638.047E-03
           23274     648.852E-03
           23275     820.746E-03
           23276         1.01223
           23277     816.672E-03
           23278         2.53805
           23279         2.67842
           23280         2.62410
           23281     704.485E-03
           23282     637.130E-03
           23283     695.548E-03
           23284         2.60895
           23285     729.436E-03
           23286     726.701E-03
           23287     890.172E-03
           23288     901.403E-03
           23289     742.908E-03
           23290         9.17680
           23291         11.2953
           23292         11.1873
           23293         12.9918
           23294         10.1149
           23295         10.2354
           23296         14.5593
           23297         15.0443
           23298         9.69903
           23299         1.59932
           23300         1.28812
           23301         1.31015
           23302         1.32837
           23303         1.11736
           23304         1.37318
           23305         1.31507
           23306         1.66972
           23307         1.66496
           23308         3.04259
           23309         1.17355
           23310     935.276E-03
           23311         1.11854
           23312         18.1921
           23313         14.3821
           23314         14.2083
           23315         11.0425
           23316         13.6722
           23317         13.8384
           23318         12.0180
           23319         9.00897
           23320         13.3079
           23321         12.3801
           23322         15.4410
           23323         11.0521
           23324         14.0084
           23325         12.5971
           23326         13.0244
           23327         9.65516
           23328         11.6613
           23329     555.387E-03
           23330         15.2616
           23331         15.2542
           23332         12.2869
           23333         15.5739
           23334         12.0928
           23335         20.4363
           23336         11.8206
           23337         12.1386
           23338         7.46279
           23339         15.5771
           23340         14.3727
           23341         1.07313
           23342         11.4209
           23343         11.0369
           23344         7.80056
           23345         7.80368
           23346         7.55988
           23347         11.7290
           23348         1.36428
           23349         1.09611
           23350         1.02599
           23351         1.03914
           23352         1.31148
           23353         3.00231
           23354         12.1568
           23355         12.8167
           23356         13.9600
           23357         11.0084
           23358         12.6360
           23359         11.4621
           23360         5.05437
           23361         2.78459
           23362         2.55276
           23363         2.81595
           23364         3.05146
           23365         1.04378
           23366         1.42562
           23367         1.19386
           23368         1.64034
           23369         1.24699
           23370         1.47103
           23371         1.08646
           23372         1.21850
           23373         1.62925
           23374         10.7641
           23375         12.0634
           23376         13.9637
           23377         11.0002
           23378         5.76648
           23379         5.50045
           23380         12.4205
           23381         10.5160
           23382         11.6361
           23383         11.8682
           23384         1.62800
           23385         1.99744
           23386         1.41139
           23387         1.72095
           23388         11.9204
           23389         12.0012
           23390         16.3275
           23391     408.710E-03
           23392         1.02623
           23393     324.154E-03
           23394     370.263E-03
           23395     463.861E-03
           23396         13.7455
           23397         13.0342
           23398         9.99480
           23399         13.0766
           23400     578.175E-03
           23401     659.285E-03
           23402     644.688E-03
           23403         1.02568
           23404     39.4356E-03
           23405         5.83335
           23406         6.66527
           23407         13.2298
           23408     101.333E-03
           23409     54.5722E-03
           23410     16.3665E-03
           23411     39.7523E-03
           23412     56.7871E-03
           23413     55.8394E-03
           23414     14.1570E-03
           23415         8.24386
           23416         8.74708
           23417         8.44986
           23418         8.14396
           23419         7.63113
           23420         7.89612
           23421     16.4647E-03
           23422     32.0393E-03
           23423     31.8502E-03
           23424     21.5524E-03
           23425     23.3059E-03
           23426     50.1082E-03
           23427     30.9773E-03
           23428     24.6501E-03
           23429         3.91792
           23430         4.50504
           23431         4.97452
           23432         4.27178
           23433         3.79656
           23434     83.4847E-03
           23435     51.7506E-03
           23436     42.3901E-03
           23437     38.8257E-03
           23438     36.5655E-03
           23439         8.03099
           23440         7.96198
           23441         8.49708
           23442     44.4298E-03
           23443         9.46215
           23444         12.6002
           23445         10.3968
           23446     38.8232E-03
           23447     41.2729E-03
           23448     64.9561E-03
           23449         12.4010
           23450         14.2680
           23451     29.6779E-03
           23452     31.0111E-03
           23453     738.741E-03
           23454     448.433E-03
           23455         6.75382
           23456         12.6641
           23457         13.8608
           23458         11.8770
           23459     601.642E-03
           23460     772.297E-03
           23461     771.017E-03
           23462     525.294E-03
           23463         9.35677
           23464         8.73608
           23465         8.00444
           23466         9.21821
           23467         9.48004
           23468         11.3033
           23469         11.6218
           23470         11.1293
           23471         9.14359
           23472         9.36686
           23473         9.90563
           23474         9.44734
           23475         9.22085
           23476         7.35844
           23477         7.66596
           23478         12.6222
           23479         14.5449
           23480         16.4875
           23481         10.4821
           23482         12.0772
           23483         9.93152
           23484         10.9568
           23485         10.3684
           23486         12.0683
           23487         11.2082
           23488         9.63468
           23489         18.4667
           23490         17.1008
           23491     417.014E-03
           23492     291.057E-03
           23493         1.01572
           23494         1.14435
           23495         9.01101
           23496         9.33945
           23497         10.0752
           23498         8.41276
           23499         9.92550
           23500         10.4034
           23501         6.85127
           23502         1.77042
           23503         1.75058
           23504         1.51419
           23505         1.38740
           23506         5.27623
           23507         2.92786
           23508         20.1568
           23509         14.4064
           23510         20.6086
           23511         6.91164
           23512         7.58454
           23513         7.97000
           23514         13.0949
           23515         14.5474
           23516         13.9459
           23517         15.0708
           23518         5.46406
           23519         6.86090
           23520         6.19736
           23521         1.95388
           23522         1.45818
           23523         1.71585
           23524         1.40810
           23525         11.0765
           23526         9.67807
           23527         9.55176
           23528         9.70266
           23529         11.1055
           23530         12.8604
           23531         20.6049
           23532         18.9200
           23533         29.0286
           23534         18.9938
           23535         20.6399
           23536         10.5439
           23537         8.54569
           23538         7.77175
           23539         12.4505
           23540         1.30140
           23541         2.05170
           23542         1.48423
           23543         1.34403
           23544     852.066E-03
           23545         1.17520
           23546         4.10357
           23547         3.91623
           23548         3.89007
           23549         4.39016
           23550         4.58548
           23551         1.56481
           23552         2.37570
           23553         7.81162
           23554         7.80694
           23555         8.08919
           23556         7.06737
           23557         6.99919
           23558         6.75605
           23559         4.76268
           23560         4.69198
           23561         4.78830
           23562     858.614E-03
           23563     817.150E-03
           23564         1.11992
           23565         1.08337
           23566     909.431E-03
           23567     527.850E-03
           23568     728.672E-03
           23569     635.787E-03
           23570         1.03098
           23571         4.90486
           23572         4.14301
           23573         4.62248
           23574         5.32466
           23575         1.27422
           23576         1.38596
           23577         1.31149
           23578         3.25627
           23579         2.79781
           23580         1.53692
           23581         1.83493
           23582         2.09787
           23583         2.13749
           23584         4.07584
           23585         1.42222
           23586     809.835E-03
           23587         1.05490
           23588         2.70416
           23589         5.40796
           23590         5.39947
           23591         5.44686
           23592         5.45909
           23593         5.44689
           23594         1.21664
           23595         1.03598
           23596         1.66803
           23597         5.14443
           23598         5.16819
           23599         4.42886
           23600         4.35199
           23601         11.3045
           23602         9.02974
           23603         7.16580
           23604         6.04929
           23605         7.41253
           23606         9.10937
           23607     548.882E-03
           23608     630.918E-03
           23609     231.363E-03
           23610         3.89039
           23611     590.217E-03
           23612         1.96812
           23613         1.09467
           23614         9.18886
           23615         6.17612
           23616         9.95240
           23617         14.1432
           23618         15.2517
           23619         23.3147
           23620         5.81538
           23621         7.38241
           23622         7.13919
           23623         6.63394
           23624         5.02453
           23625         5.21792
           23626         5.56526
           23627         5.61717
           23628         5.49556
           23629         5.39573
           23630         9.01943
           23631         8.85283
           23632         8.24463
           23633         8.73445
           23634         8.91076
           23635         29.4957
           23636         29.3369
           23637         20.6128
           23638         6.83419
           23639         7.33515
           23640         5.53603
           23641         5.34139
           23642         5.25968
           23643         5.05467
           23644         4.74266
           23645         7.04347
           23646         6.28609
           23647         6.52571
           23648         5.17317
           23649         24.3234
           23650         29.8489
           23651         5.69572
           23652         4.69024
           23653         4.77663
           23654         5.38631
           23655         5.15739
           23656         11.6221
           23657         11.2729
           23658         5.34963
           23659     770.310E-03
           23660         5.46067
           23661         5.45873
           23662         3.29737
           23663         3.24856
           23664         3.12198
           23665         3.57659
           23666         3.62560
           23667         3.73975
           23668         3.52942
           23669         5.85213
           23670         6.06986
           23671         3.43786
           23672         5.08015
           23673         5.46958
           23674         1.99506
           23675         2.86519
           23676         3.39281
           23677         3.12855
           23678         2.16871
           23679         1.87354
           23680         1.70676
           23681         2.27535
           23682         2.46225
           23683         1.87156
           23684         5.77990
           23685         5.00240
           23686         3.37997
           23687         3.15172
           23688         5.38582
           23689         6.81590
           23690         6.68069
           23691         5.93842
           23692         5.98226
           23693         3.01676
           23694         2.92903
           23695         3.23877
           23696         1.74465
           23697         3.39174
           23698         2.60290
           23699         2.01270
           23700         2.50530
           23701         2.19475
           23702         3.40292
           23703         5.78896
           23704     602.271E-03
           23705     567.799E-03
           23706     601.775E-03
           23707     598.527E-03
           23708         6.33724
           23709         2.67195
           23710         3.24679
           23711         1.86903
           23712         1.69778
           23713         4.32881
           23714         2.67173
           23715         5.76429
           23716         5.40722
           23717         5.22175
           23718         5.13918
           23719         3.85251
           23720         5.43284
           23721         5.02652
           23722         5.14139
           23723         9.80477
           23724         8.77025
           23725         2.17980
           23726         3.22899
           23727         2.51929
           23728         2.38630
           23729         1.81085
           23730         1.91167
           23731         2.03449
           23732         2.09028
           23733         1.68859
           23734         1.60379
           23735         4.04169
           23736         4.08102
           23737         5.04611
           23738         5.97116
           23739         4.60566
           23740         4.91299
           23741         5.01495
           23742         3.57516
           23743         3.96947
           23744         4.15226
           23745         3.85192
           23746         3.15250
           23747         5.22890
           23748         5.19774
           23749         5.08840
           23750         4.40532
           23751         3.78391
           23752         4.19388
           23753         3.93225
           23754         4.59182
           23755         2.17777
           23756         2.74563
           23757         5.41179
           23758         5.61098
           23759         5.54399
           23760         5.30851
           23761         5.68311
           23762         6.24282
           23763         6.17930
           23764         5.06483
           23765         5.29842
           23766         6.21379
           23767         5.76558
           23768         6.85952
           23769         5.12059
           23770         5.88059
           23771         5.17385
           23772         6.53845
           23773         5.01126
           23774         4.31510
           23775         5.18916
           23776         4.38534
           23777         4.25718
           23778         10.3899
           23779         10.1442
           23780         6.92356
           23781         7.08454
           23782         10.2780
           23783         13.2568
           23784         17.8786
           23785         13.0243
           23786         15.3482
           23787         15.4147
           23788         5.68975
           23789         5.71615
           23790         5.71433
           23791         5.99314
           23792         6.62903
           23793         7.06267
           23794         11.6359
           23795         15.5229
           23796         6.79425
           23797         6.52362
           23798         6.77909
           23799         6.90170
           23800         10.0916
           23801         6.76789
           23802         9.13763
           23803         6.45162
           23804         6.66754
           23805         4.91381
           23806         4.13952
           23807         4.10978
           23808         3.74920
           23809         3.64023
           23810         3.67699
           23811         4.00008
           23812         6.02500
           23813         11.6771
           23814         6.98238
           23815         10.4054
           23816         5.74131
           23817         5.80732
           23818         3.46246
           23819         3.70598
           23820         3.52559
           23821         3.43423
           23822         3.61360
           23823         5.86125
           23824         5.86170
           23825         5.79949
           23826         5.80622
           23827         5.82377
           23828         13.5660
           23829         12.2817
           23830         16.4852
           23831         5.78742
           23832         5.77127
           23833         14.2669
           23834         3.70450
           23835         6.05133
           23836         2.75211
           23837         2.53475
           23838         2.90223
           23839         2.80065
           23840         4.20130
           23841         4.35279
           23842         4.01375
           23843         6.63879
           23844         9.77829
           23845         9.31537
           23846         10.2951
           23847         5.77508
           23848         5.84024
           23849         6.13448
           23850         5.69480
           23851         9.21045
           23852         10.0838
           23853         10.2464
           23854         10.6435
           23855         9.70172
           23856         9.41867
           23857         5.58340
           23858         2.56980
           23859         2.57523
           23860         2.55708
           23861         11.2525
           23862         13.9723
           23863         12.9569
           23864         5.65656
           23865         5.30159
           23866         5.48784
           23867         7.42224
           23868         7.08382
           23869         6.57119
           23870         6.20891
           23871         6.50944
           23872         6.71098
           23873         6.08500
           23874         6.08376
           23875         5.90118
           23876         5.85775
           23877         14.2658
           23878         20.4909
           23879         5.97036
           23880         10.0806
           23881         8.94902
           23882         5.48456
           23883         5.46233
           23884         8.66194
           23885         9.52592
           23886         5.64155
           23887         5.89727
           23888         5.97080
           23889         7.27369
           23890         7.22793
           23891         7.74325
           23892         8.82598
           23893         8.86685
           23894         6.02980
           23895         6.15399
           23896         7.69095
           23897         16.4312
           23898         6.11928
           23899         16.8213
           23900         5.50197
           23901         5.48891
           23902         5.46164
           23903         5.47308
           23904         9.44817
           23905         5.46980
           23906         5.51524
           23907         5.18678
           23908         4.83250
           23909         4.99831
           23910         9.28509
           23911         11.5464
           23912         11.3155
           23913         4.90769
           23914         5.05172
           23915         8.99256
           23916         8.92229
           23917         4.93867
           23918         4.81998
           23919         7.42571
           23920         4.09522
           23921         5.52471
           23922         5.81427
           23923         4.64843
           23924         4.27564
           23925         4.12556
           23926         5.18625
           23927         6.10324
           23928         17.6252
           23929         18.0795
           23930         5.23568
           23931         7.76636
           23932         7.76640
           23933         8.46552
           23934         3.13633
           23935         2.90467
           23936         4.58529
           23937         3.70386
           23938         3.89907
           23939         3.94836
           23940         3.66077
           23941         3.60127
           23942         8.93463
           23943         8.74200
           23944         10.1898
           23945         9.36678
           23946         5.70502
           23947         5.67109
           23948         5.63835
           23949         8.09887
           23950         8.98034
           23951         5.56946
           23952         5.38821
           23953         4.65074
           23954         4.51353
           23955         2.52812
           23956         7.58643
           23957         7.16120
           23958         6.17952
           23959         6.70408
           23960         6.76767
           23961         5.22233
           23962         8.25281
           23963         8.01099
           23964         9.36813
           23965         11.2942
           23966         5.10913
           23967         5.83251
           23968         5.12843
           23969         5.15882
           23970         4.79980
           23971         4.79558
           23972         5.15809
           23973         6.40703
           23974         7.70700
           23975         7.18789
           23976         6.00753
           23977         6.90614
           23978         6.41154
           23979         5.36672
           23980         5.31944
           23981         9.86639
           23982         9.75611
           23983         9.43203
           23984         11.9391
           23985         11.8240
           23986         11.8068
           23987         6.66886
           23988         6.71454
           23989         6.45601
           23990         6.36829
           23991         5.51547
           23992         4.91519
           23993         5.66596
           23994         8.04401
           23995         3.39172
           23996         3.54515
           23997         3.09700
           23998         2.90779
           23999         3.16465
           24000         5.41710
           24001         5.25723
           24002         10.9969
           24003         11.6090
           24004         4.11264
           24005         3.99047
           24006         3.48876
           24007         3.75285
           24008         3.73967
           24009         3.75622
           24010         3.48960
           24011         2.55816
           24012         5.43546
           24013         5.54582
           24014         13.7262
           24015         8.47505
           24016         3.45865
           24017         3.98638
           24018         3.98434
           24019         4.49351
           24020         5.52788
           24021         5.59869
           24022         5.22391
           24023         8.21022
           24024         10.0688
           24025         4.16469
           24026         7.34053
           24027         6.33494
           24028         6.39590
           24029         7.13359
           24030         3.30442
           24031         3.29602
           24032         9.40962
           24033         2.54061
           24034         2.81070
           24035         6.03960
           24036         5.98012
           24037         13.0929
           24038         2.84794
           24039         3.05396
           24040         3.04892
           24041         2.85993
           24042         3.08273
           24043         10.3603
           24044         10.8838
           24045         12.1898
           24046         11.2760
           24047         2.93172
           24048         2.92232
           24049         3.16805
           24050         4.01801
           24051         3.80764
           24052         4.75829
           24053         13.2421
           24054         18.1462
           24055         13.5072
           24056         18.7737
           24057         5.61513
           24058         4.13185
           24059         4.57944
           24060         4.01219
           24061         6.17123
           24062         5.68829
           24063         6.80866
           24064         6.84010
           24065         4.95265
           24066         6.75953
           24067         7.30294
           24068         7.75577
           24069         7.23718
           24070         3.38262
           24071         3.15241
           24072         2.23392
           24073         4.96411
           24074         5.46429
           24075         5.15503
           24076         13.2337
           24077         14.7901
           24078         12.6600
           24079         12.6306
           24080         3.23703
           24081         3.35961
           24082         3.04064
           24083         3.00124
           24084         3.32311
           24085         12.6941
           24086         1.05444
           24087     956.611E-03
           24088         3.88772
           24089         10.8368
           24090         4.33245
           24091         4.13576
           24092         4.17567
           24093         4.14223
           24094         12.6126
           24095         10.9790
           24096         9.59268
           24097         4.99872
           24098         10.2859
           24099         3.60094
           24100     366.015E-03
           24101     233.263E-03
           24102         8.37401
           24103         5.89194
           24104         3.28177
           24105         3.40523
           24106         3.30079
           24107         3.24427
           24108         3.36712
           24109         3.42527
           24110         3.03165
           24111         2.53123
           24112     359.978E-03
           24113     464.957E-03
           24114         5.55063
           24115         4.18950
           24116         5.36713
           24117         5.32982
           24118         2.84329
           24119         8.53198
           24120         6.47733
           24121         11.3227
           24122         2.66125
           24123         2.42386
           24124         2.63116
           24125         4.35607
           24126         3.67319
           24127         3.10854
           24128         3.49707
           24129         2.91088
           24130         3.22985
           24131         4.08964
           24132         3.58141
           24133         3.45199
           24134         5.25082
           24135         8.03636
           24136         8.38560
           24137         7.61553
           24138         3.83647
           24139         3.63735
           24140         13.0430
           24141         1.98494
           24142         8.65290
           24143         8.35982
           24144         7.70441
           24145         7.51901
           24146         3.09909
           24147         3.89600
           24148         3.57972
           24149         3.64316
           24150         8.23183
           24151         9.07777
           24152         9.15040
           24153         8.31026
           24154         8.30575
           24155         3.24465
           24156         5.50777
           24157         4.50596
           24158         5.44806
           24159         5.64674
           24160         5.41957
           24161         7.44896
           24162         2.81823
           24163         3.10654
           24164         6.84814
           24165         8.95870
           24166         4.68973
           24167         6.74162
           24168         3.72799
           24169         3.49767
           24170         6.49548
           24171         3.92019
           24172         1.08193
           24173         8.71105
           24174         8.94958
           24175         9.53265
           24176         8.88581
           24177         2.98042
           24178         6.01548
           24179         5.82700
           24180         6.29590
           24181         7.40928
           24182         7.90911
           24183         7.92626
           24184         1.68968
           24185         1.35827
           24186         1.56041
           24187         4.70606
           24188         2.67147
           24189     216.873E-03
           24190     311.671E-03
           24191         2.75826
           24192         2.72353
           24193         6.47695
           24194         4.55461
           24195         2.47985
           24196         1.93634
           24197         1.56535
           24198         1.59573
           24199         2.11054
           24200         2.04313
           24201         5.63106
           24202         1.91080
           24203         1.94677
           24204         2.33346
           24205         2.29470
           24206         2.28517
           24207         2.40727
           24208         2.07485
           24209         3.52262
           24210         3.34626
           24211         3.74034
           24212         3.79949
           24213         3.58450
           24214         3.17949
           24215         7.03463
           24216         2.80336
           24217         2.74553
           24218         3.17224
           24219     164.750E-03
           24220         10.1280
           24221         8.27415
           24222         8.51887
           24223     106.725E-03
           24224     52.0995E-03
           24225     57.2429E-03
           24226         3.72196
           24227         5.34774
           24228         2.12570
           24229         2.93830
           24230         2.24860
           24231         2.39632
           24232         1.50640
           24233         1.15927
           24234     137.852E-03
           24235         1.14105
           24236     985.474E-03
           24237     74.9259E-03
           24238     70.5245E-03
           24239         1.75657
           24240     916.892E-03
           24241         1.11539
           24242         1.42426
           24243         4.63274
           24244         4.70470
           24245     873.685E-03
           24246     653.412E-03
           24247     421.938E-03
           24248     75.3464E-03
           24249         1.76315
           24250         1.74456
           24251         1.14550
           24252         1.40540
           24253         1.65386
           24254     202.356E-03
           24255         6.19606
           24256     983.369E-03
           24257     178.838E-03
           24258     50.8973E-03
           24259     61.0785E-03
           24260         2.17776
           24261         3.10345
           24262     120.264E-03
           24263         1.64376
           24264         1.54262
           24265         1.40695
           24266         1.40670
           24267         1.56906
           24268         1.67993
           24269     24.4484E-03
           24270     51.9835E-03
           24271         1.35892
           24272     61.5703E-03
           24273     70.0235E-03
           24274     270.559E-03
           24275         1.30520
           24276         1.58730
           24277     598.382E-03
           24278     613.063E-03
           24279     741.720E-03
           24280     598.380E-03
           24281         1.33243
           24282         1.42341
           24283         1.57618
           24284         1.71837
           24285         2.02894
           24286     982.426E-03
           24287         1.04470
           24288     191.945E-03
           24289     292.872E-03
           24290     97.9406E-03
           24291         3.55829
           24292         3.51785
           24293         4.07884
           24294         2.69892
           24295         3.37323
           24296         2.81990
           24297         4.31466
           24298     468.830E-03
           24299     441.479E-03
           24300     933.886E-03
           24301     441.893E-03
           24302     765.428E-03
           24303         8.38262
           24304         9.26756
           24305         9.06816
           24306         8.00270
           24307         1.23688
           24308         2.45593
           24309         2.45761
           24310         1.32528
           24311         1.16053
           24312     640.271E-03
           24313     717.518E-03
           24314     862.056E-03
           24315         1.36892
           24316         1.45783
           24317         1.05117
           24318     781.750E-03
           24319     527.943E-03
           24320     759.682E-03
           24321         1.04214
           24322     729.781E-03
           24323         1.84666
           24324         1.06147
           24325         3.56307
           24326         3.67105
           24327     784.455E-03
           24328         3.79875
           24329         3.33676
           24330         3.16331
           24331         3.02429
           24332         3.15836
           24333         3.33622
           24334         3.48251
           24335         2.06279
           24336         1.99288
           24337         1.32832
           24338         4.42982
           24339         3.36035
           24340         2.65706
           24341         5.70397
           24342         6.63234
           24343         6.42509
           24344         6.95094
           24345         7.11344
           24346         3.59307
           24347         3.59388
           24348         5.42279
           24349         5.13273
           24350         4.14464
           24351         3.92186
           24352         3.91797
           24353         3.59260
           24354         3.80948
           24355         3.80991
           24356         4.16140
           24357         4.48139
           24358         10.3993
           24359         3.81147
           24360         3.91788
           24361         3.15526
           24362         2.84115
           24363         3.02276
           24364         7.63022
           24365         7.10155
           24366         7.00690
           24367         5.97511
           24368         5.76572
           24369         9.16438
           24370         8.28373
           24371         7.46236
           24372         7.33574
           24373         7.01306
           24374         7.90419
           24375         5.65461
           24376         15.0042
           24377         12.7953
           24378         12.1387
           24379         3.39089
           24380         3.80922
           24381         4.56441
           24382         4.75966
           24383         5.30987
           24384         5.37606
           24385         5.87928
           24386         5.88661
           24387         3.29319
           24388         2.94769
           24389         10.2741
           24390         10.1296
           24391         19.7305
           24392         3.34490
           24393         8.82423
           24394         9.58460
           24395         9.21481
           24396         9.57163
           24397         8.81414
           24398         9.19090
           24399         4.86051
           24400         5.42790
           24401         5.49631
           24402         5.82803
           24403         5.82903
           24404         4.34785
           24405         4.52957
           24406         9.90052
           24407         10.6565
           24408         12.5863
           24409         20.6264
           24410         19.8696
           24411         7.92932
           24412         8.72991
           24413         8.71273
           24414         9.20879
           24415         8.38591
           24416         8.39518
           24417         18.0368
           24418         4.44508
           24419         4.00236
           24420         11.0735
           24421         9.44586
           24422         10.3761
           24423         10.0340
           24424         10.3791
           24425         11.9360
           24426         8.51657
           24427         8.04021
           24428         9.07189
           24429         8.66087
           24430         8.87779
           24431         9.38731
           24432         4.17046
           24433         7.43099
           24434         7.96729
           24435         9.74612
           24436         8.92599
           24437         9.22537
           24438         6.47991
           24439         5.01631
           24440         7.96991
           24441         7.99794
           24442         7.79469
           24443         4.69858
           24444         8.27544
           24445         9.27311
           24446         9.69060
           24447         9.83188
           24448         11.8478
           24449         12.4300
           24450         10.0300
           24451         9.89445
           24452         10.4944
           24453         6.05847
           24454         6.78131
           24455         6.47801
           24456         9.04099
           24457         8.63537
           24458         10.5693
           24459         5.79668
           24460         17.9926
           24461         9.25412
           24462         9.01674
           24463         9.26599
           24464         4.80390
           24465         5.16107
           24466         5.13768
           24467         4.88697
           24468         5.17869
           24469         4.39669
           24470         4.68589
           24471         6.22872
           24472         6.38896
           24473         13.6077
           24474         4.68015
           24475         4.66643
           24476         5.43550
           24477         1.52960
           24478         1.88083
           24479         2.43571
           24480         6.93029
           24481         7.26379
           24482         7.91231
           24483         7.70378
           24484         7.57307
           24485         3.22349
           24486         5.01836
           24487         5.11825
           24488         3.73632
           24489         5.44803
           24490         2.46605
           24491         2.70755
           24492         3.69323
           24493         5.27424
           24494         7.13902
           24495         3.71411
           24496         3.88326
           24497         5.08663
           24498         5.57694
           24499         5.29265
           24500         3.64632
           24501         3.67719
           24502         3.84333
           24503         3.76811
           24504         5.18335
           24505     847.577E-03
           24506     787.577E-03
           24507         8.04633
           24508         8.02249
           24509         7.79436
           24510         7.51359
           24511         2.94978
           24512         2.28965
           24513         11.8048
           24514         10.9728
           24515         11.4502
           24516         8.64672
           24517         7.85245
           24518         7.79807
           24519         8.43789
           24520         8.57181
           24521         3.85317
           24522         3.57821
           24523         8.03365
           24524         9.63201
           24525         4.03891
           24526         13.6773
           24527         13.7280
           24528         5.37691
           24529         5.31207
           24530         10.2833
           24531         8.68427
           24532         7.55492
           24533         7.54926
           24534         3.50287
           24535         3.56385
           24536         7.40138
           24537         8.82828
           24538         8.74612
           24539         8.99138
           24540         10.1377
           24541         10.2060
           24542         6.30087
           24543         5.61968
           24544         3.02969
           24545         2.93462
           24546         2.34686
           24547         2.91774
           24548         2.96762
           24549         3.67159
           24550         1.71984
           24551         5.60792
           24552         5.46615
           24553         5.45650
           24554         5.54776
           24555         7.98301
           24556         8.15119
           24557         8.45012
           24558         5.58550
           24559         5.82897
           24560         5.46009
           24561         2.95276
           24562         2.34408
           24563         2.58038
           24564         3.17899
           24565         3.09487
           24566         7.35225
           24567         7.65022
           24568         7.64014
           24569         7.61602
           24570         7.95319
           24571         7.19415
           24572         5.34940
           24573         6.01590
           24574         6.64273
           24575         7.05225
           24576         8.24108
           24577         7.93088
           24578         9.50236
           24579         4.06804
           24580         1.23011
           24581         1.18269
           24582         9.09310
           24583         9.10205
           24584     227.576E-03
           24585     745.610E-03
           24586     276.665E-03
           24587     832.335E-03
           24588     144.323E-03
           24589     705.911E-03
           24590         1.67582
           24591         1.29786
           24592         1.30711
           24593         1.34498
           24594         1.62908
           24595         1.57000
           24596         6.54116
           24597         2.89969
           24598         3.01095
           24599         5.64892
           24600         5.75676
           24601         8.97678
           24602         2.56304
           24603         1.92831
           24604         2.28341
           24605         1.15001
           24606         1.15463
           24607         1.31194
           24608     917.304E-03
           24609     838.436E-03
           24610     706.987E-03
           24611     353.780E-03
           24612     549.456E-03
           24613         1.07740
           24614     695.387E-03
           24615         6.57857
           24616         7.20313
           24617         5.74668
           24618         5.74049
           24619         8.48562
           24620         8.48666
           24621         4.07343
           24622         4.59757
           24623     566.958E-03
           24624     269.562E-03
           24625     283.947E-03
           24626     308.640E-03
           24627         7.88577
           24628         7.33115
           24629         9.13883
           24630         9.13818
           24631         1.40529
           24632         2.01566
           24633         1.63784
           24634         6.25638
           24635         6.28008
           24636         1.56032
           24637         1.25240
           24638         1.52192
           24639     761.890E-03
           24640     391.937E-03
           24641     388.820E-03
           24642         9.13172
           24643         7.62829
           24644         7.86862
           24645         7.47141
           24646         7.86860
           24647         7.33386
           24648         7.54345
           24649         7.70573
           24650         4.32531
           24651         3.74291
           24652         6.83725
           24653         7.17163
           24654         6.68019
           24655         6.43492
           24656         6.60418
           24657         6.87764
           24658         7.05895
           24659         6.77873
           24660         2.60304
           24661         3.01047
           24662         6.33448
           24663         1.97893
           24664         2.43188
           24665         2.37846
           24666         2.33074
           24667         7.21977
           24668         6.90279
           24669         6.90115
           24670         7.28703
           24671         7.26418
           24672         5.33195
           24673         4.60241
           24674         5.33971
           24675         5.67805
           24676         7.85243
           24677         7.80052
           24678         8.55120
           24679         5.14067
           24680         5.11350
           24681         5.14337
           24682         5.73855
           24683         4.79638
           24684         6.25718
           24685         5.45763
           24686         7.45000
           24687         7.16328
           24688         6.29513
           24689         4.92885
           24690         4.74741
           24691         5.04385
           24692         5.80701
           24693         5.46852
           24694         5.10452
           24695         5.21333
           24696         7.27698
           24697         8.38020
           24698         8.29939
           24699         4.13153
           24700         2.11597
           24701         2.19339
           24702         3.05751
           24703         4.23889
           24704         6.12724
           24705         6.52624
           24706         7.17788
           24707         4.41810
           24708         3.86163
           24709         4.75317
           24710         1.06527
           24711         1.85969
           24712         1.73991
           24713         1.27700
           24714         4.72040
           24715         2.10661
           24716         2.55430
           24717         2.47829
           24718         2.44263
           24719         2.00497
           24720         2.06413
           24721         5.46853
           24722         2.84727
           24723         2.97162
           24724         2.78797
           24725         2.62025
           24726         2.05748
           24727         4.48690
           24728         3.28553
           24729         3.82504
           24730         3.26222
           24731         3.57834
           24732         2.91380
           24733         3.14390
           24734         4.40940
           24735         3.09402
           24736         3.23261
           24737         3.56708
           24738         3.45848
           24739         5.27860
           24740         7.15242
           24741         5.89328
           24742         6.21616
           24743         4.66741
           24744         5.52918
           24745         6.34443
           24746         4.63621
           24747         5.09216
           24748         3.90855
           24749         4.14537
           24750         3.79318
           24751         3.59734
           24752         15.0546
           24753         11.2319
           24754         2.86852
           24755         3.93017
           24756         4.04542
           24757         4.23233
           24758         2.63552
           24759         2.63592
           24760         2.82006
           24761         2.52193
           24762         4.31670
           24763         4.48256
           24764         9.49690
           24765         4.10306
           24766         5.24766
           24767         4.86751
           24768         5.19086
           24769         2.62450
           24770         5.36888
           24771         2.65231
           24772         6.34047
           24773         2.61434
           24774         5.54032
           24775         10.3460
           24776         11.4271
           24777         2.71261
           24778         10.3723
           24779         10.1840
           24780         2.42623
           24781         5.77148
           24782         4.41498
           24783         4.71479
           24784         5.17017
           24785         5.55090
           24786         5.23287
           24787         2.04181
           24788         2.09489
           24789         5.61682
           24790         5.96412
           24791         6.15324
           24792         5.62355
           24793         5.25177
           24794         6.43446
           24795         4.57646
           24796         4.61083
           24797         4.62604
           24798         4.17440
           24799         4.13924
           24800         2.88015
           24801         2.93005
           24802         4.81830
           24803         4.58964
           24804         4.90589
           24805         5.40019
           24806         5.98260
           24807         3.43814
           24808         3.19949
           24809         3.14983
           24810         2.42707
           24811         2.31526
           24812         4.26454
           24813         4.03924
           24814         3.93494
           24815         4.09391
           24816         4.31796
           24817     748.879E-03
           24818     837.758E-03
           24819     339.261E-03
           24820     769.228E-03
           24821     757.284E-03
           24822     971.591E-03
           24823         2.34701
           24824         2.41158
           24825         4.71059
           24826         2.61530
           24827         6.43079
           24828         5.69544
           24829         2.33934
           24830         2.64729
           24831         2.23943
           24832         2.19872
           24833         9.56016
           24834         3.89177
           24835         3.39933
           24836         2.51869
           24837         2.48856
           24838         1.90404
           24839         1.80183
           24840         2.51246
           24841         2.60560
           24842         1.97134
           24843         2.56156
           24844         1.19829
           24845         1.30066
           24846         1.88674
           24847         2.38125
           24848         2.16556
           24849         6.29190
           24850         2.16394
           24851         3.01878
           24852         3.25403
           24853         2.20708
           24854         3.77860
           24855         3.69637
           24856         5.72385
           24857         2.25498
           24858         2.24937
           24859         4.02578
           24860         4.46725
           24861         1.23084
           24862         2.40592
           24863         2.32252
           24864         1.02768
           24865         1.19611
           24866     807.833E-03
           24867         2.39560
           24868         1.73559
           24869         5.52467
           24870         1.95096
           24871         2.04661
           24872         1.92841
           24873         5.63152
           24874         5.58087
           24875         2.02191
           24876         2.86659
           24877         1.16737
           24878         5.15325
           24879         5.13614
           24880         5.15633
           24881         1.69140
           24882         2.06054
           24883         2.16518
           24884         5.38835
           24885     818.261E-03
           24886     711.437E-03
           24887     696.039E-03
           24888     776.964E-03
           24889     849.738E-03
           24890     916.391E-03
           24891         1.61959
           24892         1.75369
           24893         1.51555
           24894         1.42260
           24895         1.86460
           24896         1.22357
           24897         3.30098
           24898         2.75798
           24899         2.79446
           24900         1.44181
           24901         1.15755
           24902         1.58088
           24903         1.58972
           24904         1.16966
           24905         1.11510
           24906     892.619E-03
           24907         1.28257
           24908         1.02444
           24909         1.22826
           24910         2.45932
           24911         2.48614
           24912         2.47086
           24913         2.46902
           24914     996.893E-03
           24915     997.744E-03
           24916         1.91595
           24917         1.47809
           24918         2.62581
           24919         3.11336
           24920         2.83063
           24921         2.46929
           24922         2.73280
           24923         2.74957
           24924         3.00765
           24925         4.05714
           24926         5.06499
           24927         4.19018
           24928         5.02520
           24929     997.676E-03
           24930         1.12124
           24931         5.84970
           24932         10.2134
           24933         6.02900
           24934         6.34033
           24935         10.7095
           24936         5.45786
           24937         5.41341
           24938         5.48151
           24939         5.55733
           24940         1.52757
           24941         1.73216
           24942         1.59611
           24943         1.56593
           24944         1.08555
           24945         1.68295
           24946         1.45545
           24947         1.49867
           24948         1.49856
           24949         1.57219
           24950         1.45486
           24951         3.06019
           24952         2.12067
           24953         1.08174
           24954         1.00735
           24955         1.23169
           24956         1.69098
           24957         1.69063
           24958         1.60755
           24959         2.01737
           24960         1.67401
           24961     994.817E-03
           24962     634.513E-03
           24963     642.273E-03
           24964     695.609E-03
           24965     995.274E-03
           24966     864.893E-03
           24967         1.14589
           24968     125.665E-03
           24969         1.07875
           24970     736.885E-03
           24971     960.154E-03
           24972         1.01021
           24973         1.23710
           24974     899.557E-03
           24975     842.620E-03
           24976     600.523E-03
           24977     622.853E-03
           24978     509.097E-03
           24979     351.353E-03
           24980     352.239E-03
           24981     248.508E-03
           24982     453.472E-03
           24983     461.026E-03
           24984     550.752E-03
           24985     910.375E-03
           24986     810.675E-03
           24987     804.257E-03
           24988     582.683E-03
           24989     682.686E-03
           24990     582.869E-03
           24991     420.683E-03
           24992     33.1098E-03
           24993         1.17766
           24994     801.541E-03
           24995     999.726E-03
           24996     997.745E-03
           24997     471.068E-03
           24998     355.485E-03
           24999     73.9566E-03
           25000     171.061E-03
           25001     122.519E-03
           25002     123.303E-03
           25003     840.679E-03
           25004         1.57659
           25005         1.27576
           25006         1.17717
           25007         1.03546
           25008         1.02329
           25009         1.00597
           25010         1.01292
           25011     104.189E-03
           25012     200.509E-03
           25013     832.124E-03
           25014     870.649E-03
           25015     926.385E-03
           25016         1.04321
           25017     704.724E-03
           25018         1.99829
           25019     121.943E-03
           25020     182.451E-03
           25021     26.8622E-03
           25022     23.0268E-03
           25023         3.35653
           25024         3.29608
           25025         3.50759
           25026     324.134E-03
           25027         4.28704
           25028         5.27553
           25029         5.23180
           25030         4.52753
           25031         4.29406
           25032         1.01260
           25033     936.851E-03
           25034     712.344E-03
           25035     979.393E-03
           25036         1.05649
           25037     819.089E-03
           25038     777.872E-03
           25039     198.004E-03
           25040     50.4328E-03
           25041     438.319E-03
           25042     419.399E-03
           25043     408.884E-03
           25044     585.377E-03
           25045     661.815E-03
           25046     512.110E-03
           25047     745.758E-03
           25048     133.345E-03
           25049         1.02676
           25050         2.45164
           25051         2.43128
           25052     5.81147E-03
           25053     86.2397E-03
           25054     251.933E-03
           25055         2.63056
           25056         2.62806
           25057         3.96115
           25058         2.49372
           25059         2.34671
           25060         1.45157
           25061         2.97848
           25062         2.66476
           25063         2.67426
           25064         2.66570
           25065         2.60091
           25066         5.43837
           25067         5.42480
           25068         5.50822
           25069         4.55053
           25070         5.05306
           25071         4.04511
           25072         3.82240
           25073         3.70830
           25074         3.87671
           25075         3.84942
           25076         3.91442
           25077         2.57109
           25078         2.57513
           25079         2.55996
           25080         4.28298
           25081         4.18445
           25082         4.14601
           25083         4.23734
           25084         2.42404
           25085         2.50255
           25086         3.53910
           25087         3.53560
           25088         3.29795
           25089         2.62363
           25090         2.57848
           25091         2.62349
           25092         3.76082
           25093         3.97558
           25094         2.27151
           25095         3.59199
           25096         3.49323
           25097         3.75429
           25098         2.65529
           25099         2.48370
           25100         2.38545
           25101         2.66079
           25102         2.65947
           25103     814.731E-03
           25104     515.559E-03
           25105     536.308E-03
           25106         5.10725
           25107         2.57972
           25108     621.706E-03
           25109         1.12791
           25110         1.39092
           25111     466.338E-03
           25112     381.221E-03
           25113     851.808E-03
           25114         2.61614
           25115         2.61382
           25116         2.67557
           25117     161.590E-03
           25118     470.067E-03
           25119     424.739E-03
           25120         2.48736
           25121         2.57807
           25122         2.57434
           25123         1.27211
           25124         1.44593
           25125         1.19867
           25126         2.32858
           25127         2.27416
           25128         2.42690
           25129         2.47560
           25130     857.663E-03
           25131         2.42193
           25132         2.69028
           25133         2.68585
           25134     983.751E-03
           25135         1.01279
           25136         1.04929
           25137         2.60979
           25138     795.319E-03
           25139     456.820E-03
           25140         3.03337
           25141         2.33192
           25142         1.11447
           25143         1.05078
           25144         1.68249
           25145         1.42672
           25146     946.350E-03
           25147         1.34800
           25148     948.179E-03
           25149     929.148E-03
           25150     724.502E-03
           25151         2.46765
           25152         2.51353
           25153         2.47967
           25154         2.48519
           25155         2.49568
           25156     946.203E-03
           25157     973.875E-03
           25158         1.13902
           25159         1.17725
           25160         2.37856
           25161         2.42585
           25162         2.41247
           25163         2.68466
           25164         2.63046
           25165         2.64384
           25166         2.64949
           25167     962.390E-03
           25168         2.75208
           25169         2.71006
           25170         2.72313
           25171         3.04973
           25172     327.794E-03
           25173     492.465E-03
           25174     330.700E-03
           25175     413.820E-03
           25176     245.113E-03
           25177         4.15959
           25178         2.58749
           25179         2.36137
           25180         2.37707
           25181         3.35219
           25182         2.59897
           25183         3.21897
           25184         3.16135
           25185         1.61704
           25186         2.23446
           25187         2.75231
           25188         2.63495
           25189         2.66375
           25190         5.70917
           25191         2.25162
           25192         1.45618
           25193     193.995E-03
           25194         1.19793
           25195     47.9549E-03
           25196     71.0129E-03
           25197         5.69612
           25198         5.48281
           25199         2.72844
           25200         2.51621
           25201         2.48740
           25202         2.81222
           25203         2.95048
           25204     968.860E-03
           25205     719.166E-03
           25206     76.1402E-03
           25207         2.93880
           25208         3.03901
           25209         2.37401
           25210         2.46565
           25211         2.48901
           25212     632.979E-03
           25213         5.75291
           25214         2.83123
           25215         5.54007
           25216     129.123E-03
           25217     19.0640E-03
           25218         5.72174
           25219         5.73987
           25220         5.91448
           25221         5.37569
           25222         5.22539
           25223         5.27083
           25224         2.47921
           25225         2.13414
           25226         2.09115
           25227         2.19035
           25228         5.42361
           25229     85.9254E-03
           25230     186.375E-03
           25231     20.2517E-03
           25232         6.81014
           25233         7.31536
           25234         5.28104
           25235         2.68754
           25236         2.75757
           25237         2.78027
           25238         2.78278
           25239     161.093E-03
           25240     258.426E-03
           25241         2.36184
           25242     878.891E-03
           25243         1.07898
           25244     753.804E-03
           25245         1.75169
           25246         2.38259
           25247         2.34950
           25248         2.34138
           25249         2.62258
           25250     546.988E-03
           25251         1.13925
           25252         2.23558
           25253         5.48133
           25254         5.64981
           25255     728.089E-03
           25256         1.01820
           25257         2.46932
           25258     78.2979E-03
           25259     55.5074E-03
           25260     570.832E-03
           25261     483.273E-03
           25262     491.605E-03
           25263     574.023E-03
           25264     413.943E-03
           25265         2.63022
           25266     495.225E-03
           25267         2.18929
           25268         2.06636
           25269         3.48600
           25270         3.36999
           25271     622.688E-03
           25272     579.408E-03
           25273     953.476E-03
           25274     773.044E-03
           25275         1.99029
           25276         2.37320
           25277         5.22591
           25278         2.70756
           25279         2.59396
           25280         2.73768
           25281         3.02023
           25282         1.76734
           25283         5.70476
           25284         5.83803
           25285         2.21888
           25286         2.38786
           25287         2.42350
           25288         3.86242
           25289         3.06156
           25290         2.34033
           25291         3.54680
           25292         4.78321
           25293         5.18463
           25294         4.99903
           25295         1.12794
           25296         1.08410
           25297     982.838E-03
           25298         3.81940
           25299         3.11957
           25300     485.361E-03
           25301         2.39006
           25302         2.36260
           25303     719.320E-03
           25304     365.979E-03
           25305         2.86350
           25306     471.595E-03
           25307         2.64630
           25308         2.50052
           25309         2.44307
           25310         2.54896
           25311     603.365E-03
           25312         2.91043
           25313         2.50240
           25314         2.83881
           25315         2.81905
           25316         2.82216
           25317         2.78242
           25318         2.79828
           25319         2.82824
           25320         2.72530
           25321         1.22128
           25322         1.24845
           25323         5.59264
           25324         5.76392
           25325     229.682E-03
           25326     970.153E-03
           25327         4.69098
           25328     63.1086E-03
           25329         4.85607
           25330         2.83384
           25331         5.14266
           25332         1.02458
           25333         3.48408
           25334         2.19156
           25335         1.33089
           25336         5.83235
           25337         5.42629
           25338         6.20401
           25339         6.08729
           25340         1.69904
           25341         1.76945
           25342         2.09175
           25343         2.15511
           25344         1.80123
           25345         2.94334
           25346         2.91065
           25347         3.63620
           25348         2.14517
           25349         2.58308
           25350         1.21080
           25351         5.75462
           25352         5.47517
           25353         5.45055
           25354         5.63284
           25355         3.66287
           25356         5.32931
           25357         4.45020
           25358     486.163E-03
           25359     405.742E-03
           25360     203.455E-03
           25361         5.65491
           25362         5.75195
           25363         1.42006
           25364         1.14837
           25365     864.167E-03
           25366         5.50081
           25367         2.03825
           25368         7.21616
           25369         2.19358
           25370         2.95619
           25371         2.71847
           25372     866.029E-03
           25373         1.93275
           25374         1.40424
           25375         1.04047
           25376         4.42772
           25377         1.93424
           25378         1.95290
           25379         1.10059
           25380         1.93781
           25381     738.121E-03
           25382         6.52088
           25383         2.78590
           25384         2.68661
           25385         5.30903
           25386         4.94059
           25387     988.173E-03
           25388         5.41365
           25389     107.031E-03
           25390     37.1691E-03
           25391     38.8064E-03
           25392     106.116E-03
           25393     105.120E-03
           25394         5.18883
           25395         5.18348
           25396         5.00651
           25397         5.87415
           25398         5.83161
           25399         7.87707
           25400         7.53690
           25401         2.29845
           25402         5.56385
           25403         5.96250
           25404         6.89656
           25405         6.54477
           25406         6.27921
           25407         4.27919
           25408         5.86310
           25409     823.591E-03
           25410     969.395E-03
           25411     667.595E-03
           25412         4.15585
           25413         4.54722
           25414     895.349E-03
           25415     895.314E-03
           25416     998.901E-03
           25417     996.707E-03
           25418     241.039E-03
           25419     141.023E-03
           25420     273.176E-03
           25421     163.379E-03
           25422     270.264E-03
           25423     137.089E-03
           25424         4.83689
           25425         3.80834
           25426         4.56085
           25427         2.62628
           25428         2.65240
           25429     768.719E-03
           25430         2.42423
           25431         2.23325
           25432     237.493E-03
           25433         3.22974
           25434         3.10406
           25435     168.213E-03
           25436     148.602E-03
           25437         1.73403
           25438         1.66990
           25439         2.46436
           25440         2.40118
           25441         2.77851
           25442         2.78236
           25443         5.48148
           25444         5.45801
           25445         2.00223
           25446         6.41243
           25447         6.60626
           25448         6.85679
           25449         6.67642
           25450         6.57126
           25451         7.06190
           25452         2.86790
           25453     61.7929E-03
           25454     66.1542E-03
           25455     147.902E-03
           25456         2.21928
           25457         2.33700
           25458         2.20705
           25459         2.26713
           25460         2.26239
           25461         5.63596
           25462     94.2606E-03
           25463     38.0449E-03
           25464     95.2823E-03
           25465         1.53125
           25466         1.12293
           25467     814.470E-03
           25468         7.60585
           25469         7.09188
           25470         6.95881
           25471         6.72189
           25472     53.7389E-03
           25473         3.79046
           25474         7.44690
           25475     109.894E-03
           25476     113.794E-03
           25477     40.6958E-03
           25478     99.1329E-03
           25479     786.798E-03
           25480         1.02255
           25481         2.79726
           25482     814.011E-03
           25483     244.246E-03
           25484     239.029E-03
           25485     556.338E-03
           25486     36.4732E-03
           25487         1.59421
           25488         3.31518
           25489         3.52382
           25490         3.85484
           25491         3.14812
           25492         2.31534
           25493     433.661E-03
           25494     224.093E-03
           25495     148.495E-03
           25496     157.409E-03
           25497     215.713E-03
           25498     27.1115E-03
           25499     30.5625E-03
           25500         5.78867
           25501         5.02550
           25502         5.48456
           25503     196.216E-03
           25504     257.106E-03
           25505     867.374E-03
           25506         3.10300
           25507         3.30202
           25508         3.23183
           25509         4.20350
           25510         5.73615
           25511         5.55129
           25512         2.39224
           25513         1.88695
           25514         1.68424
           25515         3.53259
           25516         4.15019
           25517         5.81650
           25518         4.61832
           25519         5.74255
           25520         6.22419
           25521         5.31873
           25522     69.5206E-03
           25523     56.1057E-03
           25524     67.7714E-03
           25525         6.15865
           25526         6.37140
           25527     70.2389E-03
           25528         6.19551
           25529     108.144E-03
           25530     39.4795E-03
           25531     111.146E-03
           25532         2.96271
           25533         2.92831
           25534         2.85902
           25535         3.45458
           25536         8.47718
           25537         9.16806
           25538         4.09144
           25539         6.03398
           25540         5.66460
           25541         5.43258
           25542         5.39798
           25543         5.62524
           25544         1.16406
           25545         1.20008
           25546         4.80351
           25547         4.56105
           25548         4.72736
           25549         8.07050
           25550         7.58123
           25551         8.11228
           25552         8.12554
           25553         9.22450
           25554         8.49889
           25555     84.1976E-03
           25556     71.8002E-03
           25557     89.8607E-03
           25558     53.3228E-03
           25559     43.9645E-03
           25560     73.7946E-03
           25561     86.0010E-03
           25562         6.07430
           25563         21.6579
           25564         21.5930
           25565         21.5994
           25566         3.53388
           25567         3.97610
           25568         4.56506
           25569         4.45161
           25570         2.76169
           25571         1.13095
           25572         1.37510
           25573         1.37296
           25574         3.77034
           25575         9.45747
           25576         9.02022
           25577         10.1875
           25578         5.09185
           25579         4.57998
           25580         4.05476
           25581     530.131E-03
           25582     115.881E-03
           25583     166.294E-03
           25584     416.969E-03
           25585     516.674E-03
           25586     572.295E-03
           25587     23.1992E-03
           25588     20.0818E-03
           25589     147.697E-03
           25590     217.634E-03
           25591     817.827E-03
           25592         5.91116
           25593         21.3615
           25594         8.63140
           25595         1.28222
           25596         2.36934
           25597         1.90046
           25598         1.94971
           25599         1.95259
           25600     170.238E-03
           25601         2.81764
           25602     47.6737E-03
           25603     21.0202E-03
           25604     17.1359E-03
           25605     335.865E-03
           25606     455.245E-03
           25607         7.16132
           25608         6.37706
           25609     357.359E-03
           25610     703.228E-03
           25611     955.343E-03
           25612         1.06361
           25613     768.589E-03
           25614     917.945E-03
           25615         1.03108
           25616         3.79336
           25617         3.55328
           25618     416.302E-03
           25619     610.632E-03
           25620     794.993E-03
           25621     518.466E-03
           25622     517.161E-03
           25623         1.02188
           25624         2.18359
           25625     939.056E-03
           25626     988.862E-03
           25627     92.1206E-03
           25628     127.751E-03
           25629         1.95191
           25630     532.054E-03
           25631     232.981E-03
           25632     198.770E-03
           25633     659.961E-03
           25634     905.046E-03
           25635         1.15631
           25636     902.415E-03
           25637     387.264E-03
           25638     891.853E-03
           25639         2.61780
           25640         5.49091
           25641     469.901E-03
           25642     876.721E-03
           25643     619.386E-03
           25644     658.965E-03
           25645         8.65949
           25646         8.83971
           25647         1.45913
           25648         1.37438
           25649         1.45108
           25650         1.38341
           25651         11.1969
           25652         7.51770
           25653         8.71708
           25654         7.92979
           25655         8.93747
           25656         8.51153
           25657         8.52025
           25658         10.2250
           25659         8.91310
           25660         6.88357
           25661         3.67455
           25662         3.86157
           25663         4.66609
           25664         4.45032
           25665         4.93721
           25666         4.66122
           25667         4.03037
           25668         4.46923
           25669         5.06802
           25670         7.18724
           25671         6.01958
           25672         4.25908
           25673         4.18800
           25674         4.80944
           25675         3.66842
           25676     32.7393E-03
           25677     73.8923E-03
           25678         3.21499
           25679         3.34419
           25680         1.85895
           25681     21.3520E-03
           25682         5.45142
           25683     389.682E-03
           25684     517.215E-03
           25685     767.639E-03
           25686         2.50309
           25687         2.50708
           25688     892.671E-03
           25689     857.729E-03
           25690         1.31613
           25691     768.184E-03
           25692     682.396E-03
           25693     800.050E-03
           25694     931.089E-03
           25695         2.95302
           25696         1.91273
           25697     48.9952E-03
           25698     394.691E-03
           25699     315.546E-03
           25700         1.45218
           25701         1.92545
           25702         1.76160
           25703         3.14060
           25704         3.13901
           25705     304.770E-03
           25706     791.845E-03
           25707         1.56924
           25708         3.24499
           25709         3.33478
           25710         1.71972
           25711         2.09370
           25712         2.78407
           25713     351.159E-03
           25714         1.66453
           25715         1.68261
           25716     801.260E-03
           25717     663.406E-03
           25718         2.87349
           25719     574.197E-03
           25720     574.712E-03
           25721         2.69505
           25722         2.98367
           25723         4.13046
           25724         4.21259
           25725         4.99996
           25726         3.66662
           25727         5.28116
           25728         4.13929
           25729         4.63712
           25730         3.55448
           25731         3.81404
           25732         3.92024
           25733         5.90602
           25734         4.32777
           25735         3.51148
           25736         3.04390
           25737         3.62090
           25738     427.752E-03
           25739     312.720E-03
           25740         3.25747
           25741     489.145E-03
           25742     609.677E-03
           25743         5.20464
           25744     272.144E-03
           25745     845.148E-03
           25746     676.460E-03
           25747     762.129E-03
           25748     420.193E-03
           25749     407.423E-03
           25750     501.277E-03
           25751         1.19387
           25752     684.744E-03
           25753         2.75098
           25754         2.71904
           25755         2.30280
           25756         2.81662
           25757         2.89875
           25758         2.74922
           25759         2.86798
           25760         6.40929
           25761         2.71808
           25762         2.81591
           25763         3.78851
           25764         3.61834
           25765         4.07739
           25766         3.94220
           25767         3.68348
           25768         4.20844
           25769         4.10491
           25770         5.59129
           25771         6.11625
           25772         8.12819
           25773         8.12530
           25774         7.95620
           25775         7.96198
           25776         8.42976
           25777         6.40342
           25778     262.130E-03
           25779         5.94772
           25780         6.59197
           25781         6.44478
           25782     91.0828E-03
           25783     37.4747E-03
           25784     37.8138E-03
           25785     476.417E-03
           25786         8.76129
           25787         8.41743
           25788         8.90704
           25789         1.75357
           25790         1.44645
           25791         1.16640
           25792         2.03499
           25793         1.87044
           25794         1.87144
           25795         7.54733
           25796         7.24213
           25797         2.00247
           25798         2.05831
           25799         6.58984
           25800         1.93886
           25801         7.28095
           25802         2.08996
           25803         2.04024
           25804         1.98891
           25805         1.95335
           25806         2.07191
           25807         2.13090
           25808         2.08744
           25809         2.17324
           25810         2.15713
           25811         2.13044
           25812         2.05807
           25813         2.39370
           25814         2.50201
           25815         2.38855
           25816         2.47272
           25817         3.22283
           25818         3.56100
           25819         3.13233
           25820         2.93464
           25821         3.40786
           25822         3.42687
           25823         3.32438
           25824         3.88117
           25825         3.76933
           25826         3.87967
           25827         3.41226
           25828         8.60090
           25829         3.97207
           25830         2.67676
           25831         5.39298
           25832         5.57799
           25833         7.02114
           25834         5.85377
           25835         5.91878
           25836         8.87606
           25837         9.40477
           25838         9.43222
           25839         6.06283
           25840         5.13778
           25841         6.04518
           25842         6.34915
           25843         5.18241
           25844         7.14708
           25845         6.78169
           25846         7.10562
           25847         6.92899
           25848         9.13485
           25849         8.66326
           25850         9.13053
           25851         7.81862
           25852         8.90622
           25853         8.89157
           25854         9.39572
           25855         8.51381
           25856         8.53233
           25857         9.04293
           25858         8.65473
           25859         8.63849
           25860         8.66852
           25861         8.74818
           25862         8.75019
           25863         8.66805
           25864         9.25562
           25865         7.42152
           25866         5.55002
           25867         5.27173
           25868         9.33894
           25869         9.34299
           25870         8.82217
           25871         3.43465
           25872         2.65268
           25873     74.5459E-03
           25874         2.58065
           25875         1.68090
           25876         2.16944
           25877         1.88058
           25878         1.85535
           25879         2.42747
           25880         2.41519
           25881         2.40471
           25882         2.57840
           25883         9.40474
           25884         8.91046
           25885         9.42778
           25886         2.42463
           25887         2.68975
           25888         1.87671
           25889         2.68970
           25890         2.19659
           25891         2.67324
           25892         2.89242
           25893         2.41245
           25894         2.56932
           25895         8.40836
           25896         6.28333
           25897         6.17088
           25898         3.12586
           25899         3.14552
           25900         3.33301
           25901         9.26886
           25902         3.22148
           25903         3.42332
           25904         3.34227
           25905         4.15931
           25906         3.99991
           25907         3.39558
           25908         4.50560
           25909         9.40038
           25910         3.52005
           25911         4.26798
           25912         5.81399
           25913         5.30712
           25914         5.34763
           25915         5.33499
           25916         4.87402
           25917         5.43516
           25918         7.02528
           25919         9.26514
           25920         9.16255
           25921         8.73534
           25922         4.89133
           25923         5.03241
           25924         7.48814
           25925         7.63728
           25926         7.63855
           25927         8.65731
           25928         9.04767
           25929         4.55310
           25930         6.04215
           25931         3.10143
           25932         3.61161
           25933     319.140E-03
           25934         1.11754
           25935         1.77698
           25936         7.81227
           25937         1.94050
           25938         2.45199
           25939         3.00084
           25940         2.32900
           25941         2.47044
           25942         2.50411
           25943         2.43964
           25944         2.45323
           25945         2.35447
           25946         6.19373
           25947         6.04573
           25948         6.27112
           25949         7.81364
           25950         8.25452
           25951         8.07684
           25952         8.07618
           25953         2.68911
           25954         2.72635
           25955         2.59281
           25956         2.74661
           25957         2.93280
           25958         2.93591
           25959         2.83005
           25960         2.72289
           25961         2.77615
           25962         2.74835
           25963         3.02979
           25964         3.18858
           25965         6.22871
           25966         3.26814
           25967         3.58750
           25968         7.71430
           25969         7.30897
           25970         7.71273
           25971         7.48629
           25972         7.89454
           25973         6.61435
           25974         5.98811
           25975         5.40131
           25976         5.56862
           25977         4.98532
           25978         4.80761
           25979         4.45849
           25980         4.60807
           25981         5.33805
           25982         7.66889
           25983         7.91449
           25984         5.95903
           25985         7.35230
           25986         7.68477
           25987         7.54124
           25988         7.65581
           25989         5.35378
           25990         3.81049
           25991         3.21183
           25992         4.30260
           25993         4.11156
           25994         1.56361
           25995         1.83908
           25996         2.37589
           25997         2.40006
           25998         2.70800
           25999         2.48267
           26000         2.40442
           26001         2.83032
           26002         2.87618
           26003         2.87331
           26004         6.34803
           26005         6.34771
           26006         6.20880
           26007         2.58720
           26008         2.66816
           26009         4.68149
           26010         2.41430
           26011         6.46891
           26012         5.76206
           26013         6.60761
           26014         6.88215
           26015         5.52326
           26016         3.61764
           26017         6.50400
           26018         6.39549
           26019         5.42509
           26020         5.81565
           26021         1.49917
           26022     433.279E-03
           26023     848.088E-03
           26024         2.66859
           26025         2.63486
           26026         2.63723
           26027         2.64302
           26028         2.53025
           26029         2.65217
           26030         2.66406
           26031         2.64624
           26032         2.65606
           26033         2.65201
           26034         2.68710
           26035         2.68463
           26036         5.23390
           26037         5.49099
           26038         2.57934
           26039         3.48681
           26040         3.38669
           26041         2.50051
           26042         2.55312
           26043         2.86695
           26044         2.80465
           26045         3.68991
           26046         2.42659
           26047         2.92218
           26048         4.98821
           26049         2.30070
           26050         7.44805
           26051         10.0291
           26052         3.13560
           26053         5.53439
           26054         6.34694
           26055         3.34375
           26056         3.23802
           26057         3.29950
           26058         5.95638
           26059         9.31382
           26060         9.44903
           26061         4.98828
           26062         4.86869
           26063         4.78733
           26064         7.01359
           26065         8.33315
           26066         2.92790
           26067         3.30667
           26068         1.08939
           26069         1.04560
           26070         1.62940
           26071         3.79409
           26072         2.66350
           26073         2.50191
           26074         2.68146
           26075         2.40337
           26076         1.00018
           26077         1.10939
           26078         4.75090
           26079         4.75129
           26080         4.63565
           26081         4.55914
           26082         4.55874
           26083         4.67441
           26084         2.67246
           26085         2.58802
           26086         4.22617
           26087         2.65433
           26088         1.55993
           26089         1.67323
           26090         2.70563
           26091         2.62665
           26092         2.76805
           26093         2.78854
           26094         2.57839
           26095         2.60674
           26096         4.52113
           26097         4.44808
           26098         2.88432
           26099         3.23247
           26100         2.16546
           26101         2.14438
           26102         2.12017
           26103         2.70955
           26104         3.73378
           26105         6.46510
           26106         6.71588
           26107         8.63811
           26108         11.4659
           26109         6.48852
           26110         3.53727
           26111         6.24282
           26112         6.05224
           26113         7.46040
           26114         7.64680
           26115         7.53561
           26116         6.40773
           26117         6.99036
           26118         7.36896
           26119         7.22524
           26120         2.67376
           26121         2.69128
           26122         6.21770
           26123         6.07490
           26124         5.83931
           26125         3.10603
           26126         3.07120
           26127         3.64450
           26128         3.48938
           26129         3.64448
           26130         4.89233
           26131     583.719E-03
           26132     507.974E-03
           26133     333.914E-03
           26134         2.06165
           26135         2.13764
           26136         2.31616
           26137         2.57462
           26138         2.97458
           26139         2.97462
           26140         3.00135
           26141         3.00144
           26142         2.58654
           26143         2.57063
           26144         2.68211
           26145         2.67936
           26146         2.92738
           26147         3.53391
           26148         3.42021
           26149         4.24839
           26150         2.14274
           26151         4.65894
           26152         3.10512
           26153         5.20810
           26154         5.51085
           26155         4.96396
           26156         2.12872
           26157         5.77786
           26158         5.68434
           26159         4.76455
           26160         3.21562
           26161         3.63840
           26162         2.74950
           26163         2.82987
           26164         1.18898
           26165         1.33091
           26166         1.11764
           26167         2.55382
           26168         2.56751
           26169         1.10066
           26170         3.30441
           26171         1.96438
           26172         2.04161
           26173         1.85473
           26174         1.85753
           26175         1.94860
           26176         2.79047
           26177         2.84823
           26178         2.56731
           26179         2.74259
           26180         2.66892
           26181         2.41934
           26182         2.36158
           26183         2.50270
           26184         2.19908
           26185         3.35821
           26186         4.27498
           26187         3.66186
           26188         2.72218
           26189         1.91690
           26190         5.39076
           26191         3.66476
           26192         5.19097
           26193         2.14745
           26194         1.91124
           26195         1.91135
           26196         1.90039
           26197         1.80029
           26198         1.90020
           26199         2.65050
           26200         2.24371
           26201         2.56304
           26202         2.54784
           26203         4.52026
           26204         4.22220
           26205         3.25211
           26206         1.89975
           26207         2.33118
           26208         1.98551
           26209         2.84846
           26210     361.754E-03
           26211         1.43636
           26212         1.47871
           26213         1.44692
           26214         1.36748
           26215         1.44661
           26216         1.47843
           26217     738.577E-03
           26218     648.185E-03
           26219     727.508E-03
           26220     884.631E-03
           26221     734.535E-03
           26222     603.611E-03
           26223         2.14607
           26224         1.67914
           26225         1.54685
           26226         1.16488
           26227         1.22018
           26228         1.33374
           26229         1.27631
           26230         1.22052
           26231         2.05628
           26232         2.03883
           26233         2.08145
           26234         2.16440
           26235         2.16454
           26236         1.92127
           26237         1.76672
           26238         2.10923
           26239         2.73861
           26240         6.03142
           26241         4.46156
           26242         4.58811
           26243         3.84179
           26244     48.3847E-03
           26245     40.0985E-03
           26246     786.414E-03
           26247         3.85586
           26248         5.18628
           26249         5.94297
           26250         5.73528
           26251         5.24336
           26252         5.67520
           26253     587.707E-03
           26254     582.896E-03
           26255     586.940E-03
           26256         8.88127
           26257         1.67975
           26258         1.73675
           26259         2.02387
           26260         3.29296
           26261         4.17601
           26262     676.213E-03
           26263     119.089E-03
           26264     168.861E-03
           26265     657.185E-03
           26266     420.156E-03
           26267     406.207E-03
           26268     495.003E-03
           26269     502.622E-03
           26270     407.673E-03
           26271     613.362E-03
           26272     35.2553E-03
           26273     531.681E-03
           26274     401.889E-03
           26275         1.23621
           26276         2.71022
           26277         1.07038
           26278     348.840E-03
           26279     252.057E-03
           26280     250.456E-03
           26281     326.510E-03
           26282     948.285E-03
           26283         1.42406
           26284         2.13281
           26285     779.659E-03
           26286         1.22924
           26287         1.49940
           26288         1.90285
           26289         1.81180
           26290     860.323E-03
           26291         5.43372
           26292         5.27859
           26293         6.18453
           26294         5.94990
           26295         5.49513
           26296     35.0997E-03
           26297     35.3727E-03
           26298         7.65672
           26299         7.69855
           26300         3.32912
           26301     46.1377E-03
           26302     5.37844E-03
           26303     82.3185E-03
           26304     122.930E-03
           26305         2.70880
           26306         2.79406
           26307     435.894E-03
           26308     411.633E-03
           26309     380.684E-03
           26310         4.54589
           26311         6.93343
           26312         5.26315
           26313         5.24515
           26314     24.4177E-03
           26315         2.63570
           26316         2.64767
           26317         2.64981
           26318         2.54878
           26319         2.59845
           26320         2.70053
           26321         4.07870
           26322     50.0104E-03
           26323     45.6225E-03
           26324         2.72496
           26325         3.03425
           26326         2.95815
           26327         3.08325
           26328         5.53686
           26329         5.48882
           26330     758.402E-03
           26331     19.0158E-03
           26332     47.1910E-03
           26333     45.0179E-03
           26334         3.52563
           26335         2.71661
           26336         2.58038
           26337         2.94124
           26338     23.5770E-03
           26339     24.7070E-03
           26340     4.01740E-03
           26341         2.60265
           26342         2.62324
           26343         2.61114
           26344         2.57903
           26345     41.7240E-03
           26346     41.3952E-03
           26347         2.61304
           26348         2.61506
           26349         2.59206
           26350         2.61897
           26351         7.23647
           26352         5.96748
           26353         5.45535
           26354         5.15738
           26355         8.16932
           26356         7.00716
           26357         6.80126
           26358         7.39150
           26359         8.02531
           26360         7.77130
           26361         8.80968
           26362         7.68112
           26363         1.54720
           26364         1.84905
           26365         1.71764
           26366         6.04674
           26367         4.49310
           26368         3.27450
           26369         3.44278
           26370         3.67063
           26371         5.56036
           26372         7.11021
           26373         6.37437
           26374         7.01130
           26375         7.13301
           26376         3.57905
           26377         3.40370
           26378         3.44719
           26379         2.65620
           26380         2.62831
           26381         2.59073
           26382         2.64510
           26383         3.57843
           26384         7.74901
           26385         7.90588
           26386         8.13161
           26387         7.98640
           26388         7.73027
           26389         7.81278
           26390         6.49723
           26391         7.06935
           26392         2.45676
           26393         2.04732
           26394         2.09058
           26395         8.85156
           26396         10.5435
           26397         8.78385
           26398         2.30796
           26399         2.39229
           26400         2.31967
           26401         1.92881
           26402         1.98593
           26403         2.01527
           26404     581.743E-03
           26405         3.31198
           26406         3.60761
           26407         1.88477
           26408         3.10533
           26409         1.41119
           26410         2.31883
           26411         2.29079
           26412     616.793E-03
           26413         3.09949
           26414         2.17488
           26415         2.05954
           26416         2.83718
           26417         2.63537
           26418         2.39015
           26419     22.1734E-03
           26420         2.33836
           26421         2.35078
           26422         2.40166
           26423         2.44153
           26424         2.29778
           26425         4.02619
           26426         2.52034
           26427         2.60979
           26428         2.39942
           26429         2.42497
           26430         4.09452
           26431         2.43241
           26432         5.94981
           26433         2.89711
           26434         5.85667
           26435         4.76550
           26436         2.79986
           26437         2.76369
           26438         4.76407
           26439         3.80038
           26440         2.76520
           26441         2.39044
           26442         2.70365
           26443         3.77791
           26444         2.93123
           26445         2.44994
           26446         2.52556
           26447         2.90309
           26448         2.62865
           26449         2.58763
           26450         2.68516
           26451         2.69200
           26452         2.53516
           26453         2.73494
           26454         2.70727
           26455         2.68944
           26456         6.54526
           26457         2.67226
           26458         2.68389
           26459         2.67633
           26460         2.68078
           26461         2.67851
           26462         2.61555
           26463         3.03206
           26464         2.59521
           26465         3.04256
           26466         2.75461
           26467         2.53821
           26468         3.04158
           26469         3.18907
           26470         2.74378
           26471         2.81750
           26472         2.77834
           26473         3.49618
           26474         2.64884
           26475         2.86788
           26476         3.00130
           26477         2.58739
           26478         2.87620
           26479         2.64438
           26480         2.19258
           26481         2.62944
           26482         2.68938
           26483         2.81908
           26484         2.67098
           26485         2.67216
           26486         2.65590
           26487         4.67443
           26488         4.75138
           26489         2.73008
           26490         3.21617
           26491         2.77965
           26492         2.81321
           26493         2.63192
           26494         2.91673
           26495         2.78406
           26496         3.02158
           26497         3.33976
           26498         3.51763
           26499         3.79740
           26500         3.85976
           26501         3.85982
           26502         3.85974
           26503         3.28924
           26504         2.58784
           26505         2.52472
           26506         4.07683
           26507         4.07676
           26508         2.94913
           26509         3.73606
           26510         4.52131
           26511         3.70814
           26512         3.49673
           26513         3.45086
           26514         3.33411
           26515         2.96508
           26516         5.69080
           26517     118.375E-03
           26518         3.14060
           26519         3.06795
           26520         2.50740
           26521         1.44717
           26522         1.04969
           26523         1.29205
           26524     718.868E-03
           26525         2.49410
           26526         1.89980
           26527         1.83891
           26528         2.65581
           26529     799.775E-03
           26530         3.58646
           26531     14.9909E-03
           26532         2.67543
           26533         1.82194
           26534     456.374E-03
           26535     280.680E-03
           26536     174.774E-03
           26537     95.3404E-03
           26538     18.1895E-03
           26539         1.39347
           26540         1.90433
           26541     483.333E-03
           26542     605.874E-03
           26543     800.491E-03
           26544     987.775E-03
           26545     771.654E-03
           26546     824.216E-03
           26547     880.046E-03
           26548     802.755E-03
           26549         2.62891
           26550         1.48011
           26551         1.50717
           26552         1.35940
           26553         2.59701
           26554     863.791E-03
           26555     744.697E-03
           26556     764.500E-03
           26557         1.16411
           26558     713.603E-03
           26559     535.165E-03
           26560     460.949E-03
           26561         6.01673
           26562         2.42357
           26563         2.65895
           26564     724.563E-03
           26565         5.93875
           26566         1.07506
           26567     754.076E-03
           26568     733.936E-03
           26569         2.69185
           26570         2.19813
           26571     393.374E-03
           26572     376.636E-03
           26573         2.62662
           26574         2.59627
           26575         1.29827
           26576     996.358E-03
           26577     331.239E-03
           26578     257.831E-03
           26579     455.222E-03
           26580     620.429E-03
           26581     601.666E-03
           26582     390.245E-03
           26583         2.63828
           26584         2.58413
           26585     184.263E-03
           26586         1.48333
           26587         1.21872
           26588         2.74697
           26589     145.571E-03
           26590     45.2595E-03
           26591         2.56504
           26592         2.75788
           26593         2.84474
           26594     332.041E-03
           26595         1.34849
           26596         1.62312
           26597     484.721E-03
           26598         1.59564
           26599         1.62911
           26600     721.473E-03
           26601     675.827E-03
           26602     168.615E-03
           26603     520.447E-03
           26604     665.096E-03
           26605         2.14172
           26606         5.28059
           26607     118.844E-03
           26608         1.56079
           26609     506.455E-03
           26610     353.260E-03
           26611     186.195E-03
           26612         1.00556
           26613     645.945E-03
           26614     845.989E-03
           26615     784.278E-03
           26616     321.370E-03
           26617     641.349E-03
           26618     24.4399E-03
           26619     19.0557E-03
           26620     41.5419E-03
           26621         1.36019
           26622     34.3317E-03
           26623     58.5083E-03
           26624     744.099E-03
           26625         5.17168
           26626         5.92870
           26627         1.32760
           26628         2.79374
           26629     9.45894E-03
           26630     27.0257E-03
           26631         3.21363
           26632         2.11384
           26633         1.96781
           26634         1.52207
           26635         1.55248
           26636         1.51746
           26637         1.54337
           26638     438.580E-03
           26639         1.99642
           26640         1.71345
           26641         1.90787
           26642     408.017E-03
           26643     507.043E-03
           26644         1.24222
           26645     34.1476E-03
           26646     217.766E-03
           26647         4.12049
           26648         5.35402
           26649     403.551E-03
           26650         4.04076
           26651         3.79450
           26652         4.18084
           26653         3.36571
           26654         3.54967
           26655         3.22125
           26656         3.52055
           26657     972.613E-03
           26658         4.87273
           26659     582.986E-03
           26660         1.48575
           26661     782.108E-03
           26662         2.31627
           26663         3.11853
           26664         3.43614
           26665         1.45479
           26666         2.03717
           26667         2.80909
           26668         1.29386
           26669         2.43960
           26670         1.92806
           26671         1.33838
           26672     252.229E-03
           26673     459.304E-03
           26674         1.56017
           26675         1.08591
           26676         3.73229
           26677         3.44605
           26678         2.26380
           26679         1.23696
           26680         3.03625
           26681     610.739E-03
           26682     748.149E-03
           26683         2.79623
           26684         2.84124
           26685         2.41519
           26686         1.80672
           26687         1.94325
           26688         2.14504
           26689     30.1053E-03
           26690     31.3308E-03
           26691     588.423E-03
           26692     23.9465E-03
           26693     126.248E-03
           26694         2.64282
           26695         5.25732
           26696         4.53153
           26697         2.80611
           26698         2.63440
           26699         10.5237
           26700         7.65086
           26701         1.50498
           26702         1.43853
           26703         1.29984
           26704     859.264E-03
           26705         2.19866
           26706     702.435E-03
           26707         1.12362
           26708         1.38966
           26709         2.53971
           26710         2.36839
           26711         5.87496
           26712         5.42862
           26713         5.53863
           26714     54.5085E-03
           26715     238.699E-03
           26716     138.984E-03
           26717     305.721E-03
           26718     167.828E-03
           26719         2.14244
           26720         2.21514
           26721         3.42434
           26722         2.15905
           26723     459.423E-03
           26724     326.802E-03
           26725         1.41047
           26726         1.36895
           26727         1.36736
           26728         1.20571
           26729         1.22100
           26730         2.61550
           26731         2.68706
           26732         1.51859
           26733         1.40746
           26734         1.28192
           26735         1.53998
           26736         1.23677
           26737         1.21536
           26738     928.139E-03
           26739         2.75175
           26740         2.73208
           26741         1.67558
           26742         1.45402
           26743         1.40498
           26744     687.664E-03
           26745     78.8632E-03
           26746     93.5079E-03
           26747         2.57369
           26748         2.64117
           26749         2.55314
           26750         2.54523
           26751         2.53243
           26752     181.967E-03
           26753         2.42823
           26754         2.37921
           26755         2.44813
           26756         2.57616
           26757     351.495E-03
           26758         2.25051
           26759     264.548E-03
           26760     268.580E-03
           26761         2.44070
           26762         2.53307
           26763         1.80431
           26764         1.46478
           26765         1.83477
           26766     869.330E-03
           26767         2.39942
           26768         2.05268
           26769         8.87928
           26770         8.97723
           26771         2.70370
           26772         5.58737
           26773         5.02246
           26774         7.90801
           26775         7.91908
           26776         10.0387
           26777         8.07496
           26778         7.97271
           26779         29.1486
           26780         20.6572
           26781         12.1651
           26782         10.8871
           26783         12.6594
           26784         3.99807
           26785         5.38883
           26786         2.40136
           26787         6.68500
           26788     785.661E-03
           26789         6.29594
           26790         1.44643
           26791         6.45587
           26792         1.91644
           26793         2.17432
           26794         1.28975
           26795         3.46483
           26796         2.02090
           26797         2.18572
           26798         6.34975
           26799     682.376E-03
           26800         2.54115
           26801         2.68866
           26802     208.249E-03
           26803         1.17339
           26804     967.292E-03
           26805         1.06228
           26806         2.66735
           26807     551.008E-03
           26808     353.462E-03
           26809         2.48622
           26810         2.51162
           26811         5.64952
           26812         2.44382
           26813         2.45080
           26814         6.52566
           26815         6.48090
           26816         7.03264
           26817         2.12650
           26818     999.797E-03
           26819         5.45662
           26820         7.60004
           26821         2.50420
           26822         1.54222
           26823         4.53812
           26824         3.95278
           26825         2.32701
           26826         2.59982
           26827         2.96017
           26828         2.66192
           26829         3.60820
           26830         2.65837
           26831         2.47962
           26832         2.65496
           26833         2.65450
           26834         2.55743
           26835         2.52679
           26836         2.52976
           26837     67.2019E-03
           26838     72.0746E-03
           26839         1.42411
           26840     956.275E-03
           26841     959.736E-03
           26842         2.34393
           26843         2.51276
           26844         3.58255
           26845         3.43352
           26846         5.51597
           26847         5.03266
           26848         9.66151
           26849         9.06507
           26850         8.07661
           26851         21.5074
           26852         2.43782
           26853         10.2961
           26854         8.73901
           26855         2.50348
           26856         7.49716
           26857         7.40113
           26858         7.98582
           26859         8.65514
           26860         7.08797
           26861         7.38404
           26862         7.02875
           26863         11.5563
           26864         11.7826
           26865         7.02869
           26866         6.99405
           26867         6.16497
           26868         5.59155
           26869         6.50561
           26870         8.76285
           26871         8.83669
           26872         9.34176
           26873         9.13283
           26874         5.75396
           26875         4.13879
           26876         5.74601
           26877         7.76626
           26878         7.76678
           26879         8.11428
           26880         8.36914
           26881         8.36988
           26882         7.79184
           26883         8.03210
           26884         8.37013
           26885         8.90057
           26886         9.42697
           26887         7.55855
           26888         7.56970
           26889         7.29273
           26890         7.84039
           26891         7.84291
           26892         7.56240
           26893         7.84673
           26894         7.25620
           26895         6.39246
           26896         1.95295
           26897         6.00751
           26898         2.57554
           26899         2.99053
           26900         7.16463
           26901         5.29700
           26902         8.33291
           26903         5.97063
           26904         7.14733
           26905         5.98946
           26906         3.63267
           26907         8.15486
           26908         10.5104
           26909         8.53492
           26910         9.73277
           26911         9.71430
           26912         9.10829
           26913         9.12536
           26914         6.69783
           26915         2.58634
           26916         2.59655
           26917         11.9128
           26918         2.58561
           26919         2.60758
           26920         17.9676
           26921         4.92737
           26922         13.0644
           26923         8.94529
           26924         5.63336
           26925         2.71231
           26926         5.07404
           26927         2.92843
           26928         8.39285
           26929         5.68196
           26930         5.77802
           26931         5.61891
           26932         1.93673
           26933         3.56270
           26934         3.68488
           26935         3.50894
           26936         4.06277
           26937         6.31296
           26938         2.57661
           26939         2.59021
           26940         2.55330
           26941         2.59763
           26942         2.77638
           26943         2.69382
           26944         8.18601
           26945         3.21277
           26946         3.42833
           26947         2.53413
           26948         9.09698
           26949         8.62270
           26950         3.65908
           26951         1.90786
           26952         4.23685
           26953         4.39239
           26954         6.57793
           26955         2.45287
           26956         1.86047
           26957         6.12250
           26958         3.65098
           26959         11.8483
           26960         5.54319
           26961         4.41815
           26962         3.46951
           26963         4.39809
           26964         2.82618
           26965         2.69711
           26966         2.09046
           26967         4.70349
           26968         3.24392
           26969         4.32361
           26970         5.65738
           26971         2.38373
           26972         2.34193
           26973         2.54220
           26974         2.49519
           26975         3.95083
           26976         3.31465
           26977         3.51007
           26978         1.96118
           26979         2.86085
           26980         2.00925
           26981         3.79873
           26982         4.55466
           26983         1.95678
           26984         1.93188
           26985         2.71011
           26986         5.60224
           26987         2.22865
           26988         2.12562
           26989         4.09897
           26990         5.49117
           26991         2.67535
           26992         6.66506
           26993         5.76863
           26994         5.55084
           26995         6.35151
           26996         6.66730
           26997     806.555E-03
           26998         3.81431
           26999         3.71069
           27000         3.47103
           27001         1.90983
           27002         4.72086
           27003         6.83134
           27004         5.08603
           27005         7.00222
           27006     602.389E-03
           27007         7.31045
           27008         6.90010
           27009         4.44697
           27010         5.01342
           27011         5.80435
           27012         6.75078
           27013         6.41760
           27014         7.48369
           27015         7.63536
           27016         7.71188
           27017         8.07583
           27018         7.81144
           27019         7.03541
           27020         7.96110
           27021         6.17504
           27022         1.88343
           27023         3.29792
           27024         3.19886
           27025         3.20125
           27026         3.56857
           27027         2.07532
           27028         3.08494
           27029         5.40442
           27030         5.77198
           27031         7.41884
           27032         5.50585
           27033         18.1331
           27034         3.53830
           27035         6.91854
           27036         8.12941
           27037         8.26533
           27038         8.59701
           27039         5.17861
           27040         4.45393
           27041         4.63973
           27042     681.840E-03
           27043         4.74288
           27044         8.43134
           27045         6.23599
           27046         8.43011
           27047         5.00236
           27048         1.49662
           27049     660.791E-03
           27050         4.86643
           27051         1.38379
           27052         8.53046
           27053         6.62777
           27054         1.34270
           27055     602.666E-03
           27056         5.22845
           27057         2.38181
           27058     403.743E-03
           27059         1.15212
           27060         9.04451
           27061     600.078E-03
           27062         5.55476
           27063         1.22934
           27064         8.75896
           27065     991.090E-03
           27066     582.595E-03
           27067     433.982E-03
           27068     185.352E-03
           27069         2.50021
           27070         3.35235
           27071         2.27210
           27072         5.00154
           27073         2.25824
           27074         5.06062
           27075         4.43532
           27076         9.40371
           27077         9.55315
           27078         3.41269
           27079         5.79655
           27080     63.9401E-03
           27081     21.9929E-03
           27082     494.330E-03
           27083     598.837E-03
           27084         2.19851
           27085     92.2506E-03
           27086     332.639E-03
           27087     14.5034E-03
           27088     271.357E-03
           27089     47.3409E-03
           27090     68.4316E-03
           27091     570.559E-03
           27092     25.5904E-03
           27093     268.522E-03
           27094         3.68997
           27095         10.6130
           27096         9.51090
           27097     363.659E-03
           27098         7.93321
           27099         1.00566
           27100     106.026E-03
           27101     163.380E-03
           27102     976.429E-03
           27103     126.304E-03
           27104         1.00440
           27105         3.38302
           27106     427.697E-03
           27107         5.33679
           27108     172.599E-03
           27109         5.96814
           27110         4.74097
           27111     450.670E-03


  Minimum            2.09562E-03
         At Node              16

  Maximum                29.9694
         At Node              47

           Total     97.3586E+03


