********************************************************************************
Field Output Report, written Tue Feb  6 13:11:06 2024

Source 1
---------

   ODB: C:/Users/Daniel Gutierrez/Desktop/Back up 28-06-23/Imperial College/Imperial 2023-2024/AVD/pt2/github sims/AVD/iter 1.3/Job-MESH-50.odb
   Step: Loading down with g
   Frame: Increment      1: Step Time =    1.000

Loc 1 : Nodal values from source 1

Output sorted by column "Node Label".

Field Output reported at nodes for part: BLANK-1
   Computation algorithm: EXTRAPOLATE_COMPUTE_AVERAGE
   Averaged at nodes
   Averaging regions: ODB_REGIONS

      Node Label         S.Mises
                          @Loc 1
---------------------------------
               1         18.4101
               2         19.3545
               3         18.9064
               4         19.9827
               5         7.62903
               6         8.85429
               7         5.19585
               8         1.95544
               9         7.75941
              10         1.34483
              11         3.58369
              12     636.727E-03
              13     453.725E-03
              14     455.565E-03
              15     837.020E-03
              16     143.606E-03
              17     146.639E-03
              18     293.714E-03
              19     328.353E-03
              20         11.2111
              21         17.7486
              22         20.5389
              23         16.2849
              24         11.6766
              25         19.6754
              26         24.7061
              27         10.2821
              28         15.0258
              29         19.8086
              30         17.2934
              31         10.2133
              32         17.4847
              33         25.3810
              34         7.56974
              35         2.47794
              36         1.59674
              37         5.28722
              38         15.8814
              39         29.4024
              40         31.3972
              41         8.13348
              42         2.55098
              43         1.58580
              44         6.18431
              45         15.5501
              46         28.8146
              47         30.5642
              48         4.72220
              49         4.69244
              50         5.82051
              51         9.52569
              52         15.4870
              53         18.2745
              54         14.0732
              55         4.80379
              56         4.70308
              57         5.27601
              58         8.38582
              59         13.4921
              60         17.6251
              61         15.2705
              62         8.57852
              63         7.76611
              64         5.38409
              65         8.62750
              66         8.03759
              67         4.58773
              68         2.35192
              69         1.11579
              70         6.13809
              71         7.94460
              72         6.72787
              73         4.59439
              74         1.24182
              75     785.437E-03
              76         2.50526
              77         3.46182
              78         3.82766
              79         2.14606
              80     620.526E-03
              81     529.292E-03
              82         1.00460
              83         1.12016
              84     400.320E-03
              85         2.37936
              86         1.70110
              87     527.562E-03
              88     790.365E-03
              89         4.73165
              90         8.66243
              91         8.65895
              92         6.30359
              93         4.53482
              94         3.04592
              95         1.55627
              96     322.608E-03
              97     239.251E-03
              98         1.54640
              99         3.06272
             100         4.54900
             101         6.32998
             102         8.60604
             103         8.78712
             104         4.64979
             105     713.968E-03
             106     326.897E-03
             107         1.52279
             108         3.13413
             109         4.71806
             110         6.56689
             111         8.53355
             112         8.74245
             113         4.79281
             114     967.490E-03
             115     347.338E-03
             116         1.53362
             117         1.08141
             118     305.843E-03
             119     153.270E-03
             120         1.56247
             121         3.13308
             122         4.76130
             123         6.60840
             124         8.62080
             125         8.44681
             126         4.64008
             127     919.000E-03
             128     597.295E-03
             129     893.275E-03
             130     155.261E-03
             131         10.6999
             132         10.9909
             133         7.61617
             134         13.0800
             135         10.0469
             136         7.13903
             137         11.2609
             138         14.5442
             139         10.5160
             140         7.48662
             141         1.96033
             142         2.02235
             143         12.9305
             144         4.56083
             145         14.2850
             146         13.4303
             147         6.03037
             148         7.10465
             149         6.99316
             150         2.46594
             151         3.45037
             152         6.80726
             153         2.05181
             154         2.80141
             155         6.20346
             156         11.1499
             157         11.7536
             158         4.99497
             159         10.7878
             160         6.16409
             161         6.68617
             162         2.37078
             163         9.05822
             164         3.23860
             165         11.9096
             166         15.2136
             167         7.83456
             168         12.2507
             169         1.64636
             170         14.5890
             171         2.59132
             172         5.02159
             173         13.2566
             174         2.08639
             175         6.68991
             176         14.0664
             177         13.3973
             178         3.21395
             179         4.53093
             180         6.61123
             181         3.24223
             182         3.96432
             183     888.506E-03
             184         9.94602
             185         6.38699
             186         4.74852
             187         3.35211
             188         8.84070
             189         9.09832
             190         4.08067
             191         1.99329
             192         1.74485
             193         11.3333
             194         2.25692
             195         9.41708
             196         11.0529
             197         9.84086
             198         11.1022
             199     634.915E-03
             200         8.66657
             201         7.09050
             202         3.29060
             203         7.26936
             204         5.96733
             205         6.36193
             206         9.76033
             207         9.02025
             208         3.51362
             209         3.39926
             210         8.46154
             211         6.87724
             212         3.45596
             213         2.76463
             214         3.42361
             215         5.52912
             216         2.45918
             217         8.53775
             218     828.122E-03
             219         5.51771
             220         7.10495
             221         7.72589
             222         7.73600
             223         2.81131
             224         7.68326
             225         6.20946
             226         6.41326
             227         3.01763
             228         2.20478
             229         2.45530
             230         7.12129
             231         4.35516
             232         3.11169
             233         3.40612
             234         2.85271
             235         5.94562
             236     940.485E-03
             237         6.51778
             238         6.09506
             239         6.05089
             240         2.84032
             241         7.27487
             242         1.96874
             243         2.95131
             244         3.14953
             245         6.97084
             246         6.56607
             247         2.28847
             248         1.47127
             249         6.83753
             250         2.67989
             251         4.97866
             252         6.48949
             253         6.21998
             254         2.83814
             255         6.14634
             256         5.18191
             257         6.41593
             258         6.48956
             259         5.33956
             260         1.28406
             261         3.58050
             262         6.25238
             263         4.16041
             264         1.90425
             265         3.51487
             266         6.16640
             267         2.69524
             268         5.77676
             269         2.45792
             270         2.65725
             271         5.54637
             272         6.07337
             273         2.28359
             274         5.73474
             275         2.63152
             276         5.46638
             277         5.10463
             278         5.65661
             279         6.17228
             280         5.43577
             281         5.71073
             282         4.88261
             283         6.06860
             284         5.00229
             285         5.86087
             286         2.30793
             287         2.38766
             288         4.43007
             289         1.44849
             290         5.00483
             291         1.16146
             292         5.85117
             293         5.86708
             294         4.98740
             295         5.69037
             296         5.03077
             297         5.62966
             298         5.37156
             299         5.74851
             300         5.25468
             301         5.41020
             302         5.52055
             303         5.38157
             304         1.95336
             305         2.50239
             306         4.75366
             307         3.28376
             308         4.28888
             309         1.75294
             310         5.62275
             311         6.26212
             312         5.47792
             313         5.23204
             314         5.03712
             315         5.18721
             316         5.16735
             317         5.79765
             318         5.41045
             319         5.36931
             320         4.65892
             321         3.82488
             322         2.52353
             323         1.31641
             324         2.64541
             325         3.17946
             326         2.41566
             327         5.09656
             328         2.35870
             329         3.71014
             330         3.74122
             331         5.20586
             332         5.10791
             333         2.86364
             334         2.23181
             335         2.60658
             336         2.69375
             337         1.66367
             338         2.76126
             339         2.85446
             340         2.41370
             341         3.04091
             342         3.86670
             343     318.965E-03
             344         2.68004
             345         2.51551
             346         2.58762
             347         3.73560
             348         2.74490
             349         2.65425
             350         2.68642
             351         3.95304
             352         2.15722
             353         3.03549
             354         2.76464
             355         5.29276
             356         2.47928
             357         4.46716
             358         5.21714
             359         6.03885
             360         6.29664
             361         2.10572
             362         6.59742
             363         6.14658
             364         5.44866
             365         5.40272
             366         2.55221
             367     993.780E-03
             368         4.99775
             369         5.53879
             370         2.60648
             371         2.26519
             372         2.68446
             373         4.06614
             374         3.71130
             375         5.55011
             376         3.19217
             377         6.14833
             378         5.84940
             379         5.80349
             380         1.95725
             381         2.43320
             382         5.78990
             383         1.27905
             384         5.14138
             385         5.66924
             386         5.52852
             387         3.11399
             388         5.65041
             389         5.74878
             390         2.55931
             391     946.675E-03
             392         2.56099
             393         4.80529
             394         2.24299
             395         1.62784
             396         2.77463
             397         5.61588
             398         2.68512
             399         5.23470
             400         1.99840
             401         2.20919
             402         2.36002
             403         5.53838
             404         3.04052
             405         2.26404
             406         4.52735
             407         2.44397
             408         5.28429
             409         2.56997
             410         2.56110
             411         2.96827
             412         3.66372
             413         4.33082
             414         2.47158
             415         2.73794
             416         2.67989
             417         4.60329
             418         2.64049
             419         2.60772
             420         3.10092
             421         2.65601
             422         2.75586
             423         3.10991
             424         2.72117
             425         2.77835
             426         2.50907
             427         2.95076
             428         2.64893
             429         4.17349
             430         1.03860
             431         16.1567
             432         9.85392
             433         1.48707
             434     511.324E-03
             435     719.020E-03
             436     132.562E-03
             437         1.63652
             438     867.587E-03
             439     893.672E-03
             440     350.721E-03
             441     881.374E-03
             442         1.54289
             443     721.385E-03
             444         1.88902
             445         2.82712
             446         1.25515
             447         1.77525
             448         3.43999
             449         3.18325
             450         2.22552
             451     319.786E-03
             452         2.45181
             453         2.72295
             454         1.29711
             455         1.75261
             456         14.0398
             457         9.24584
             458         9.57033
             459         11.5869
             460         15.8066
             461         15.2745
             462         13.0051
             463         10.3617
             464         13.5945
             465         10.9611
             466         12.8465
             467         10.0138
             468         10.4273
             469         6.60799
             470         6.60315
             471         6.44223
             472         9.83086
             473         2.58669
             474         2.59655
             475         2.56933
             476         2.52211
             477         2.52959
             478         2.54748
             479         2.73279
             480         2.60030
             481         2.62733
             482         2.63055
             483         2.74992
             484         2.74998
             485         2.54059
             486         2.55984
             487         2.59060
             488         2.63946
             489         2.59595
             490         2.57520
             491         2.54029
             492         2.48021
             493         2.47351
             494         2.49031
             495         2.57250
             496         2.57341
             497         2.40050
             498         2.40263
             499         2.32820
             500         2.58527
             501         2.61715
             502         2.64411
             503         2.65305
             504         2.65617
             505         2.65298
             506         2.62138
             507         2.62804
             508         2.62842
             509         2.80789
             510         2.66060
             511         2.75460
             512         2.68677
             513         2.87445
             514         2.71371
             515         2.50146
             516         2.64398
             517         2.67649
             518         2.57238
             519         2.44621
             520         2.64899
             521         2.61757
             522         3.04945
             523         2.85303
             524         3.13254
             525         3.38936
             526         3.33012
             527         2.75520
             528         2.58964
             529         2.99558
             530         2.80810
             531         2.97489
             532         2.35998
             533         2.21013
             534         2.30959
             535         1.73009
             536         1.96959
             537         1.80680
             538         2.44993
             539         2.56194
             540         2.85487
             541         2.90621
             542         3.06414
             543         3.07758
             544         2.99528
             545         2.88585
             546         2.45926
             547         2.38076
             548         2.34584
             549         3.67102
             550         3.46945
             551         3.77656
             552         2.46497
             553         2.65656
             554         2.66026
             555         2.69114
             556         2.59251
             557         2.62233
             558         2.65480
             559         2.60144
             560         7.30275
             561         5.97438
             562         6.82990
             563         5.86758
             564         6.82593
             565         6.22714
             566         5.58665
             567         5.54853
             568         6.14022
             569         6.20143
             570         6.28174
             571         4.11436
             572         4.55456
             573         5.58529
             574         5.35989
             575         5.08256
             576         4.01904
             577         2.41525
             578         2.52960
             579         2.63740
             580         2.68846
             581         2.63210
             582         2.52574
             583         2.65574
             584         2.64440
             585         2.67115
             586         2.67558
             587         2.62303
             588         2.66818
             589         2.69208
             590         2.70347
             591         2.67333
             592         2.68454
             593         2.56373
             594         2.46284
             595         2.50657
             596         1.84722
             597         2.32886
             598         1.92872
             599         2.66282
             600         2.62428
             601         2.95543
             602         3.13238
             603         2.50991
             604         2.95274
             605         2.24807
             606         2.18931
             607         1.58647
             608         5.71427
             609         5.88355
             610         6.21898
             611         6.29025
             612         6.06838
             613         5.73820
             614         6.96884
             615         6.70207
             616         6.84603
             617         7.27045
             618         7.00840
             619         8.00714
             620         6.60386
             621         6.59993
             622         6.06248
             623         6.94325
             624         7.80741
             625         3.70548
             626         3.93550
             627         3.93665
             628         5.84037
             629         6.10537
             630         6.11142
             631         5.89655
             632         5.60642
             633         5.70021
             634         5.43215
             635         5.54403
             636         5.67287
             637         5.70553
             638         5.50314
             639     812.161E-03
             640     920.929E-03
             641         1.31093
             642         1.27239
             643         1.28881
             644     766.725E-03
             645         6.39370
             646         6.00132
             647         6.72159
             648         6.38430
             649         7.24695
             650         5.63666
             651         5.34216
             652         5.53784
             653         5.74409
             654         5.78974
             655         2.30263
             656         2.17416
             657         2.50886
             658         2.47926
             659         2.70609
             660         2.28168
             661         3.56729
             662         4.15031
             663         3.17823
             664         4.00666
             665         3.44209
             666         4.41016
             667         2.49105
             668         2.53495
             669         2.59246
             670         2.68877
             671         2.62807
             672         2.62967
             673         2.55601
             674         2.47190
             675         2.34209
             676         5.14829
             677         3.93849
             678         5.01961
             679         3.81264
             680         5.07449
             681         4.06150
             682         5.07212
             683         6.16657
             684         5.16444
             685         2.28290
             686         2.40455
             687         2.07258
             688         2.01607
             689         2.09488
             690         2.67713
             691         3.24650
             692         4.07409
             693         3.70176
             694         3.69951
             695         4.73187
             696         3.71593
             697         3.92761
             698         3.49260
             699         3.96318
             700         3.25457
             701         3.74513
             702         2.46036
             703         2.37814
             704         2.62977
             705         2.79053
             706         2.58004
             707         3.54229
             708         2.79305
             709         4.30501
             710         4.54633
             711         4.30287
             712         4.06007
             713         2.15073
             714         2.08773
             715         2.24444
             716         2.27789
             717         2.31740
             718         2.15633
             719         4.00435
             720         3.07484
             721         3.30449
             722         3.42659
             723         4.11052
             724         3.58932
             725         2.84609
             726         1.94898
             727         2.08509
             728         3.39264
             729         3.79730
             730         4.03726
             731         4.44185
             732         3.96931
             733         4.10444
             734         4.62611
             735         4.93304
             736         4.42236
             737         5.12650
             738         2.71287
             739         3.39607
             740         3.12530
             741         5.34535
             742         5.08955
             743         5.35959
             744         4.74263
             745         4.71226
             746         5.15193
             747         5.67178
             748         5.36771
             749         5.00621
             750         5.43505
             751         5.94114
             752         5.54668
             753         6.01208
             754         5.56601
             755         5.70101
             756         5.79884
             757         5.58579
             758         6.72117
             759         6.63771
             760         8.61523
             761         7.03373
             762         6.98220
             763         5.65388
             764         5.86079
             765         5.49333
             766         5.33906
             767         5.60945
             768         5.32221
             769         6.69586
             770         6.43894
             771         6.05722
             772         6.19377
             773         6.15413
             774         7.48515
             775         7.36029
             776         7.08183
             777         7.35879
             778         8.16108
             779     140.810E-03
             780     471.123E-03
             781     429.823E-03
             782     593.526E-03
             783     153.816E-03
             784     216.630E-03
             785     136.045E-03
             786     129.716E-03
             787     80.9656E-03
             788     70.4047E-03
             789     78.4785E-03
             790     348.022E-03
             791     355.500E-03
             792     359.304E-03
             793     421.744E-03
             794     387.755E-03
             795     337.413E-03
             796     942.535E-03
             797         4.66914
             798         6.37068
             799         6.48694
             800         6.46226
             801         4.81291
             802         4.72725
             803         3.85770
             804         3.33507
             805         4.01452
             806         4.01482
             807         3.88898
             808         3.62412
             809         4.35525
             810         3.89085
             811         3.84401
             812         3.19466
             813         3.84195
             814         3.10108
             815         3.75665
             816         3.10637
             817         6.58749
             818         5.60052
             819         5.60463
             820         6.49568
             821         7.68477
             822         7.66600
             823         4.89480
             824         6.60817
             825         6.92116
             826         5.27263
             827         5.14648
             828         6.44000
             829         8.56534
             830         2.65769
             831         2.72902
             832         2.73843
             833         2.65964
             834         2.62247
             835         2.60477
             836         2.52050
             837         2.99172
             838         2.76407
             839         3.33130
             840         3.35665
             841         3.69235
             842         2.99233
             843         2.72141
             844         2.70246
             845         2.70398
             846         2.72885
             847         2.72696
             848         2.58428
             849         2.54750
             850         2.56787
             851         2.63573
             852         2.59723
             853         2.54144
             854         5.04598
             855         6.99936
             856         6.83275
             857         8.69446
             858         6.73402
             859         6.97347
             860         2.55127
             861         2.57138
             862         2.64654
             863         2.66012
             864         3.04973
             865         3.17152
             866         2.79079
             867         2.71755
             868         2.81118
             869         2.82746
             870         2.70850
             871         2.62598
             872         2.69000
             873         2.63027
             874         2.51303
             875         2.30326
             876         2.37788
             877         2.20903
             878         2.40975
             879         2.33566
             880         2.55135
             881         2.23048
             882         2.07529
             883         2.17237
             884         3.47855
             885         2.62222
             886         2.32369
             887         2.39890
             888         2.61685
             889         2.59809
             890         2.50438
             891         2.49120
             892         2.26256
             893         2.17159
             894         2.42383
             895         2.67116
             896         2.72426
             897         2.82642
             898         2.62538
             899         2.48549
             900         2.70815
             901         2.68594
             902         2.81048
             903         2.59103
             904         2.63592
             905         2.86556
             906         2.70004
             907         2.79431
             908         2.75346
             909         2.91041
             910         1.85677
             911         1.53484
             912         1.58898
             913         5.99038
             914         6.06742
             915         5.59816
             916         5.72019
             917         5.68309
             918         6.09126
             919         2.05496
             920         1.83680
             921         2.03212
             922         1.02185
             923         1.49315
             924         1.03379
             925         5.76558
             926         5.59031
             927         5.82685
             928         5.45414
             929         5.65443
             930         5.50730
             931         5.90315
             932         5.73513
             933         5.87493
             934         5.68682
             935         5.80891
             936         5.68571
             937         6.68147
             938         7.06028
             939         6.68798
             940         6.63493
             941         6.08261
             942         6.44649
             943         6.06606
             944         6.06553
             945         4.99868
             946         4.70370
             947         5.32900
             948         5.13552
             949         5.76479
             950         4.89066
             951         5.79754
             952         5.74888
             953         5.52156
             954         5.57697
             955         5.71792
             956         6.06621
             957         2.20338
             958         2.70365
             959         2.62245
             960         2.66063
             961         2.20586
             962         2.25650
             963         5.84174
             964         5.85077
             965         5.53092
             966         6.64430
             967         6.84118
             968         7.33609
             969         5.54246
             970         5.77524
             971         6.58825
             972         4.11698
             973         4.16808
             974         5.57467
             975         5.74927
             976         5.84784
             977         6.12053
             978         5.89740
             979         5.80214
             980         5.66913
             981         5.52809
             982         5.80768
             983         5.79474
             984         5.80526
             985         4.60872
             986         4.80125
             987         5.20038
             988         4.91058
             989         6.88658
             990         6.00515
             991         5.48565
             992         5.19248
             993         5.12272
             994         5.17133
             995         5.42707
             996         13.3104
             997         11.8400
             998         12.2249
             999         9.95049
            1000         11.4740
            1001         10.9559
            1002         5.22275
            1003         5.29430
            1004         5.28544
            1005         5.26620
            1006         5.18739
            1007         5.18615
            1008         6.38642
            1009         5.88161
            1010         5.92856
            1011         5.52330
            1012         5.26616
            1013         5.72339
            1014         4.81895
            1015         4.51415
            1016         4.34617
            1017         5.05422
            1018         4.99050
            1019         5.26350
            1020         4.71628
            1021         4.68444
            1022         5.08474
            1023         5.08096
            1024         5.02387
            1025         5.05744
            1026         5.03651
            1027         13.1225
            1028         16.2670
            1029         12.5116
            1030         11.8499
            1031         10.1004
            1032         11.9127
            1033         5.54408
            1034         5.36876
            1035         5.18579
            1036         5.46317
            1037         5.51510
            1038         5.38139
            1039         5.37145
            1040         5.56544
            1041         5.46979
            1042         5.44561
            1043         5.57044
            1044         5.62236
            1045         5.42439
            1046         4.55526
            1047         2.62558
            1048         2.60264
            1049         2.39501
            1050         3.52548
            1051         3.68229
            1052         2.23614
            1053     158.816E-03
            1054     453.576E-03
            1055     176.036E-03
            1056     419.329E-03
            1057     860.612E-03
            1058     417.410E-03
            1059         1.29199
            1060         2.27098
            1061         1.87483
            1062     856.805E-03
            1063         5.24198
            1064         5.28811
            1065         5.13751
            1066         5.22481
            1067         5.33363
            1068         2.70228
            1069         3.37799
            1070         1.88073
            1071         1.80311
            1072         1.36696
            1073     589.668E-03
            1074     591.069E-03
            1075     481.767E-03
            1076     685.233E-03
            1077         1.49644
            1078         4.47998
            1079         3.55878
            1080         4.03948
            1081         6.25171
            1082         5.01127
            1083         7.11771
            1084         5.81543
            1085         6.78895
            1086         3.29359
            1087         4.55501
            1088         5.03639
            1089         5.64456
            1090         6.59456
            1091         7.24788
            1092         5.68443
            1093         5.68388
            1094         5.98787
            1095         5.72951
            1096         5.67023
            1097         6.64188
            1098         7.22273
            1099         6.86630
            1100         9.10930
            1101         7.24565
            1102         7.05710
            1103         7.20359
            1104         1.17431
            1105     597.042E-03
            1106     382.622E-03
            1107     596.727E-03
            1108     730.139E-03
            1109     568.104E-03
            1110     858.476E-03
            1111         1.25744
            1112         1.51162
            1113         1.19010
            1114     727.358E-03
            1115     924.470E-03
            1116         1.55326
            1117         1.68780
            1118         2.64820
            1119         2.45002
            1120         2.44179
            1121         2.44301
            1122         1.96565
            1123         2.03315
            1124         2.02349
            1125         2.27785
            1126         1.96285
            1127         2.26646
            1128         2.72288
            1129         3.08713
            1130         3.14317
            1131         2.81545
            1132         3.11462
            1133         3.06402
            1134         3.40877
            1135         2.72293
            1136         2.66266
            1137         2.55305
            1138         2.64767
            1139         1.80722
            1140         1.63532
            1141         1.62425
            1142         1.14078
            1143     812.250E-03
            1144         1.74522
            1145         1.97530
            1146         3.08280
            1147         4.39451
            1148         2.04350
            1149         2.63229
            1150         2.22712
            1151         2.72336
            1152         2.53958
            1153         2.39015
            1154         2.48483
            1155         2.84118
            1156         3.02828
            1157         2.43512
            1158         2.39585
            1159         2.22877
            1160         2.78095
            1161         2.62939
            1162         3.01250
            1163         2.60135
            1164         2.24825
            1165         2.71014
            1166         2.71699
            1167         2.62433
            1168         4.14296
            1169         3.89715
            1170         2.96281
            1171         3.34039
            1172         2.66218
            1173         3.08665
            1174         3.39164
            1175         1.64224
            1176         1.83463
            1177         2.22698
            1178         2.30267
            1179         1.68319
            1180         2.70379
            1181         1.58935
            1182     548.633E-03
            1183     916.924E-03
            1184     605.563E-03
            1185         1.13050
            1186         1.72564
            1187         1.67818
            1188     317.903E-03
            1189     364.198E-03
            1190     598.702E-03
            1191     412.601E-03
            1192     605.457E-03
            1193     533.533E-03
            1194     756.982E-03
            1195     926.470E-03
            1196         1.02431
            1197     624.224E-03
            1198         2.12103
            1199         1.60896
            1200     831.274E-03
            1201     510.234E-03
            1202     175.754E-03
            1203     798.659E-03
            1204     822.039E-03
            1205     536.936E-03
            1206     516.646E-03
            1207         1.59078
            1208         2.06792
            1209         1.91557
            1210         1.28628
            1211         2.27532
            1212         1.72570
            1213         1.37008
            1214         1.92652
            1215         7.62398
            1216         8.03906
            1217         7.17938
            1218         10.0559
            1219         9.40904
            1220         10.4338
            1221         2.53467
            1222         2.61038
            1223         2.64399
            1224         2.72025
            1225         3.43517
            1226         9.74967
            1227         10.4146
            1228         6.58051
            1229         7.90324
            1230         6.42792
            1231         10.1800
            1232         2.02445
            1233         2.05058
            1234         2.78974
            1235         9.90686
            1236         8.68836
            1237         8.76059
            1238         10.1129
            1239         11.4855
            1240         11.4180
            1241         2.83709
            1242         2.77015
            1243         2.94732
            1244         2.59843
            1245         2.75705
            1246         3.01588
            1247         3.85724
            1248         5.06573
            1249         4.98918
            1250         4.91631
            1251         3.78148
            1252         2.79792
            1253         3.15073
            1254         2.39425
            1255         2.35748
            1256         2.99204
            1257         2.79395
            1258         2.38829
            1259         2.08578
            1260         2.65096
            1261         2.78149
            1262         3.30728
            1263         1.95648
            1264         2.20993
            1265         2.10985
            1266         1.97798
            1267         1.90757
            1268         1.89069
            1269         2.09510
            1270         2.13977
            1271         2.15331
            1272         1.96569
            1273         2.28904
            1274         2.55784
            1275         5.70581
            1276         5.31455
            1277         5.16388
            1278         4.87054
            1279         1.91614
            1280         1.93159
            1281         3.36445
            1282         2.90319
            1283         5.38629
            1284         5.45221
            1285         5.43172
            1286         5.29078
            1287         4.60823
            1288         5.01393
            1289         6.13217
            1290         5.64087
            1291         5.18311
            1292         5.00455
            1293         5.27135
            1294         5.23809
            1295         3.35972
            1296         4.72226
            1297         4.61452
            1298         4.85768
            1299         7.21889
            1300         6.68040
            1301         6.52260
            1302         5.10053
            1303         3.98475
            1304         4.19139
            1305         5.17583
            1306         5.55806
            1307         3.30446
            1308         4.97063
            1309         4.35561
            1310         4.75510
            1311         4.57888
            1312         5.93171
            1313         6.55288
            1314         4.07701
            1315         3.64219
            1316         4.97141
            1317         4.78062
            1318         5.67293
            1319         5.59490
            1320         5.46571
            1321         5.38445
            1322         5.44299
            1323         5.65532
            1324         5.67554
            1325         5.56477
            1326         5.53436
            1327         5.43564
            1328         5.58736
            1329         5.22613
            1330         5.20986
            1331         5.08441
            1332         5.27465
            1333         5.36496
            1334         5.77972
            1335         5.86878
            1336         5.60067
            1337         5.44209
            1338         5.71689
            1339         5.45042
            1340         5.26598
            1341         5.40439
            1342         5.53960
            1343         5.53430
            1344         5.64125
            1345         6.13502
            1346         7.35345
            1347         6.11335
            1348         6.14680
            1349         6.52561
            1350         6.59900
            1351         6.52393
            1352         6.08770
            1353         5.29220
            1354         5.29989
            1355         12.7145
            1356         9.54000
            1357         13.0345
            1358         11.2829
            1359         15.6148
            1360         10.5455
            1361         5.45718
            1362         5.54335
            1363         5.31387
            1364         5.13365
            1365         5.36155
            1366         5.01874
            1367         5.07399
            1368         5.06260
            1369         5.14223
            1370         5.04815
            1371         5.46612
            1372         5.15559
            1373         5.26196
            1374         5.43532
            1375         5.64919
            1376         4.84207
            1377         5.64721
            1378         4.68565
            1379         4.20455
            1380         2.41418
            1381         2.52440
            1382         3.99378
            1383         4.72113
            1384         3.98739
            1385         2.57196
            1386         2.44484
            1387         2.49680
            1388         4.71828
            1389         4.86612
            1390         4.79524
            1391     358.754E-03
            1392         1.23757
            1393         1.32977
            1394         1.71395
            1395         3.06827
            1396         3.18874
            1397         2.60734
            1398         1.27771
            1399         3.76150
            1400         3.23696
            1401         4.19830
            1402         3.96569
            1403         4.37217
            1404         10.0068
            1405         9.69682
            1406         7.78976
            1407         5.77551
            1408         5.57818
            1409         5.23611
            1410         5.52000
            1411         5.03480
            1412         2.90867
            1413         1.13391
            1414         1.03659
            1415         1.46763
            1416         1.65155
            1417         1.66071
            1418     558.538E-03
            1419         5.68942
            1420         5.71682
            1421         5.78772
            1422         5.67415
            1423         10.6358
            1424         10.5483
            1425         13.9116
            1426         11.7811
            1427         12.5745
            1428         9.92417
            1429         5.85310
            1430         6.02422
            1431         4.73991
            1432         4.35369
            1433         5.22137
            1434         6.80146
            1435         6.28622
            1436         6.79224
            1437         5.54261
            1438         7.51250
            1439         2.03007
            1440         4.05036
            1441         1.63228
            1442         2.59171
            1443         1.35197
            1444         1.89812
            1445         5.44235
            1446         6.93138
            1447         8.58476
            1448         7.49741
            1449         9.07094
            1450         9.02392
            1451     640.585E-03
            1452     857.434E-03
            1453         1.77300
            1454         2.22276
            1455         1.87874
            1456         1.16524
            1457         7.69219
            1458         4.27888
            1459         3.39204
            1460         3.39048
            1461         3.44732
            1462         4.43755
            1463         4.50239
            1464         4.91896
            1465         2.38716
            1466         4.22391
            1467         5.64037
            1468         4.22707
            1469         5.06348
            1470         5.63814
            1471         4.09410
            1472         4.99427
            1473         3.93736
            1474         5.51592
            1475         2.57249
            1476         2.93821
            1477         1.42294
            1478     159.670E-03
            1479     213.059E-03
            1480     147.855E-03
            1481     460.545E-03
            1482     284.736E-03
            1483     108.371E-03
            1484     296.332E-03
            1485     60.9039E-03
            1486     887.937E-03
            1487     464.294E-03
            1488         1.00499
            1489         1.38460
            1490     147.777E-03
            1491     614.733E-03
            1492         2.45315
            1493         2.32857
            1494         5.63294
            1495         4.22748
            1496         1.98703
            1497         2.67797
            1498         2.66895
            1499         1.33096
            1500         1.45254
            1501         2.63456
            1502         2.77347
            1503         3.67284
            1504         3.28618
            1505         3.44860
            1506         3.41425
            1507         2.63270
            1508         4.91162
            1509         6.22378
            1510         6.48081
            1511         4.35573
            1512         3.32168
            1513         3.32248
            1514         6.12580
            1515         4.04083
            1516         4.68783
            1517         4.58824
            1518         5.38259
            1519         4.82925
            1520         5.49472
            1521         5.58619
            1522         5.59158
            1523         5.99911
            1524         5.19426
            1525         5.14285
            1526         5.11052
            1527         5.13380
            1528         6.03166
            1529         6.38425
            1530         5.03916
            1531         5.21827
            1532         5.13613
            1533         5.03235
            1534         5.03590
            1535         5.06347
            1536         5.05534
            1537         5.08323
            1538         4.55774
            1539         3.64316
            1540         2.67647
            1541         2.52694
            1542         2.31457
            1543         5.34910
            1544         5.31903
            1545         5.04995
            1546         5.27322
            1547         5.12004
            1548         5.29716
            1549         5.18513
            1550         4.98188
            1551         4.99825
            1552         5.13211
            1553         5.11139
            1554         5.60399
            1555         5.74008
            1556         5.22054
            1557         6.61999
            1558         5.94168
            1559         3.38838
            1560         2.94249
            1561         2.71170
            1562         6.55528
            1563         6.53579
            1564         6.07888
            1565         6.84050
            1566         7.38624
            1567         5.72486
            1568         6.51735
            1569         5.90438
            1570         2.22732
            1571     863.384E-03
            1572         1.83998
            1573         2.59612
            1574         5.48668
            1575         5.38982
            1576         6.21678
            1577         6.58803
            1578         5.65250
            1579         5.80936
            1580         5.10372
            1581         5.14150
            1582         5.43762
            1583         5.23893
            1584         5.83556
            1585         7.06691
            1586         8.61751
            1587         7.72128
            1588         5.25255
            1589         5.54659
            1590         5.67265
            1591         5.34050
            1592         6.81239
            1593         4.92178
            1594         5.56444
            1595         5.36209
            1596         5.24901
            1597         5.16679
            1598         5.36974
            1599         5.24311
            1600         5.83862
            1601         5.52058
            1602         1.97664
            1603         2.08014
            1604         5.39742
            1605         5.74745
            1606         5.42743
            1607         4.57858
            1608         5.37395
            1609         5.22059
            1610         5.64844
            1611         2.32758
            1612         5.59972
            1613         2.32066
            1614     800.043E-03
            1615         7.42358
            1616         7.77385
            1617         8.54250
            1618         7.88579
            1619         8.31364
            1620         5.89991
            1621         2.90516
            1622         2.85604
            1623         3.24723
            1624         6.67233
            1625         5.96760
            1626         5.82529
            1627         6.44019
            1628         6.04546
            1629         6.65980
            1630         6.96633
            1631         6.83620
            1632         5.87471
            1633         5.42239
            1634         5.22260
            1635         5.07454
            1636         6.32470
            1637         6.87717
            1638         6.69709
            1639         6.99901
            1640         5.89436
            1641     726.464E-03
            1642     911.692E-03
            1643     268.720E-03
            1644         3.52636
            1645         3.31851
            1646         2.52874
            1647         2.40878
            1648         5.59999
            1649         2.18545
            1650         2.87638
            1651         2.70827
            1652         2.77898
            1653         3.83052
            1654         2.96304
            1655         2.12568
            1656         7.90216
            1657         9.87441
            1658         12.0830
            1659         9.52153
            1660         10.1420
            1661         8.20702
            1662         7.08364
            1663         6.71157
            1664         7.15714
            1665         2.48449
            1666         2.92706
            1667         3.03276
            1668         2.66044
            1669         2.33662
            1670         2.50497
            1671         2.92101
            1672         3.12914
            1673         2.15814
            1674         1.92746
            1675         4.26578
            1676         5.16105
            1677         1.92825
            1678         3.38335
            1679         2.48223
            1680         3.83503
            1681         2.61398
            1682         3.49447
            1683         2.30164
            1684         5.76194
            1685         6.79450
            1686         6.09146
            1687         6.29281
            1688         7.73464
            1689         6.72283
            1690         6.70034
            1691         6.15953
            1692         2.70186
            1693         2.82695
            1694         3.07112
            1695         3.20288
            1696         2.57324
            1697         2.15576
            1698         2.74908
            1699         3.19711
            1700         5.72031
            1701         5.66879
            1702         5.56062
            1703         2.84386
            1704         3.35988
            1705         4.63947
            1706         5.50118
            1707         5.33510
            1708         5.88857
            1709         6.04766
            1710         5.91912
            1711         5.82305
            1712         6.17293
            1713         6.31322
            1714         6.47429
            1715         6.19851
            1716         7.40198
            1717         6.48178
            1718         5.95967
            1719         7.08322
            1720         7.12085
            1721         6.69790
            1722         6.48949
            1723         9.18023
            1724         8.79160
            1725         7.49722
            1726         9.04843
            1727         9.16616
            1728         10.8855
            1729         5.39945
            1730         4.85131
            1731         5.30838
            1732         8.25537
            1733         9.20995
            1734         7.61459
            1735         8.67406
            1736         5.91823
            1737         7.49298
            1738         7.06950
            1739         9.05519
            1740         6.29597
            1741         7.07912
            1742         6.60181
            1743         5.52016
            1744         5.86082
            1745         8.29992
            1746         7.37485
            1747         7.93605
            1748         6.30290
            1749         7.06647
            1750         4.02465
            1751         3.81214
            1752     732.815E-03
            1753         7.11076
            1754         7.49225
            1755         1.50606
            1756         1.35725
            1757     504.755E-03
            1758         2.66737
            1759         2.93724
            1760         3.81449
            1761         3.05348
            1762         2.58906
            1763         2.24880
            1764         2.32329
            1765         2.39615
            1766         6.96524
            1767         7.33063
            1768         8.91856
            1769         8.05109
            1770         8.36135
            1771         7.74061
            1772         8.35710
            1773         2.55205
            1774         4.99408
            1775         3.10096
            1776         2.41495
            1777         3.18500
            1778         3.29050
            1779         4.29023
            1780         5.58632
            1781         5.03356
            1782         4.86178
            1783         5.79236
            1784         2.45941
            1785         1.56335
            1786         2.48515
            1787         3.74402
            1788         3.23844
            1789         2.61639
            1790         3.03492
            1791         9.76405
            1792         10.3524
            1793         7.44951
            1794         8.17507
            1795         8.14514
            1796         8.12558
            1797         10.6433
            1798         9.77641
            1799         8.20436
            1800         5.31291
            1801         2.98737
            1802         2.79184
            1803         2.85411
            1804         2.96229
            1805         7.56400
            1806         5.38905
            1807         7.19692
            1808         8.56516
            1809         8.51419
            1810         6.42485
            1811         5.35496
            1812         9.32296
            1813         5.52623
            1814         5.10963
            1815     471.609E-03
            1816     501.119E-03
            1817     444.482E-03
            1818     864.109E-03
            1819         1.08108
            1820         1.02624
            1821         1.10620
            1822         3.58509
            1823         4.07535
            1824         5.63129
            1825         3.90678
            1826         2.80125
            1827         4.67857
            1828         2.65331
            1829         2.18923
            1830         1.97324
            1831         3.83912
            1832         7.57547
            1833         8.36382
            1834         9.76251
            1835         8.41833
            1836         8.70896
            1837         8.53835
            1838         6.95933
            1839         7.48080
            1840         2.77385
            1841         2.87722
            1842         2.94773
            1843         1.91563
            1844         2.39872
            1845         2.69736
            1846         2.29536
            1847         3.06522
            1848         4.29337
            1849         4.46299
            1850         6.01636
            1851         4.26379
            1852         4.25436
            1853         2.69918
            1854         2.71324
            1855         4.20949
            1856         3.89679
            1857         1.25253
            1858         1.62420
            1859         1.92287
            1860         1.49958
            1861         1.51758
            1862         1.32888
            1863     678.929E-03
            1864         1.22017
            1865         2.36508
            1866         1.27288
            1867         7.17230
            1868         8.49216
            1869         8.66631
            1870         10.4495
            1871         7.77748
            1872         1.80336
            1873         1.25368
            1874         1.71339
            1875         17.4318
            1876         25.2527
            1877         16.9584
            1878         21.9063
            1879         14.7477
            1880         21.9959
            1881     804.139E-03
            1882         1.01407
            1883         1.55360
            1884         1.63550
            1885         1.32337
            1886     910.997E-03
            1887     597.274E-03
            1888         1.44090
            1889         2.14800
            1890     57.0661E-03
            1891     141.566E-03
            1892     59.9341E-03
            1893     26.3033E-03
            1894         6.12161
            1895         6.31072
            1896         3.26755
            1897         3.29159
            1898         3.07267
            1899         2.41250
            1900         8.63326
            1901         6.37531
            1902         7.03734
            1903         6.13085
            1904         7.55607
            1905         6.39508
            1906         8.46093
            1907         10.5490
            1908         10.5985
            1909         10.5216
            1910         13.3735
            1911         10.7347
            1912         10.2849
            1913         9.18530
            1914         8.52476
            1915         8.01648
            1916     430.453E-03
            1917     980.091E-03
            1918         1.86266
            1919         1.99132
            1920         7.68283
            1921         7.93802
            1922         6.08428
            1923         1.60872
            1924         1.19028
            1925         1.24788
            1926         1.79918
            1927         2.01155
            1928         1.79399
            1929         1.09982
            1930         2.20584
            1931         1.82198
            1932         1.63017
            1933         2.28385
            1934         2.25700
            1935         9.06683
            1936         13.0929
            1937         11.7000
            1938         12.4275
            1939         13.8794
            1940         12.1372
            1941         7.40256
            1942         7.59545
            1943         11.5102
            1944         10.2985
            1945         10.5337
            1946         10.5903
            1947         13.3688
            1948         11.5205
            1949         11.2493
            1950         8.69056
            1951         10.5011
            1952         11.2818
            1953         11.0011
            1954         9.77702
            1955         10.0252
            1956         8.66931
            1957         7.50702
            1958         7.30592
            1959         14.1380
            1960         12.0454
            1961         13.1505
            1962         23.1663
            1963         22.5173
            1964         20.6085
            1965         21.6737
            1966         29.7441
            1967         12.5468
            1968         28.9191
            1969         17.8857
            1970         17.6690
            1971         21.4809
            1972         13.0032
            1973         20.2418
            1974         20.5050
            1975         19.7710
            1976         14.4038
            1977         20.3236
            1978         16.3144
            1979         19.9826
            1980         9.22122
            1981         9.61904
            1982         11.7012
            1983         11.8563
            1984         14.6806
            1985         12.2237
            1986         10.2035
            1987         8.68811
            1988         7.33217
            1989         9.32074
            1990         6.95426
            1991         6.57937
            1992         5.52486
            1993         11.4957
            1994         8.39069
            1995         8.49985
            1996         10.1529
            1997         10.4067
            1998         3.67474
            1999         4.13076
            2000         4.84032
            2001         3.99354
            2002         8.55542
            2003         11.2177
            2004         11.8631
            2005         13.0756
            2006         17.9573
            2007         13.1599
            2008         12.8779
            2009         5.20195
            2010         5.24808
            2011         6.20865
            2012         6.01113
            2013         2.78405
            2014         4.19189
            2015         2.68956
            2016         5.00755
            2017         6.79031
            2018         4.92200
            2019         6.79076
            2020         3.37141
            2021         4.95296
            2022         2.50597
            2023         1.47649
            2024         1.61011
            2025         1.57284
            2026         2.20774
            2027         1.52402
            2028         6.24415
            2029         4.93441
            2030         6.90148
            2031         7.81038
            2032         8.71728
            2033         6.70773
            2034         9.09870
            2035         14.4413
            2036         14.8477
            2037         13.1204
            2038         11.9729
            2039         12.8613
            2040         11.4448
            2041         13.1548
            2042         10.7559
            2043         12.3697
            2044         9.42337
            2045         12.4197
            2046         11.9095
            2047         11.7859
            2048         11.4191
            2049         7.21033
            2050         6.60386
            2051         9.55274
            2052         6.26536
            2053         6.38170
            2054         10.1611
            2055         3.23875
            2056         3.66974
            2057         4.91478
            2058         5.06576
            2059         4.04220
            2060         4.49033
            2061         4.14590
            2062         5.61541
            2063         5.15890
            2064         3.63109
            2065         4.84955
            2066         4.84014
            2067         3.52048
            2068         3.60482
            2069         3.56380
            2070         3.77753
            2071         3.57120
            2072         11.6055
            2073         11.0507
            2074         12.0442
            2075         10.8809
            2076         12.7771
            2077         13.2194
            2078         20.7621
            2079         9.39618
            2080         8.96829
            2081         7.81261
            2082         9.95041
            2083         7.74980
            2084         9.89690
            2085         10.3489
            2086         8.71357
            2087         7.35513
            2088         11.6250
            2089         11.6963
            2090         11.2953
            2091         9.26870
            2092         11.1707
            2093         6.79466
            2094         11.8602
            2095         11.6493
            2096         12.0006
            2097         13.5330
            2098         15.7364
            2099         13.5393
            2100         18.5996
            2101         3.15227
            2102         2.05497
            2103         2.00821
            2104         1.44284
            2105         1.28704
            2106         10.1128
            2107         8.11340
            2108         7.77442
            2109         5.62354
            2110         4.80571
            2111         4.74645
            2112         2.97158
            2113         4.84611
            2114         2.75018
            2115         2.28760
            2116         2.88687
            2117         3.03732
            2118         4.70493
            2119         1.45729
            2120         1.23095
            2121         1.38880
            2122         1.35768
            2123         2.11545
            2124         1.39667
            2125         3.52508
            2126         3.44783
            2127         1.87238
            2128         1.55777
            2129         1.49917
            2130         1.44510
            2131         7.74447
            2132         1.60006
            2133         1.94673
            2134         3.68014
            2135         2.68563
            2136         1.99150
            2137         1.50385
            2138         3.34034
            2139         2.03316
            2140         1.14884
            2141         4.45808
            2142         3.28677
            2143         6.30283
            2144         4.31248
            2145         6.07322
            2146         6.28172
            2147         3.25561
            2148         4.49591
            2149         4.47462
            2150         5.39996
            2151         9.93831
            2152         8.06468
            2153         10.9088
            2154         1.86251
            2155         1.46125
            2156         10.2826
            2157         14.3338
            2158         9.68134
            2159         3.29130
            2160         3.30893
            2161         3.14321
            2162         3.37446
            2163         2.77824
            2164         4.30963
            2165         20.8192
            2166         17.2197
            2167         6.64856
            2168         12.3790
            2169         11.7305
            2170         11.5499
            2171         6.46307
            2172         6.77306
            2173         3.53782
            2174         4.54513
            2175     793.707E-03
            2176     807.785E-03
            2177         1.78109
            2178         1.45524
            2179         1.54659
            2180         4.73384
            2181         3.01625
            2182         3.08961
            2183         3.24100
            2184         1.85495
            2185         1.55603
            2186     701.655E-03
            2187     757.885E-03
            2188         1.46317
            2189         1.04118
            2190         3.40766
            2191         3.37139
            2192     970.866E-03
            2193         1.37228
            2194         1.39029
            2195         4.02085
            2196         4.90421
            2197         3.53420
            2198         3.39571
            2199         2.75389
            2200         1.12689
            2201         5.59727
            2202         1.42802
            2203         1.04667
            2204         11.2766
            2205         1.98396
            2206         3.12203
            2207         2.99249
            2208         3.21784
            2209         1.99502
            2210         4.61625
            2211         10.6357
            2212         10.6158
            2213         5.48294
            2214         3.66452
            2215         3.75499
            2216         3.55501
            2217         7.56850
            2218         6.77481
            2219         6.18057
            2220         4.39857
            2221     423.372E-03
            2222         1.04116
            2223         1.03881
            2224         6.98283
            2225         15.9580
            2226     509.878E-03
            2227         7.42576
            2228         18.3195
            2229         20.4563
            2230         11.3827
            2231         20.1916
            2232         7.16049
            2233         5.17642
            2234         5.49263
            2235         6.68530
            2236         5.16223
            2237         11.9145
            2238         14.5290
            2239         21.6234
            2240         12.6990
            2241         16.0433
            2242         14.0995
            2243         13.7098
            2244         7.33225
            2245         6.72997
            2246         8.52884
            2247         9.23794
            2248         5.51850
            2249         8.03239
            2250         5.15835
            2251         5.22929
            2252         21.0836
            2253         24.2845
            2254         16.2428
            2255         18.4157
            2256         14.1558
            2257         15.3974
            2258         30.6967
            2259         2.80204
            2260         3.04945
            2261         2.45552
            2262         8.40253
            2263         7.52535
            2264         18.1588
            2265         14.4717
            2266         13.5586
            2267         14.4542
            2268         2.57341
            2269         3.29411
            2270         5.43669
            2271         18.1217
            2272         14.3608
            2273         17.3627
            2274         11.7202
            2275         11.6514
            2276         7.11957
            2277         7.62428
            2278         11.2458
            2279         7.01431
            2280         10.9847
            2281         6.32435
            2282         5.16608
            2283         5.31357
            2284         12.5922
            2285         12.9588
            2286         19.8544
            2287         12.0185
            2288         12.2508
            2289         7.56331
            2290         7.56133
            2291         14.6520
            2292         5.39267
            2293         5.38331
            2294         11.3588
            2295         17.6940
            2296         11.6601
            2297         6.03895
            2298         3.67563
            2299         5.25520
            2300         5.43190
            2301         4.83678
            2302         3.70095
            2303         5.28066
            2304         4.74363
            2305         3.71370
            2306         5.21077
            2307         16.7961
            2308         1.50379
            2309         18.1195
            2310         13.8071
            2311         18.6360
            2312         1.42909
            2313         1.40527
            2314         1.51833
            2315         1.28152
            2316         1.48704
            2317         1.05093
            2318         2.76677
            2319         3.24829
            2320         1.88624
            2321         4.00518
            2322         4.90243
            2323     644.291E-03
            2324         1.36187
            2325         2.18558
            2326         2.26989
            2327         2.27806
            2328         3.78208
            2329         3.78900
            2330         4.35757
            2331         9.13916
            2332     133.372E-03
            2333         6.99387
            2334         18.8059
            2335     188.108E-03
            2336     184.491E-03
            2337         2.55701
            2338     193.557E-03
            2339     228.296E-03
            2340         4.37842
            2341     781.163E-03
            2342         1.93794
            2343         1.08280
            2344         1.90719
            2345         3.44830
            2346         1.29490
            2347         1.14911
            2348         1.30091
            2349         1.39723
            2350     243.868E-03
            2351         1.22277
            2352         4.40266
            2353         1.09584
            2354         5.60123
            2355         3.35940
            2356     791.861E-03
            2357         5.45591
            2358         4.27316
            2359         2.92845
            2360         4.06871
            2361         2.86047
            2362         3.17585
            2363         4.59205
            2364         5.12982
            2365         1.36252
            2366         10.5642
            2367         10.3051
            2368         15.9210
            2369         15.9384
            2370         13.5380
            2371         6.79729
            2372         9.84326
            2373         10.4225
            2374         8.41829
            2375         8.75912
            2376         10.2987
            2377         6.54584
            2378         4.37553
            2379         22.9504
            2380         11.3869
            2381         9.71853
            2382         12.5324
            2383         29.3814
            2384         22.7824
            2385         22.2776
            2386         5.91120
            2387     201.077E-03
            2388     177.037E-03
            2389     674.817E-03
            2390         14.5270
            2391         11.4443
            2392         8.72259
            2393         10.8524
            2394         12.0293
            2395         5.42015
            2396         6.91805
            2397         5.57345
            2398         1.26755
            2399         2.80143
            2400         1.06428
            2401     914.164E-03
            2402         3.56141
            2403         3.22576
            2404         8.98326
            2405         5.07573
            2406         13.1890
            2407         9.76226
            2408         21.0046
            2409         15.0516
            2410         12.2243
            2411         20.2798
            2412         17.5888
            2413         18.0936
            2414         9.86624
            2415         9.11397
            2416     207.745E-03
            2417         5.99549
            2418         16.1253
            2419         16.5973
            2420         11.9806
            2421         15.3404
            2422         10.1748
            2423         5.49731
            2424         5.63272
            2425         4.24377
            2426         7.78357
            2427         8.30030
            2428         3.98780
            2429         3.71877
            2430     24.6772E-03
            2431     578.758E-03
            2432         28.8699
            2433         21.1390
            2434         22.5972
            2435         23.0067
            2436         10.8716
            2437     862.920E-03
            2438         3.91090


  Minimum            24.6772E-03
         At Node            2430

  Maximum                31.3972
         At Node              40

           Total     13.0608E+03


