********************************************************************************
Field Output Report, written Tue Feb  6 13:12:10 2024

Source 1
---------

   ODB: C:/Users/Daniel Gutierrez/Desktop/Back up 28-06-23/Imperial College/Imperial 2023-2024/AVD/pt2/github sims/AVD/iter 1.3/Job-MESH-10.odb
   Step: Loading down with g
   Frame: Increment      1: Step Time =    1.000

Loc 1 : Nodal values from source 1

Output sorted by column "Node Label".

Field Output reported at nodes for part: BLANK-1
   Computation algorithm: EXTRAPOLATE_COMPUTE_AVERAGE
   Averaged at nodes
   Averaging regions: ODB_REGIONS

      Node Label         S.Mises
                          @Loc 1
---------------------------------
               1         18.0795
               2         19.2220
               3         18.4844
               4         20.3407
               5         7.62928
               6         8.10377
               7         5.31095
               8     681.216E-03
               9         7.52726
              10     406.207E-03
              11         3.54333
              12     1.30453E-03
              13     10.1834E-03
              14     798.515E-06
              15     11.4233E-03
              16     3.91954E-03
              17     5.33123E-03
              18     4.57770E-03
              19     6.05826E-03
              20         9.76408
              21         16.4585
              22         20.3132
              23         16.7433
              24         10.2412
              25         17.2022
              26         23.4879
              27         10.0384
              28         16.0302
              29         21.0397
              30         18.0441
              31         11.0247
              32         15.9015
              33         25.6287
              34         6.76583
              35         1.87864
              36         1.52080
              37         5.17792
              38         16.0611
              39         29.7618
              40         30.3469
              41         7.08419
              42         2.16218
              43         1.51854
              44         5.12039
              45         14.9741
              46         29.6053
              47         32.9382
              48         4.26667
              49         4.47591
              50         4.82735
              51         8.82046
              52         14.4003
              53         17.4165
              54         13.7203
              55         4.57472
              56         4.59250
              57         4.98452
              58         8.38393
              59         14.6345
              60         18.6214
              61         15.3764
              62         6.75055
              63         7.86228
              64         8.45748
              65         8.31356
              66         7.28365
              67         5.92265
              68         5.50325
              69         6.57043
              70         7.88313
              71         8.74352
              72         8.49960
              73         7.59274
              74         6.25881
              75         4.70924
              76         3.35768
              77         2.50921
              78         2.75506
              79         3.87655
              80     803.539E-03
              81     549.103E-03
              82         2.27254
              83         4.23975
              84         6.12631
              85         7.64347
              86         8.12074
              87         7.54092
              88         6.81536
              89         6.99756
              90         7.61608
              91         6.47585
              92         4.90418
              93         3.19204
              94         1.64944
              95     978.542E-03
              96         1.74202
              97         1.25247
              98     898.374E-03
              99     843.528E-03
             100         1.39373
             101         2.12865
             102         2.88181
             103         3.37422
             104         3.48210
             105         3.52036
             106         3.74538
             107         3.81288
             108         3.44826
             109         2.65297
             110         1.71115
             111     861.998E-03
             112     393.726E-03
             113     687.360E-03
             114     55.0829E-03
             115     103.421E-03
             116     35.8197E-03
             117     135.878E-03
             118     361.986E-03
             119     550.184E-03
             120     591.858E-03
             121     354.468E-03
             122     393.913E-03
             123         1.13262
             124         1.12321
             125         2.11662
             126         1.94005
             127     983.797E-03
             128     237.905E-03
             129     114.211E-03
             130     162.325E-03
             131     46.3012E-03
             132     63.0828E-03
             133     115.754E-03
             134     66.7712E-03
             135     53.4506E-03
             136     102.812E-03
             137     61.1069E-03
             138     51.2516E-03
             139     141.189E-03
             140     138.860E-03
             141     159.083E-03
             142     881.643E-03
             143         1.87110
             144         2.16000
             145     883.995E-03
             146     955.704E-03
             147         1.17490
             148     412.110E-03
             149     294.411E-03
             150     566.930E-03
             151     547.502E-03
             152     366.075E-03
             153     147.959E-03
             154     29.7987E-03
             155     96.5445E-03
             156     67.4556E-03
             157     68.2139E-03
             158     106.856E-03
             159     57.4956E-03
             160     186.408E-03
             161     576.795E-03
             162         1.11339
             163         1.79395
             164         2.58892
             165         3.44604
             166         4.33980
             167         5.28086
             168         6.20071
             169         7.07502
             170         7.87765
             171         8.56814
             172         9.06395
             173         9.34486
             174         9.41548
             175         9.29990
             176         9.02334
             177         8.64196
             178         8.18347
             179         7.70344
             180         7.22669
             181         6.77177
             182         6.35033
             183         5.95376
             184         5.58592
             185         5.23810
             186         4.91387
             187         4.60433
             188         4.30508
             189         4.01392
             190         3.72702
             191         3.44249
             192         3.15808
             193         2.87382
             194         2.58371
             195         2.29378
             196         1.99383
             197         1.69671
             198         1.39299
             199         1.09891
             200     814.029E-03
             201     547.105E-03
             202     319.562E-03
             203     141.371E-03
             204     19.7467E-03
             205     37.4237E-03
             206     45.5053E-03
             207     23.0095E-03
             208     23.9544E-03
             209     50.2641E-03
             210     41.6441E-03
             211     26.5033E-03
             212     147.403E-03
             213     325.513E-03
             214     552.421E-03
             215     811.584E-03
             216         1.09731
             217         1.39541
             218         1.69396
             219         1.99664
             220         2.29114
             221         2.58596
             222         2.87228
             223         3.15803
             224         3.44236
             225         3.72726
             226         4.01435
             227         4.30643
             228         4.60623
             229         4.91608
             230         5.24131
             231         5.58432
             232         5.95284
             233         6.34823
             234         6.77972
             235         7.23252
             236         7.70787
             237         8.18586
             238         8.63833
             239         9.04250
             240         9.32012
             241         9.43936
             242         9.34170
             243         9.03143
             244         8.54455
             245         7.88245
             246         7.07952
             247         6.19499
             248         5.27330
             249         4.34619
             250         3.43240
             251         2.57455
             252         1.80449
             253         1.12711
             254     578.358E-03
             255     179.567E-03
             256     44.3325E-03
             257     112.883E-03
             258     61.1695E-03
             259     26.8699E-03
             260     51.5657E-03
             261     40.9099E-03
             262     18.9539E-03
             263     142.324E-03
             264     321.345E-03
             265     546.541E-03
             266     805.670E-03
             267         1.09511
             268         1.40099
             269         1.71148
             270         2.02956
             271         2.34145
             272         2.65360
             273         2.96120
             274         3.26631
             275         3.57076
             276         3.87420
             277         4.18049
             278         4.49072
             279         4.80740
             280         5.13382
             281         5.47249
             282         5.82962
             283         6.20212
             284         6.59231
             285         7.00205
             286         7.43010
             287         7.85788
             288         8.27474
             289         8.65292
             290         8.95784
             291         9.17215
             292         9.20610
             293         9.09068
             294         8.78769
             295         8.32750
             296         7.70972
             297         6.93893
             298         6.11289
             299         5.21915
             300         4.33281
             301         3.44737
             302         2.60674
             303         1.85029
             304         1.17928
             305     631.391E-03
             306     222.916E-03
             307     34.0594E-03
             308     117.202E-03
             309     74.2852E-03
             310     18.1545E-03
             311     43.7095E-03
             312     47.0631E-03
             313     35.6395E-03
             314     45.3922E-03
             315     130.670E-03
             316     375.774E-03
             317     829.576E-03
             318         1.38543
             319         1.48320
             320     554.472E-03
             321     754.228E-03
             322         1.07917
             323     634.499E-03
             324     243.810E-03
             325     18.0123E-03
             326     44.6384E-03
             327     27.9695E-03
             328     14.7560E-03
             329     47.4606E-03
             330     51.3070E-03
             331     23.5303E-03
             332     27.5248E-03
             333     56.6047E-03
             334     48.4609E-03
             335     22.5440E-03
             336     143.086E-03
             337     316.921E-03
             338     543.578E-03
             339     810.428E-03
             340         1.09866
             341         1.40189
             342         1.71582
             343         2.02764
             344         2.34514
             345         2.65453
             346         2.96169
             347         3.26772
             348         3.57169
             349         3.87645
             350         4.18261
             351         4.49309
             352         4.81020
             353         5.13700
             354         5.47625
             355         5.82864
             356         6.20174
             357         6.59764
             358         7.00656
             359         7.43117
             360         7.86531
             361         8.28444
             362         8.66037
             363         8.96715
             364         9.15424
             365         9.22873
             366         9.10886
             367         8.80847
             368         8.32076
             369         7.68731
             370         6.94571
             371         6.09551
             372         5.22583
             373         4.31811
             374         3.44784
             375         2.61231
             376         1.83157
             377         1.16236
             378     610.882E-03
             379     228.828E-03
             380     36.0277E-03
             381     102.264E-03
             382     70.5841E-03
             383     21.6892E-03
             384     47.3535E-03
             385     45.8149E-03
             386     13.9802E-03
             387     29.3441E-03
             388     49.5509E-03
             389     33.7623E-03
             390     210.378E-03
             391     616.807E-03
             392     996.214E-03
             393     871.332E-03
             394         1.46646
             395         1.49799
             396     907.842E-03
             397     412.322E-03
             398     150.838E-03
             399     51.7449E-03
             400     38.9804E-03
             401     45.9765E-03
             402     42.9524E-03
             403     21.0838E-03
             404         11.1988
             405         11.7762
             406         8.69529
             407         13.3468
             408         12.2291
             409         8.36813
             410         12.2826
             411         14.9435
             412         9.73976
             413         9.91621
             414         9.99580
             415         7.28127
             416         10.4590
             417         10.4458
             418         7.21722
             419         3.89435
             420         4.33609
             421         7.25149
             422         8.74904
             423         6.22556
             424         7.58794
             425         9.98599
             426         7.90679
             427         4.10030
             428         10.5872
             429         9.31249
             430         8.13410
             431         3.52439
             432         1.93309
             433         15.2112
             434         3.06927
             435         14.3944
             436         14.3908
             437     933.470E-03
             438         1.67501
             439         1.43559
             440         4.35752
             441         10.0389
             442         10.0380
             443         10.1291
             444         9.47044
             445         9.13339
             446         5.26049
             447         1.45916
             448         6.52232
             449         9.51043
             450         3.75649
             451         7.02240
             452         1.78781
             453         8.41336
             454         6.42531
             455         6.69012
             456         2.20736
             457         8.05640
             458         3.10753
             459         7.44467
             460         2.02880
             461         3.77263
             462         4.06776
             463         4.67373
             464         4.50530
             465         5.14749
             466         5.40493
             467         3.09859
             468         1.02191
             469         1.63793
             470         1.13710
             471         1.70138
             472         3.33604
             473         4.72027
             474     874.244E-03
             475         4.03763
             476         1.80150
             477         1.21731
             478         5.87016
             479         3.42187
             480         13.5909
             481         10.7772
             482     84.9937E-03
             483     608.660E-03
             484         1.86985
             485     637.868E-03
             486         1.77038
             487     295.603E-03
             488         2.26358
             489         3.46912
             490         2.79429
             491         2.66906
             492         2.65623
             493         2.66748
             494         2.66734
             495         2.64312
             496         2.59207
             497         2.47833
             498         2.35675
             499         2.14627
             500         2.02856
             501         2.51608
             502         6.28084
             503         7.53964
             504         5.43642
             505         5.29819
             506         5.63512
             507         6.89399
             508         3.08118
             509         6.62915
             510         6.34353
             511         5.58560
             512         5.35879
             513         5.73433
             514         7.35591
             515         8.89559
             516         5.46528
             517         3.13218
             518         2.51497
             519         2.50424
             520         2.58818
             521         2.64392
             522         2.64058
             523         2.63324
             524         2.60007
             525         2.55168
             526         2.51827
             527         2.48270
             528         2.56228
             529         2.81026
             530         3.11730
             531         1.61216
             532         10.1147
             533         3.34963
             534         2.72269
             535         2.59984
             536         2.59545
             537         2.61205
             538         2.62166
             539         2.60609
             540         2.55746
             541         2.45741
             542         2.30864
             543         2.10745
             544         1.92697
             545         2.08928
             546         5.53203
             547         7.07302
             548         5.14831
             549         5.11063
             550         5.51221
             551         6.83003
             552     327.905E-03
             553         1.15211
             554         2.19247
             555         3.33381
             556         4.43424
             557         5.49766
             558         6.24397
             559         6.82742
             560         6.90613
             561         6.65580
             562         6.03688
             563         5.65202
             564         5.01115
             565         4.47573
             566         4.03857
             567         3.57875
             568         3.07486
             569         2.58534
             570         2.15870
             571         1.65705
             572         1.20303
             573     805.765E-03
             574     384.052E-03
             575         1.13981
             576         2.25819
             577         3.65641
             578         4.51708
             579         5.00465
             580         5.39043
             581         5.68119
             582         5.59614
             583         5.41121
             584         5.07866
             585         4.67483
             586         4.44713
             587         4.01685
             588         3.71455
             589         3.39599
             590         3.13333
             591         2.86211
             592         2.56232
             593         2.25362
             594         2.02912
             595         1.76419
             596         1.38011
             597     778.719E-03
             598     337.189E-03
             599         3.53004
             600         4.58988
             601         5.25509
             602         5.55200
             603         5.84699
             604         6.01704
             605         5.67127
             606         4.80544
             607         4.12540
             608         3.53189
             609         3.44001
             610         3.33433
             611         3.16957
             612         3.02738
             613         2.89548
             614         2.76910
             615         2.64145
             616         2.53372
             617         2.39148
             618         2.22731
             619         2.13048
             620         1.32673
             621         1.20253
             622         2.43190
             623         2.81757
             624         2.71300
             625         2.62720
             626         2.64034
             627         2.68073
             628         2.72072
             629         2.74203
             630         2.72973
             631         2.72692
             632         2.64220
             633         2.63546
             634         2.77301
             635         3.30783
             636         5.33890
             637         7.56696
             638         6.84983
             639         5.96367
             640         5.67241
             641         5.84511
             642         6.22658
             643         5.96062
             644         2.96286
             645     920.295E-03
             646         2.19229
             647         3.56169
             648         4.36476
             649         4.94497
             650         5.38375
             651         5.75356
             652         5.71493
             653         5.37700
             654         4.96942
             655         4.55211
             656         4.15043
             657         3.92464
             658         3.53139
             659         3.28610
             660         2.98383
             661         2.68394
             662         2.41659
             663         2.13418
             664         1.92716
             665         1.72093
             666         1.38158
             667     780.666E-03
             668     266.861E-03
             669         1.53756
             670         2.04315
             671         2.16056
             672         2.27779
             673         2.35573
             674         2.48622
             675         2.60920
             676         2.73331
             677         2.88345
             678         3.01884
             679         3.16119
             680         3.24564
             681         3.48679
             682         3.88256
             683         4.90510
             684         6.14745
             685         6.08910
             686         5.78690
             687         5.45029
             688         5.30550
             689         4.76009
             690         4.02584
             691         1.14588
             692         2.27173
             693         3.33491
             694         4.45925
             695         5.53224
             696         6.35979
             697         6.74441
             698         7.04150
             699         6.61907
             700         6.09866
             701         5.42521
             702         4.93048
             703         4.32418
             704         3.89038
             705         3.40811
             706         2.95456
             707         2.45528
             708         2.06092
             709         1.58938
             710         1.16548
             711     748.924E-03
             712     341.377E-03
             713     62.8352E-03
             714         7.47999
             715         6.91454
             716         13.7662
             717         6.98026
             718         11.6315
             719         10.4367
             720         11.4894
             721         2.43780
             722         7.60337
             723         10.0861
             724         1.99219
             725         14.0705
             726         8.70267
             727         14.5970
             728         11.8684
             729         3.14506
             730         4.15347
             731         1.91255
             732         16.3427
             733         12.5427
             734         4.34234
             735         4.79242
             736         5.38355
             737         3.95374
             738         12.5860
             739         5.97032
             740         9.14532
             741         12.9265
             742         12.9301
             743         1.54141
             744         11.9780
             745         4.60288
             746         12.3675
             747         11.1906
             748         11.1945
             749         10.4066
             750         8.75440
             751         5.67830
             752     600.869E-03
             753         9.78290
             754         8.64753
             755         8.81716
             756         7.20847
             757         11.0874
             758         10.2307
             759         8.00915
             760         4.99353
             761         4.34119
             762         9.25382
             763         15.0197
             764         8.78155
             765         2.47835
             766         4.27952
             767         3.98589
             768         1.56784
             769         3.65783
             770         9.53893
             771         2.78834
             772         9.13974
             773         2.70210
             774     966.289E-03
             775         1.02633
             776         9.26204
             777         4.46790
             778     436.808E-03
             779     43.4838E-03
             780     196.302E-03
             781     58.2656E-03
             782         1.13504
             783     853.074E-03
             784         1.21932
             785     726.173E-03
             786     146.510E-03
             787     38.7874E-03
             788     683.758E-03
             789     21.2536E-03
             790     209.086E-03
             791     303.379E-03
             792     525.578E-03
             793         1.08323
             794     292.669E-03
             795     819.855E-03
             796     36.2780E-03
             797     681.248E-03
             798     887.426E-03
             799         1.24147
             800         1.33325
             801     573.837E-03
             802     713.983E-03
             803     469.054E-03
             804     316.639E-03
             805     20.5905E-03
             806     21.4571E-03
             807     85.0602E-03
             808     114.141E-03
             809     509.422E-03
             810     766.247E-03
             811         1.19012
             812     445.730E-03
             813     258.508E-03
             814     162.954E-03
             815     99.8967E-03
             816         1.37247
             817     255.505E-03
             818     41.7075E-03
             819     12.5348E-03
             820         2.42371
             821         2.90015
             822         3.84175
             823         3.31321
             824     55.0955E-03
             825     150.917E-03
             826     210.641E-03
             827         7.93304
             828         7.94465
             829         7.73781
             830         8.16703
             831         8.03305
             832         7.16249
             833         7.75959
             834     884.656E-03
             835     224.617E-03
             836     52.9389E-03
             837     433.871E-03
             838     624.747E-03
             839         1.05857
             840         1.55263
             841         1.82111
             842         3.17029
             843         4.11458
             844         3.72881
             845         4.00809
             846         4.66715
             847         4.56434
             848         5.62646
             849         4.96604
             850         5.15738
             851         5.48023
             852         6.17190
             853         6.82438
             854         7.25997
             855         7.13825
             856         5.79938
             857         4.43666
             858         2.53116
             859         1.91347
             860         6.43281
             861         7.36800
             862     504.613E-03
             863         1.32788
             864         1.87354
             865         3.11682
             866         4.46903
             867         5.23952
             868         7.42225
             869         6.68110
             870         6.29557
             871         2.78941
             872         2.58643
             873         2.04380
             874         1.51076
             875     829.315E-03
             876     619.340E-03
             877         1.25611
             878         3.76166
             879     14.0815E-03
             880     269.605E-03
             881     835.378E-03
             882         1.28285
             883         2.11435
             884         2.68303
             885         3.44628
             886         4.28525
             887         4.85001
             888         5.81371
             889         6.50803
             890         7.49908
             891         8.01011
             892         7.73227
             893         6.55455
             894         5.15628
             895         3.14009
             896         1.34667
             897     512.029E-03
             898     41.0728E-03
             899     855.328E-03
             900         2.47849
             901         3.76054
             902         6.00305
             903         7.22664
             904         8.18651
             905         7.77590
             906         7.06731
             907         5.95714
             908         5.29655
             909         4.38994
             910         3.57450
             911         3.05082
             912         2.34014
             913         1.77018
             914         1.04103
             915     415.322E-03
             916     127.440E-03
             917         7.18208
             918         9.89928
             919         3.98050
             920         7.89830
             921         8.58592
             922         6.78596
             923         8.92742
             924         5.20770
             925         9.38401
             926         3.64441
             927         3.83352
             928         4.18654
             929         1.22243
             930         2.81127
             931         3.60060
             932         8.93151
             933         3.07066
             934         3.86158
             935         5.47969
             936         8.38023
             937         3.76126
             938         1.79042
             939         1.96497
             940         7.92528
             941         2.45269
             942         2.90801
             943     587.054E-03
             944     665.065E-03
             945         1.57572
             946         1.08106
             947         2.22304
             948     481.573E-03
             949     122.851E-03
             950     158.290E-03
             951         2.76288
             952         6.87322
             953         7.05335
             954         6.89120
             955         1.75830
             956         4.77525
             957     509.801E-03
             958         3.39421
             959         5.52148
             960         6.07365
             961         4.76188
             962     616.857E-03
             963         1.49542
             964         7.40972
             965         4.76969
             966         1.69257
             967     153.151E-03
             968         3.72389
             969         3.23862
             970         7.18383
             971         1.49949
             972         5.34435
             973     477.503E-03
             974         6.16439
             975         8.72072
             976         6.00346
             977         1.79387
             978         1.87945
             979         4.84920
             980         4.85613
             981         7.62754
             982         9.49436
             983         3.42826
             984         7.96270
             985         6.26189
             986         6.29946
             987         4.03992
             988         3.93270
             989         2.48780
             990         6.79909
             991         3.06313
             992         7.04547
             993         1.08891
             994         4.52367
             995         7.65488
             996         8.66437
             997         5.08155
             998         6.55607
             999         2.65098
            1000         3.29271
            1001         7.89633
            1002         6.57496
            1003         6.38923
            1004         2.82448
            1005         3.02498
            1006         3.22618
            1007         1.98020
            1008         6.15124
            1009         3.43779
            1010     643.705E-03
            1011         1.92663
            1012         1.88632
            1013     665.324E-03
            1014     720.247E-03
            1015     339.384E-03
            1016         1.45030
            1017         4.03669
            1018         3.14400
            1019     258.749E-03
            1020     979.698E-03
            1021     857.690E-03
            1022     291.028E-03
            1023         1.69510
            1024         7.94859
            1025         8.93061
            1026         4.38846
            1027         5.42640
            1028         5.75804
            1029         3.08060
            1030         9.33737
            1031         7.83116
            1032         3.29832
            1033         5.03494
            1034     253.468E-03
            1035         7.76412
            1036         3.36736
            1037         8.35696
            1038     564.780E-03
            1039     537.900E-03
            1040         2.49166
            1041         6.58530
            1042         3.62855
            1043         1.29239
            1044         5.62945
            1045         7.43275
            1046         2.77862
            1047         1.08413
            1048         3.18472
            1049         5.89791
            1050         7.03957
            1051         4.10122
            1052         1.53238
            1053         2.70140
            1054         5.56701
            1055         2.17505
            1056         4.88794
            1057         6.53664
            1058         6.35468
            1059         6.87451
            1060         7.22986
            1061         2.91554
            1062         3.14158
            1063         1.78626
            1064         2.26068
            1065         1.02338
            1066         4.65644
            1067         4.64716
            1068         6.03810
            1069         1.82195
            1070         5.96010
            1071         1.73554
            1072         3.46409
            1073         7.00730
            1074         6.06278
            1075         2.77241
            1076         5.97170
            1077         3.14722
            1078         3.31721
            1079         5.72884
            1080     531.158E-03
            1081         3.54598
            1082         1.69183
            1083         1.46551
            1084     508.038E-03
            1085     698.366E-03
            1086     225.220E-03
            1087         4.38874
            1088         4.98380
            1089         3.24781
            1090         7.71111
            1091         7.51700
            1092         6.12253
            1093         2.70251
            1094         7.07710
            1095         6.44223
            1096         2.92575
            1097         7.00414
            1098         1.61417
            1099         6.41524
            1100         2.19734
            1101         6.41355
            1102         5.23359
            1103         3.09492
            1104         7.59452
            1105         6.36320
            1106         5.33631
            1107         6.83501
            1108         4.41156
            1109         6.20414
            1110         2.87121
            1111         5.44731
            1112         1.97347
            1113         6.37277
            1114         6.49869
            1115         4.42493
            1116         1.76297
            1117         2.90294
            1118         1.78774
            1119         4.50720
            1120         4.23888
            1121         5.87926
            1122         5.04707
            1123         5.06601
            1124         4.06099
            1125         2.37484
            1126         5.79873
            1127         6.31134
            1128         5.81210
            1129         6.59009
            1130         2.04776
            1131         1.46549
            1132         1.94371
            1133         5.74168
            1134         2.32828
            1135     806.628E-03
            1136         5.92548
            1137         5.47345
            1138         2.25104
            1139         6.10930
            1140         2.57648
            1141         4.04932
            1142         3.06772
            1143         3.62804
            1144         2.94684
            1145         3.88132
            1146         3.28997
            1147     812.038E-03
            1148         4.85026
            1149     918.768E-03
            1150         4.40634
            1151         6.88074
            1152         2.18219
            1153         4.37414
            1154         3.63561
            1155         6.76400
            1156         5.65766
            1157         5.54509
            1158         6.42581
            1159         1.15582
            1160         6.95547
            1161         3.05903
            1162         5.88857
            1163         3.07930
            1164         1.09648
            1165         5.94028
            1166         2.46029
            1167         5.82482
            1168         3.06237
            1169         5.15910
            1170         5.02737
            1171         2.10261
            1172         5.63425
            1173         2.22126
            1174         6.52786
            1175         1.02864
            1176         5.65586
            1177         5.75189
            1178         2.36205
            1179         5.33386
            1180         3.76270
            1181         4.57673
            1182         2.91384
            1183         5.27237
            1184         5.19831
            1185         3.16178
            1186         2.94911
            1187         2.79470
            1188         2.95902
            1189         3.15025
            1190         1.99137
            1191         1.66789
            1192         2.09809
            1193         3.04188
            1194         5.34475
            1195         5.44206
            1196         2.54570
            1197         6.03751
            1198         5.54615
            1199         7.13435
            1200         5.20084
            1201         5.90760
            1202         5.21064
            1203         5.97420
            1204         4.51334
            1205         2.08250
            1206         1.01764
            1207         2.71740
            1208         2.70150
            1209         5.48914
            1210         6.69402
            1211         3.95071
            1212         5.20618
            1213         1.98330
            1214         1.70814
            1215     996.858E-03
            1216         5.09673
            1217         3.55000
            1218         3.00023
            1219         2.46867
            1220         3.89468
            1221         3.37168
            1222         6.63669
            1223         4.22247
            1224         6.19673
            1225         3.73491
            1226         4.61595
            1227         4.07441
            1228         2.87791
            1229         6.41600
            1230         6.56896
            1231         7.90837
            1232         5.73348
            1233         5.51454
            1234         6.00717
            1235         5.84595
            1236         5.97136
            1237         5.23185
            1238         5.38271
            1239         2.74467
            1240         2.06824
            1241         2.67100
            1242         2.59317
            1243         6.67776
            1244         5.13926
            1245         2.23628
            1246         3.88398
            1247         2.86882
            1248         2.44650
            1249         6.26768
            1250         3.11691
            1251         1.45402
            1252         6.26131
            1253         5.72141
            1254         3.51462
            1255         5.52654
            1256         5.08743
            1257         1.23042
            1258         1.95100
            1259         3.92601
            1260         2.98116
            1261         5.25283
            1262         2.86502
            1263         5.39346
            1264         4.55985
            1265         1.05501
            1266         5.04240
            1267         2.22356
            1268         2.10940
            1269         3.06229
            1270         1.76694
            1271         2.84851
            1272         2.99720
            1273         5.69266
            1274         3.95566
            1275         2.63758
            1276         6.05721
            1277         1.45023
            1278         3.83470
            1279         3.67387
            1280         5.67252
            1281         3.10157
            1282         1.12067
            1283         2.74231
            1284     962.708E-03
            1285         5.84686
            1286         1.21987
            1287         3.39720
            1288         2.80038
            1289         5.93959
            1290         3.44547
            1291         5.35602
            1292         5.54889
            1293         5.88363
            1294         6.28875
            1295         6.14007
            1296         5.04058
            1297         5.79262
            1298         2.28790
            1299         2.00648
            1300         2.65139
            1301         5.80252
            1302         6.34228
            1303         4.32295
            1304         2.79870
            1305         2.34200
            1306         2.49349
            1307         5.43260
            1308         1.69799
            1309         1.13022
            1310         2.23795
            1311         5.38676
            1312         4.96135
            1313         5.86130
            1314         1.39649
            1315         6.02339
            1316         4.76874
            1317         5.02330
            1318         5.45791
            1319         6.16192
            1320         5.58263
            1321         5.12702
            1322         3.17445
            1323         1.41587
            1324         3.70932
            1325         2.00815
            1326         4.01275
            1327         3.77142
            1328         2.02514
            1329         4.66211
            1330         4.60023
            1331         3.25218
            1332         3.79683
            1333         2.83479
            1334         2.39274
            1335         2.02112
            1336         1.46044
            1337     681.867E-03
            1338         5.85585
            1339         3.74548
            1340         4.09695
            1341         2.24208
            1342         1.93441
            1343         2.87887
            1344         3.27411
            1345         3.17042
            1346         2.86551
            1347         2.70361
            1348         2.54227
            1349         2.31290
            1350         5.46180
            1351         2.92801
            1352         3.00756
            1353         1.89752
            1354         5.80308
            1355         1.14343
            1356         1.95466
            1357         5.73215
            1358         6.00381
            1359         2.52532
            1360         2.05932
            1361         2.94107
            1362         5.16875
            1363         1.66595
            1364         5.59934
            1365         6.36127
            1366         5.93381
            1367         5.24649
            1368         2.78037
            1369         4.07844
            1370         5.15390
            1371         5.58757
            1372         2.34974
            1373         2.71667
            1374         5.62664
            1375         5.42635
            1376         5.32086
            1377         5.39585
            1378         5.01036
            1379         2.58456
            1380         2.23204
            1381         3.02052
            1382         5.70464
            1383         3.82768
            1384         2.47658
            1385         2.51784
            1386         5.55770
            1387         1.87139
            1388         5.80054
            1389         6.08249
            1390         3.39873
            1391         2.73303
            1392         6.02040
            1393     944.842E-03
            1394         5.47201
            1395         5.25036
            1396         5.52113
            1397         3.99658
            1398         1.45408
            1399         3.00042
            1400         5.10272
            1401         1.59392
            1402         2.59119
            1403         4.06824
            1404         2.35020
            1405         2.22748
            1406         3.39860
            1407         6.42478
            1408         3.32142
            1409         1.67369
            1410     509.468E-03
            1411         2.24363
            1412         4.07628
            1413         3.59039
            1414         3.04701
            1415         2.81319
            1416         3.02004
            1417         2.45605
            1418         4.37762
            1419         5.17039
            1420         4.82333
            1421         2.08843
            1422         5.02081
            1423         3.84591
            1424         5.47796
            1425         5.80946
            1426         5.89326
            1427         4.52177
            1428         2.28492
            1429         1.37929
            1430         5.61129
            1431         2.84101
            1432         5.60762
            1433         4.37504
            1434         5.20022
            1435         1.72652
            1436         5.41185
            1437         2.42264
            1438         2.26709
            1439         6.34965
            1440         3.62646
            1441         5.77545
            1442         5.03815
            1443         5.77577
            1444         1.89775
            1445         5.26149
            1446         5.58975
            1447         5.32039
            1448         1.97660
            1449         4.93424
            1450         5.00665
            1451         5.40416
            1452         5.71757
            1453         2.66671
            1454         2.29842
            1455         2.28711
            1456         5.40833
            1457         5.99377
            1458         4.17801
            1459         4.32734
            1460         3.17324
            1461         2.72994
            1462         2.04274
            1463         2.40233
            1464         5.69746
            1465         5.33754
            1466         3.64022
            1467         1.84733
            1468         4.16504
            1469         2.89387
            1470         3.59457
            1471         2.65134
            1472         2.35614
            1473         3.71911
            1474         3.22874
            1475         3.16589
            1476         5.33530
            1477         2.85523
            1478         1.71457
            1479         3.07119
            1480         6.01516
            1481         5.51807
            1482         5.32541
            1483         4.60710
            1484         5.14188
            1485         3.33805
            1486         5.60747
            1487         2.56156
            1488         4.92954
            1489         5.73183
            1490         5.59816
            1491         2.14579
            1492         4.66977
            1493         1.88999
            1494         5.06758
            1495         4.26117
            1496         6.11941
            1497         5.21308
            1498         5.28972
            1499         2.00572
            1500         2.83380
            1501         1.90685
            1502         5.25278
            1503         5.60971
            1504         5.41906
            1505         5.58015
            1506         2.67899
            1507         2.62852
            1508         5.47935
            1509         3.97999
            1510         2.40043
            1511         2.34140
            1512         2.26665
            1513         2.52177
            1514         5.77298
            1515         2.73534
            1516         2.70492
            1517         2.85891
            1518         1.57073
            1519         2.81054
            1520         2.74565
            1521         3.15250
            1522         1.42267
            1523         3.85216
            1524         3.62088
            1525         5.19915
            1526         5.04027
            1527         2.67175
            1528         4.38433
            1529         2.89770
            1530         2.70480
            1531         2.42591
            1532         5.47556
            1533         5.40437
            1534         4.68424
            1535         5.66121
            1536         3.18579
            1537         5.69879
            1538         5.25530
            1539         1.94735
            1540         2.37550
            1541         2.66793
            1542         2.57414
            1543         5.70638
            1544         5.86481
            1545         5.54494
            1546         5.46593
            1547         5.51900
            1548         5.69535
            1549         5.49439
            1550         3.20959
            1551         4.61876
            1552         2.54776
            1553         2.51161
            1554         2.70837
            1555         2.96104
            1556         2.24273
            1557         2.52418
            1558         1.20544
            1559         2.15238
            1560         2.70865
            1561         2.76039
            1562         2.78703
            1563         2.80608
            1564         2.62915
            1565         2.83447
            1566         3.87959
            1567         2.08914
            1568         5.44310
            1569         2.28390
            1570         3.62604
            1571         5.59788
            1572         2.62554
            1573         2.60030
            1574         5.08612
            1575         5.49967
            1576         5.81752
            1577         5.38676
            1578         3.19746
            1579         5.66446
            1580         5.97462
            1581         5.69736
            1582         2.58493
            1583         2.72284
            1584         2.45955
            1585         5.84578
            1586         5.79052
            1587         5.73006
            1588         5.41987
            1589         2.43051
            1590         3.68191
            1591         1.39674
            1592         2.91133
            1593         5.08589
            1594         2.54238
            1595         2.85946
            1596         2.75517
            1597         2.31454
            1598         2.65314
            1599         3.49839
            1600         4.33934
            1601         2.63047
            1602         5.52532
            1603         3.59810
            1604         5.66776
            1605         2.56546
            1606         5.57211
            1607         3.94855
            1608         6.17539
            1609         3.37219
            1610         2.44133
            1611         2.75317
            1612         5.80592
            1613         2.71231
            1614         5.86987
            1615         3.01206
            1616         2.93837
            1617         2.40563
            1618         2.49741
            1619         2.68582
            1620         6.48211
            1621         1.10169
            1622         3.32211
            1623         4.13872
            1624         4.50159
            1625         6.07217
            1626         5.29927
            1627         6.36693
            1628         2.60345
            1629         4.11332
            1630         2.26959
            1631         5.68401
            1632         2.71205
            1633     907.855E-03
            1634         3.54650
            1635         2.33801
            1636         2.52517
            1637         2.68934
            1638         2.70178
            1639         3.11770
            1640         4.60145
            1641         2.57544
            1642         6.11128
            1643         2.55612
            1644         4.56809
            1645         4.91468
            1646         2.59607
            1647         2.69325
            1648         2.63653
            1649         4.43065
            1650         2.39798
            1651         5.34478
            1652         2.67608
            1653         2.70770
            1654         3.26028
            1655         3.91435
            1656         2.60896
            1657         5.06538
            1658         4.84081
            1659         5.02793
            1660         4.38327
            1661         2.61737
            1662         2.56085
            1663         2.69239
            1664         2.45871
            1665         2.65525
            1666         5.03347
            1667         4.85005
            1668         2.62402
            1669         5.51508
            1670         2.53122
            1671         2.58087
            1672         2.61547
            1673         2.64660
            1674         2.46781
            1675         2.58534
            1676         2.51118
            1677         2.75399
            1678         2.39946
            1679         2.54329
            1680         2.60558
            1681         2.41274
            1682         2.63008
            1683         2.61626
            1684         2.63385
            1685         2.57095
            1686         2.61689
            1687         2.51745
            1688         2.48558
            1689         2.63349
            1690         2.58971
            1691         2.64091
            1692         2.52493
            1693         2.43429
            1694         2.60375
            1695         2.65512
            1696         2.52984
            1697         2.56076
            1698         2.61951
            1699         2.49067
            1700         2.37077
            1701         2.67864
            1702         2.55968
            1703         2.58488
            1704         2.62776
            1705         2.61146
            1706         2.38495
            1707         2.64858
            1708         2.58295
            1709         2.59108
            1710         2.60105
            1711         2.61245
            1712         2.65058
            1713         2.61427
            1714         2.60899
            1715         2.65758
            1716         2.51398
            1717         2.61024
            1718         2.59038
            1719         2.61494
            1720         2.63386
            1721         2.61938
            1722         2.65535
            1723         2.48971
            1724         2.78813
            1725         2.62914
            1726         2.91614
            1727         2.85306
            1728         3.04550
            1729         2.66245
            1730         2.85953
            1731         2.75323
            1732         2.83392
            1733         3.03636
            1734         2.57556
            1735         2.43320
            1736         2.85382
            1737         2.92333
            1738         2.32824
            1739         2.72595
            1740         3.11643
            1741         2.43782
            1742         2.42655
            1743         3.07296
            1744         3.28247
            1745         2.41768
            1746         2.18221
            1747         2.21460
            1748         4.83889
            1749         4.36886
            1750         2.67402
            1751         5.17062
            1752         2.68071
            1753         3.73147
            1754         2.00748
            1755     463.949E-03
            1756         4.29307
            1757         2.12845
            1758         5.81669
            1759         2.39480
            1760         5.58745
            1761         2.99122
            1762         5.67859
            1763         1.24663
            1764         2.59496
            1765         2.57919
            1766     457.436E-03
            1767         4.12288
            1768         3.03214
            1769         2.30502
            1770         2.22327
            1771         2.01539
            1772         2.62320
            1773         2.29617
            1774         2.79622
            1775         2.41097
            1776         2.70218
            1777         3.69664
            1778         2.72145
            1779         4.01611
            1780         1.39988
            1781         2.43803
            1782         2.60629
            1783         2.88977
            1784         7.29401
            1785         2.82055
            1786         3.31809
            1787         2.58230
            1788         5.36886
            1789         2.65026
            1790     573.945E-03
            1791     868.240E-03
            1792         2.79169
            1793         5.97097
            1794         4.67028
            1795         5.74266
            1796         5.67402
            1797         4.56945
            1798     360.671E-03
            1799         6.53943
            1800         2.65818
            1801         2.41513
            1802         2.66636
            1803         1.53642
            1804         1.97232
            1805         4.01813
            1806         2.39378
            1807         5.78451
            1808         2.49616
            1809         3.89617
            1810         2.55476
            1811         5.14975
            1812         1.63056
            1813         2.64945
            1814         2.53041
            1815         2.49712
            1816         2.56222
            1817         5.62987
            1818     572.852E-03
            1819         3.31792
            1820         2.44910
            1821         5.57563
            1822         1.90731
            1823         2.24760
            1824         2.78601
            1825         2.19045
            1826         2.68597
            1827         5.15094
            1828         1.87121
            1829         3.62904
            1830         1.25269
            1831         2.24131
            1832         2.58326
            1833         2.64284
            1834         2.62214
            1835         5.13955
            1836         5.55424
            1837         4.35983
            1838         2.12088
            1839         5.94177
            1840         2.21410
            1841         2.74844
            1842         2.66961
            1843         2.27722
            1844         2.56777
            1845         5.39750
            1846         2.53895
            1847         2.59786
            1848         4.77382
            1849         5.14577
            1850         2.67420
            1851         2.66673
            1852         2.66016
            1853         2.21891
            1854         2.66271
            1855         2.34045
            1856         4.92820
            1857         2.58172
            1858         1.95628
            1859         4.74395
            1860         5.07996
            1861         2.28603
            1862         2.21331
            1863         2.67790
            1864         2.65102
            1865         2.65919
            1866         2.63871
            1867         4.69182
            1868         2.52952
            1869         2.06173
            1870         2.65804
            1871         2.64163
            1872         7.01485
            1873         5.81197
            1874     344.644E-03
            1875     72.7463E-03
            1876         6.27441
            1877         5.88113
            1878         5.70658
            1879         6.05014
            1880         5.27882
            1881         3.24375
            1882         2.65350
            1883         2.57364
            1884         2.70109
            1885         2.75739
            1886         2.75338
            1887         2.74938
            1888         2.70975
            1889         2.67903
            1890         2.64897
            1891         2.64119
            1892         2.67643
            1893         2.82095
            1894         2.45835
            1895     990.413E-03
            1896         2.32216
            1897         3.39251
            1898         4.37951
            1899         5.02236
            1900         5.45045
            1901         5.68027
            1902         5.61203
            1903         5.31056
            1904         5.05165
            1905         4.69569
            1906         4.32640
            1907         4.04864
            1908         3.75303
            1909         3.45635
            1910         3.13135
            1911         2.85579
            1912         2.58688
            1913         2.30010
            1914         2.01493
            1915         1.72431
            1916         1.29761
            1917     896.423E-03
            1918     300.046E-03
            1919     599.014E-03
            1920         1.38872
            1921         1.97335
            1922         2.23737
            1923         2.40943
            1924         2.53025
            1925         2.63384
            1926         2.76061
            1927         2.87818
            1928         3.03055
            1929         3.16407
            1930         3.28312
            1931         3.46079
            1932         3.66591
            1933         4.00549
            1934         4.79824
            1935         5.75538
            1936         6.01017
            1937         5.86222
            1938         5.59210
            1939         5.35292
            1940         4.84675
            1941         3.49793
            1942         1.71225
            1943         1.20972
            1944         2.18596
            1945         3.27879
            1946         4.38530
            1947         5.52125
            1948         6.36559
            1949         6.86004
            1950         6.88759
            1951         6.66403
            1952         6.25441
            1953         5.54438
            1954         5.10017
            1955         4.52536
            1956         4.07107
            1957         3.57998
            1958         3.11380
            1959         2.61466
            1960         2.10964
            1961         1.62219
            1962         1.18247
            1963     759.796E-03
            1964     369.657E-03
            1965     76.1303E-03
            1966         2.80002
            1967         2.66807
            1968         2.65572
            1969         2.66320
            1970         2.66865
            1971         2.65214
            1972         2.59334
            1973         2.49717
            1974         2.32792
            1975         2.13258
            1976         2.04601
            1977         2.53153
            1978         5.43923
            1979         5.29269
            1980         5.63662
            1981         2.70251
            1982         2.60473
            1983         2.60209
            1984         2.61583
            1985         2.62613
            1986         2.60961
            1987         2.56139
            1988         2.45954
            1989         2.29585
            1990         2.08767
            1991         1.90186
            1992         2.13693
            1993         2.85553
            1994         2.54572
            1995         2.49923
            1996         2.51202
            1997         2.55686
            1998         2.59932
            1999         2.63430
            2000         2.63867
            2001         2.63546
            2002         2.54607
            2003         2.50397
            2004         2.56093
            2005         3.01162
            2006     605.241E-03
            2007         1.52014
            2008         2.08872
            2009         2.21601
            2010         2.28409
            2011         2.34319
            2012         2.48109
            2013         2.61187
            2014         2.74469
            2015         2.87970
            2016         3.00722
            2017         3.16628
            2018         3.18148
            2019         3.47056
            2020         3.87445
            2021         4.94232
            2022         6.06678
            2023         6.19120
            2024         5.75183
            2025         5.45600
            2026         5.29943
            2027         5.08824
            2028         3.76483
            2029         1.66881
            2030         6.33917
            2031         5.59993
            2032         5.37977
            2033         5.69656
            2034     271.320E-03
            2035     840.060E-03
            2036         1.27628
            2037         1.67305
            2038         1.91700
            2039         2.16097
            2040         2.43959
            2041         2.70101
            2042         2.96890
            2043         3.28297
            2044         3.55145
            2045         3.89126
            2046         4.21301
            2047         4.62167
            2048         4.90999
            2049         5.41678
            2050         5.70285
            2051         5.75654
            2052         5.44315
            2053         4.98513
            2054         4.37834
            2055         3.39577
            2056         2.39612
            2057     897.768E-03
            2058     363.947E-03
            2059     753.469E-03
            2060         1.14696
            2061         1.56236
            2062         2.02039
            2063         2.50013
            2064         2.97338
            2065         3.41661
            2066         3.88644
            2067         4.36810
            2068         4.79936
            2069         5.47569
            2070         5.96695
            2071         6.59991
            2072         6.93282
            2073         6.96045
            2074         6.45217
            2075         5.52231
            2076         4.39021
            2077         3.26744
            2078         2.15694
            2079         1.09915
            2080     267.788E-03
            2081         5.42763
            2082         5.08477
            2083         5.07222
            2084         2.84420
            2085         6.70650
            2086         1.12351
            2087         4.60906
            2088         3.13448
            2089         5.98521
            2090         1.92221
            2091         1.30653
            2092     582.408E-03
            2093         2.57145
            2094         1.75920
            2095         4.90357
            2096         3.86892
            2097         5.76584
            2098         7.08262
            2099         4.43966
            2100         5.16313
            2101         5.44417
            2102         6.27991
            2103         6.83109
            2104         7.23901
            2105         7.33719
            2106         6.11047
            2107         3.46073
            2108         1.19694
            2109     92.3652E-03
            2110     260.413E-03
            2111         1.20383
            2112     418.373E-03
            2113     330.950E-03
            2114     211.830E-03
            2115     154.580E-03
            2116     31.6344E-03
            2117     23.4174E-03
            2118     853.608E-03
            2119     193.565E-03
            2120     39.5874E-03
            2121     405.038E-03
            2122     632.011E-03
            2123         1.06214
            2124     316.672E-03
            2125         2.48882
            2126         3.15041
            2127         5.99505
            2128         4.49887
            2129         1.34714
            2130     252.912E-03
            2131     551.907E-03
            2132         4.48643
            2133         7.31507
            2134         5.11324
            2135         6.37696
            2136         7.47347
            2137         7.77370
            2138         8.00273
            2139         7.76275
            2140         6.88674
            2141         6.50358
            2142         4.96102
            2143         5.25797
            2144         5.82618
            2145         4.11270
            2146         4.38986
            2147         5.17987
            2148         4.87542
            2149         4.29896
            2150         3.73721
            2151         3.46182
            2152         2.91024
            2153         2.67856
            2154         2.10530
            2155         1.04594
            2156         1.51004
            2157         1.54473
            2158     420.660E-03
            2159     816.901E-03
            2160         1.31636
            2161     831.071E-03
            2162     424.825E-03
            2163     262.936E-03
            2164     45.7420E-03
            2165     13.5219E-03
            2166     132.313E-03
            2167     41.3668E-03
            2168     92.5172E-03
            2169     27.3533E-03
            2170         1.76724
            2171         2.29259
            2172         2.80337
            2173         3.06229
            2174         3.58217
            2175         5.95970
            2176         7.52725
            2177         6.68741
            2178         7.06450
            2179         7.74786
            2180         8.11512
            2181         8.10463
            2182         7.62067
            2183         3.84279
            2184         2.46093
            2185         1.30010
            2186     830.761E-03
            2187     185.508E-03
            2188     37.6931E-03
            2189     810.624E-03
            2190     135.013E-03
            2191     615.535E-03
            2192         1.06731
            2193         1.82165
            2194         2.37632
            2195         3.18540
            2196         4.01403
            2197         4.58729
            2198         5.50556
            2199         6.14931
            2200         7.23520
            2201         7.92545
            2202         7.96465
            2203         7.17135
            2204         5.93366
            2205         3.83901
            2206         1.89049
            2207     897.099E-03
            2208     58.2989E-03
            2209     20.1596E-03
            2210     66.1084E-03
            2211     157.395E-03
            2212     317.513E-03
            2213     454.661E-03
            2214         1.84687
            2215         3.13225
            2216         5.14335
            2217         6.47954
            2218         7.95060
            2219         7.97921
            2220         7.44051
            2221         6.32631
            2222         5.59008
            2223         4.67344
            2224         3.84396
            2225         3.32295
            2226         2.58761
            2227         2.04397
            2228         1.28866
            2229     605.493E-03
            2230     259.448E-03
            2231     12.8401E-03
            2232     619.037E-03
            2233     480.926E-03
            2234     147.246E-03
            2235     32.0320E-03
            2236         2.52240
            2237         6.41027
            2238         6.37028
            2239         4.03741
            2240         6.91945
            2241         6.03125
            2242         3.26466
            2243         3.13002
            2244         3.15746
            2245         3.08794
            2246         3.05905
            2247         4.01253
            2248         2.86907
            2249         6.54889
            2250         2.77436
            2251         2.28300
            2252         3.74981
            2253         5.42402
            2254         7.10151
            2255         6.84910
            2256     147.133E-03
            2257     964.519E-03
            2258     352.289E-03
            2259     558.583E-03
            2260         5.04648
            2261     476.129E-03
            2262     165.994E-03
            2263     315.417E-03
            2264     173.613E-03
            2265         4.96130
            2266         5.50831
            2267         7.05013
            2268         7.18885
            2269     160.644E-03
            2270     551.643E-03
            2271         5.93926
            2272         5.31570
            2273         3.25963
            2274         1.14711
            2275         2.58842
            2276         2.91086
            2277     888.086E-03
            2278         7.01721
            2279         1.51496
            2280         3.72595
            2281     498.228E-03
            2282         6.90884
            2283         6.48675
            2284         2.73946
            2285         2.47797
            2286         5.90335
            2287         2.14380
            2288         1.61179
            2289         4.38009
            2290         6.47936
            2291         2.92103
            2292         1.13446
            2293         1.87421
            2294         6.90129
            2295         2.78656
            2296         1.33149
            2297         3.70550
            2298         1.28947
            2299         3.70377
            2300         3.41017
            2301         7.27863
            2302     618.325E-03
            2303     908.206E-03
            2304         2.56987
            2305     776.029E-03
            2306         3.90058
            2307         7.04073
            2308         6.53302
            2309         1.16067
            2310     497.687E-03
            2311         1.45832
            2312         2.50443
            2313         6.49424
            2314         5.83240
            2315         1.07415
            2316         2.81202
            2317         6.26214
            2318         6.34615
            2319         2.67639
            2320         1.52095
            2321         1.46400
            2322         4.04119
            2323         4.04229
            2324         6.39030
            2325         6.46128
            2326         3.21870
            2327         3.06407
            2328         2.30574
            2329         3.16177
            2330         3.15967
            2331         1.16544
            2332         1.14136
            2333     590.654E-03
            2334         1.75550
            2335         4.68852
            2336         3.60705
            2337         6.13788
            2338         6.13051
            2339         3.43452
            2340     628.434E-03
            2341         5.49395
            2342         2.13189
            2343         1.90572
            2344         3.22887
            2345     694.501E-03
            2346     717.346E-03
            2347         1.97263
            2348         1.95219
            2349         6.35655
            2350         1.70294
            2351         5.15668
            2352         5.97349
            2353         2.81711
            2354         2.56686
            2355     297.771E-03
            2356     955.170E-03
            2357         2.37495
            2358         5.75148
            2359         5.81187
            2360     887.977E-03
            2361     294.517E-03
            2362         6.35558
            2363         1.96230
            2364         2.96769
            2365         4.55911
            2366         5.31185
            2367         6.11880
            2368         4.97044
            2369         4.82848
            2370         1.96425
            2371         2.29962
            2372         5.92435
            2373         5.98308
            2374         2.02294
            2375         2.95180
            2376         6.04888
            2377         6.12178
            2378         2.80132
            2379         1.47265
            2380         1.42549
            2381         3.87586
            2382         3.88026
            2383         5.94195
            2384         5.99242
            2385         3.30573
            2386         3.14189
            2387         2.79965
            2388         2.79643
            2389         1.03121
            2390         1.02846
            2391     577.406E-03
            2392         1.68353
            2393         5.60665
            2394         4.18749
            2395         3.72257
            2396         5.72504
            2397         3.54469
            2398         5.65147
            2399         2.03611
            2400         1.94442
            2401         2.65860
            2402         2.38298
            2403     614.120E-03
            2404     585.679E-03
            2405         1.61126
            2406         1.71582
            2407         1.60778
            2408         4.99695
            2409         5.46306
            2410         5.66252
            2411     782.273E-03
            2412         2.60154
            2413         2.65471
            2414         6.07265
            2415         4.52469
            2416         4.78716
            2417         6.12692
            2418         1.10012
            2419         4.45741
            2420         2.48986
            2421         4.47224
            2422         1.78996
            2423         5.43696
            2424         1.04668
            2425         5.82656
            2426     343.517E-03
            2427         5.54871
            2428         2.61875
            2429         3.45521
            2430         2.06827
            2431     502.425E-03
            2432         4.00155
            2433         5.38702
            2434         4.11759
            2435         4.68372
            2436         4.42657
            2437         4.30447
            2438         5.61820
            2439         5.41149
            2440         2.55818
            2441         1.22972
            2442         2.41042
            2443         5.54713
            2444         1.97215
            2445         4.88821
            2446         2.74538
            2447         5.79381
            2448         2.59755
            2449         5.87673
            2450         1.75254
            2451         1.68499
            2452         4.48288
            2453         4.47138
            2454         5.73122
            2455         2.89631
            2456         5.79784
            2457         3.05444
            2458         3.48221
            2459         1.31905
            2460         3.47386
            2461         1.29714
            2462     901.106E-03
            2463         5.98132
            2464         5.45667
            2465         3.28532
            2466         3.90487
            2467         3.45676
            2468         4.07439
            2469         5.41167
            2470         5.86551
            2471         1.86645
            2472     845.473E-03
            2473         2.53973
            2474         5.84609
            2475         5.43326
            2476         2.28554
            2477         2.85982
            2478         5.81249
            2479         5.74801
            2480         6.04099
            2481         4.10547
            2482         1.59138
            2483         5.91475
            2484         1.56107
            2485         1.97316
            2486         3.25462
            2487         2.99507
            2488         3.91126
            2489         2.67579
            2490         2.56023
            2491     954.879E-03
            2492         5.59983
            2493         2.85401
            2494         5.11587
            2495         5.41052
            2496         5.75814
            2497         2.74986
            2498         1.12275
            2499         3.21939
            2500         4.98379
            2501         4.98549
            2502         3.05715
            2503         3.95534
            2504         3.82125
            2505         4.14745
            2506         1.60355
            2507         1.63131
            2508         4.17538
            2509         5.44001
            2510         2.78202
            2511         5.39798
            2512         3.72492
            2513         4.09960
            2514         4.90669
            2515         1.91435
            2516         4.85064
            2517         1.98480
            2518         1.24573
            2519         3.13405
            2520         5.55307
            2521         2.71438
            2522         5.75057
            2523         5.61827
            2524         2.55960
            2525         1.18747
            2526         1.98043
            2527     540.090E-03
            2528         5.44278
            2529         4.82734
            2530         4.38159
            2531         4.18707
            2532         5.16777
            2533         5.33761
            2534         5.46594
            2535         5.93603
            2536         2.47954
            2537         5.91116
            2538         2.49531
            2539         2.63306
            2540         5.97970
            2541         1.76516
            2542         4.54812
            2543         1.68943
            2544         4.54219
            2545         5.22312
            2546         6.71871
            2547         4.23326
            2548         3.56696
            2549         3.74055
            2550         5.14951
            2551         5.74369
            2552         2.47599
            2553         5.74365
            2554         4.41731
            2555         6.56681
            2556         5.79926
            2557         4.38689
            2558         5.41770
            2559         2.39764
            2560         4.88847
            2561         3.82220
            2562         1.46253
            2563         3.16690
            2564         5.53074
            2565         2.26317
            2566         5.81800
            2567         5.67076
            2568         3.17515
            2569         2.96079
            2570         1.61506
            2571         5.20866
            2572         5.61288
            2573         2.88212
            2574         5.04690
            2575         5.48451
            2576         5.76142
            2577         5.23568
            2578         5.46726
            2579         2.40082
            2580         5.19785
            2581         6.15466
            2582         4.51493
            2583         2.56788
            2584         5.13527
            2585     992.168E-03
            2586         2.66044
            2587         4.49042
            2588         3.05910
            2589         3.22058
            2590         3.64187
            2591         3.69190
            2592         4.08665
            2593     776.947E-03
            2594         4.85488
            2595         1.92981
            2596         4.85131
            2597         1.97066
            2598         5.36277
            2599         2.79800
            2600         2.64350
            2601         2.19888
            2602         1.91051
            2603         5.66225
            2604         5.42816
            2605         3.91808
            2606         4.04445
            2607         5.33647
            2608         5.59369
            2609         5.84046
            2610         4.14943
            2611         4.93779
            2612         4.37677
            2613         5.63560
            2614         1.96160
            2615         5.52505
            2616         2.78876
            2617         5.50285
            2618         5.76840
            2619         5.61847
            2620         4.87155
            2621         1.92643
            2622         2.88104
            2623         5.63386
            2624         2.50601
            2625         5.79481
            2626         2.33889
            2627     900.064E-03
            2628         6.34377
            2629         2.84344
            2630         3.16103
            2631         2.28251
            2632         5.28786
            2633         2.29148
            2634         5.40150
            2635         5.79936
            2636         2.46878
            2637         1.83362
            2638         4.80808
            2639         5.39367
            2640         4.13478
            2641         2.93856
            2642         4.87513
            2643         5.53745
            2644         4.29664
            2645         6.00534
            2646         3.56960
            2647         3.38237
            2648         3.81743
            2649         1.42733
            2650         2.67374
            2651         2.61562
            2652         4.59251
            2653         4.49131
            2654         2.88146
            2655         3.27640
            2656         3.44661
            2657         3.03049
            2658         3.54290
            2659         3.37928
            2660         4.80280
            2661         5.30298
            2662         2.13215
            2663         5.20979
            2664         2.70320
            2665         2.54902
            2666         2.28912
            2667         2.00298
            2668         5.59335
            2669         2.70581
            2670         2.81661
            2671         5.48042
            2672         2.72970
            2673         5.59452
            2674         2.21456
            2675         5.39664
            2676         2.99805
            2677         5.16498
            2678         6.13322
            2679         4.72710
            2680         3.95843
            2681         3.47385
            2682         6.43132
            2683         4.04818
            2684         3.04299
            2685         3.20041
            2686         5.26300
            2687         2.10548
            2688         2.63387
            2689         2.02275
            2690         5.34752
            2691         5.83410
            2692         2.98804
            2693         3.15365
            2694         5.72961
            2695         2.56391
            2696         2.70204
            2697         5.72642
            2698         2.11221
            2699         3.08697
            2700         2.42083
            2701         2.85538
            2702         2.90318
            2703         2.75800
            2704         2.26782
            2705         5.77297
            2706         2.65519
            2707         3.70390
            2708         4.48592
            2709         5.60174
            2710         5.58070
            2711         2.41555
            2712         5.17005
            2713         2.16442
            2714         2.03456
            2715         2.70094
            2716         2.55303
            2717         5.10131
            2718         2.29124
            2719         2.43592
            2720         5.63247
            2721         5.70230
            2722         4.28830
            2723         4.98695
            2724         1.90267
            2725         5.02119
            2726         1.82037
            2727         2.24320
            2728         5.76069
            2729         5.89520
            2730         2.35164
            2731         5.07142
            2732         5.94360
            2733         3.91282
            2734         5.00591
            2735         3.60195
            2736         5.29251
            2737         3.33413
            2738         2.55976
            2739         2.54953
            2740         5.37669
            2741         5.28049
            2742         5.08589
            2743         4.19784
            2744         3.23299
            2745         3.39770
            2746         5.11166
            2747         5.64806
            2748         2.81411
            2749         2.96398
            2750         2.10045
            2751         2.69179
            2752         2.19623
            2753         2.85035
            2754         2.99701
            2755         2.79185
            2756         2.88059
            2757         4.62525
            2758         3.09574
            2759         3.45421
            2760         3.95839
            2761         5.67714
            2762         2.10557
            2763         2.26623
            2764         1.99496
            2765         2.73387
            2766         2.59974
            2767         2.16381
            2768         2.39458
            2769         2.28617
            2770         5.53709
            2771         5.22325
            2772         4.08982
            2773         3.33840
            2774         3.53744
            2775         2.17472
            2776         2.74299
            2777         6.13008
            2778         2.67624
            2779         2.34471
            2780         2.45080
            2781         2.49456
            2782         2.55379
            2783         2.52506
            2784         2.66745
            2785         2.82184
            2786         3.51858
            2787         2.94585
            2788         2.67169
            2789         3.66827
            2790         3.17018
            2791         2.66903
            2792         2.45659
            2793         2.19744
            2794         3.83595
            2795         3.52996
            2796         2.76862
            2797         2.80677
            2798         2.22202
            2799         2.80354
            2800         2.36305
            2801         2.18568
            2802         2.69829
            2803         2.47952
            2804         2.29729
            2805         2.29838
            2806         2.67295
            2807         2.62687
            2808         2.23317
            2809         2.34305
            2810         2.43104
            2811         2.59797
            2812         2.56951
            2813         2.47432
            2814         2.61520
            2815         2.83641
            2816         2.92952
            2817         2.57283
            2818         2.83098
            2819         2.65562
            2820         2.20704
            2821         2.41970
            2822         2.40650
            2823         2.57235
            2824         2.63351
            2825         2.51287
            2826         2.55794
            2827         2.43351
            2828         3.25314
            2829         2.93432
            2830         2.74869
            2831         2.65402
            2832         2.41799
            2833         2.68542
            2834         2.64170
            2835         2.81736
            2836         2.44951
            2837         2.58775
            2838         2.32309
            2839         2.56794
            2840         2.61422
            2841         2.62730
            2842         2.66617
            2843         2.55558
            2844         2.57085
            2845         2.34123
            2846         2.30586
            2847         2.66269
            2848         2.71085
            2849         2.54021
            2850         2.63023
            2851         2.79436
            2852         2.98044
            2853         2.59683
            2854         2.70267
            2855         2.70065
            2856         2.38527
            2857         2.49039
            2858         2.60841
            2859         2.58684
            2860         2.54796
            2861         2.61285
            2862         2.39789
            2863         2.51074
            2864         2.67801
            2865         2.60912
            2866         2.69153
            2867         3.12484
            2868         2.64848
            2869         2.41214
            2870         2.63172
            2871         2.60892
            2872         2.48607
            2873         2.61577
            2874         2.62048
            2875         2.47721
            2876         2.66333
            2877         2.63256
            2878         2.58788
            2879         2.68945
            2880         2.70460
            2881         2.78956
            2882         2.59465
            2883         2.80216
            2884         2.66670
            2885         2.69074
            2886         2.69349
            2887         2.60793
            2888         2.67684
            2889         2.69526
            2890         2.59531
            2891         2.63760
            2892         2.59222
            2893         2.59194
            2894         2.67653
            2895         2.68831
            2896         2.64299
            2897         2.65238
            2898         2.64816
            2899         2.53671
            2900         2.64840
            2901         2.61646
            2902         2.66051
            2903         2.62285
            2904         2.61046
            2905         2.62856
            2906         2.64345
            2907         2.51709
            2908         2.65783
            2909         2.56634
            2910         2.62704
            2911         2.64610
            2912         2.48199
            2913         2.57056
            2914         2.53485
            2915         2.52768
            2916         2.65070
            2917         2.73798
            2918         2.65889
            2919         2.79499
            2920         5.55334
            2921         2.57260
            2922         8.32358
            2923         11.2263
            2924         6.10936
            2925     261.856E-03
            2926         10.9213
            2927     63.3126E-03
            2928     44.2263E-03
            2929     20.6424E-03
            2930     49.0686E-03
            2931         2.92801
            2932     543.873E-03
            2933     44.7537E-03
            2934     18.0841E-03
            2935     318.626E-03
            2936         5.60481
            2937         7.04327
            2938         3.10479
            2939         7.96345
            2940         15.0139
            2941         12.3198
            2942         11.9489
            2943         9.19039
            2944         10.7267
            2945         10.5223
            2946         10.4151
            2947         10.4086
            2948         11.0068
            2949         9.88469
            2950         9.92367
            2951         9.39353
            2952         10.4380
            2953         11.2263
            2954         11.9469
            2955         11.0070
            2956         9.88459
            2957         11.0012
            2958         11.7714
            2959         12.6396
            2960         11.7515
            2961         13.3321
            2962         12.2203
            2963         12.0815
            2964         12.7252
            2965         12.1932
            2966         13.7716
            2967         11.3765
            2968         11.9854
            2969         10.3479
            2970         10.4851
            2971         5.95930
            2972         5.80166
            2973         5.65773
            2974         5.66157
            2975         5.82001
            2976         5.96607
            2977     384.945E-03
            2978     534.296E-03
            2979     656.802E-03
            2980     636.171E-03
            2981     476.036E-03
            2982     365.943E-03
            2983         12.4169
            2984         10.9456
            2985         12.1294
            2986         13.4686
            2987         11.4262
            2988         11.3417
            2989         11.9781
            2990         12.7741
            2991     108.386E-03
            2992     158.637E-03
            2993     203.351E-03
            2994     196.651E-03
            2995     141.875E-03
            2996     102.450E-03
            2997         10.1531
            2998         10.4118
            2999         9.53657
            3000         10.3582
            3001         10.0499
            3002     84.0500E-03
            3003     44.3890E-03
            3004     81.8399E-03
            3005     82.5109E-03
            3006     129.318E-03
            3007     89.7909E-03
            3008         11.4452
            3009         10.8801
            3010         10.2868
            3011         9.43854
            3012         10.4785
            3013     17.1308E-03
            3014     14.8738E-03
            3015     23.4483E-03
            3016     18.4777E-03
            3017     18.7986E-03
            3018     12.5929E-03
            3019         2.66758
            3020         2.67702
            3021         2.66703
            3022         2.67061
            3023         2.66270
            3024         2.67201
            3025     15.8982E-03
            3026     10.7143E-03
            3027     6.69974E-03
            3028     10.7055E-03
            3029     21.8407E-03
            3030     14.2469E-03
            3031     23.2793E-03
            3032     17.3499E-03
            3033     8.03977E-03
            3034     6.82460E-03
            3035     4.36467E-03
            3036         2.65338
            3037         2.65471
            3038         2.66159
            3039         2.65069
            3040         2.64982
            3041         2.64458
            3042         2.66353
            3043         2.67211
            3044         2.66419
            3045         2.65687
            3046         2.65988
            3047     23.5926E-03
            3048     20.7741E-03
            3049     16.9999E-03
            3050     23.0940E-03
            3051     16.0222E-03
            3052     10.0035E-03
            3053     18.4710E-03
            3054     19.3629E-03
            3055     36.8720E-03
            3056     48.5948E-03
            3057     20.1207E-03
            3058     46.8200E-03
            3059     37.2233E-03
            3060     38.0118E-03
            3061     53.4031E-03
            3062     19.7748E-03
            3063     22.7081E-03
            3064     22.9911E-03
            3065     54.3730E-03
            3066     70.5878E-03
            3067         3.04053
            3068         2.99470
            3069         3.10362
            3070         3.10358
            3071         3.15834
            3072         3.04085
            3073     26.7963E-03
            3074     30.6134E-03
            3075     37.5092E-03
            3076     37.1501E-03
            3077     15.5873E-03
            3078     723.150E-03
            3079     558.409E-03
            3080     728.538E-03
            3081     721.107E-03
            3082     887.469E-03
            3083     707.476E-03
            3084     36.5254E-03
            3085     33.1116E-03
            3086     40.3909E-03
            3087     36.3363E-03
            3088     34.4139E-03
            3089     34.8774E-03
            3090     36.2052E-03
            3091     36.7167E-03
            3092     39.8198E-03
            3093     35.6794E-03
            3094     41.9262E-03
            3095     43.0414E-03
            3096     357.115E-03
            3097     381.757E-03
            3098     527.310E-03
            3099     370.181E-03
            3100     357.809E-03
            3101     217.989E-03
            3102         2.64765
            3103         2.65153
            3104     24.1739E-03
            3105     49.3376E-03
            3106     26.3455E-03
            3107     37.9930E-03
            3108     43.3483E-03
            3109     376.434E-03
            3110     542.004E-03
            3111     530.289E-03
            3112     24.7667E-03
            3113     26.9758E-03
            3114     34.8999E-03
            3115     37.5228E-03
            3116     15.2634E-03
            3117     552.532E-03
            3118     711.730E-03
            3119     46.2165E-03
            3120     34.3950E-03
            3121     32.3329E-03
            3122     31.1756E-03
            3123     15.6174E-03
            3124     15.8807E-03
            3125     18.3526E-03
            3126     19.7375E-03
            3127     21.0132E-03
            3128     15.6230E-03
            3129     22.4806E-03
            3130     19.0576E-03
            3131     9.24199E-03
            3132     5.83174E-03
            3133     7.87299E-03
            3134     5.99335E-03
            3135     6.65163E-03
            3136     13.6194E-03
            3137     19.5850E-03
            3138     14.3513E-03
            3139     8.79919E-03
            3140         2.66428
            3141         2.65683
            3142     17.0226E-03
            3143     16.8686E-03
            3144     20.9991E-03
            3145     20.7289E-03
            3146     15.7689E-03
            3147     18.7932E-03
            3148     18.0701E-03
            3149     16.9625E-03
            3150     17.4862E-03
            3151     12.2741E-03
            3152         14.3644
            3153         17.9735
            3154         12.5105
            3155         15.9050
            3156         12.1220
            3157         17.8164
            3158     11.7305E-03
            3159     13.8120E-03
            3160         12.3801
            3161         8.46854
            3162         14.7068
            3163         11.8922
            3164         15.6944
            3165         10.6168
            3166         1.00039
            3167     996.600E-03
            3168         1.22739
            3169         1.15594
            3170         1.15421
            3171     935.774E-03
            3172     810.440E-03
            3173         1.02860
            3174     967.006E-03
            3175     819.482E-03
            3176     825.549E-03
            3177     839.237E-03
            3178     966.111E-03
            3179     948.670E-03
            3180         5.21580
            3181         5.14290
            3182         5.16342
            3183         5.10064
            3184         5.17658
            3185         5.15235
            3186         5.31290
            3187         5.32257
            3188         5.39758
            3189         5.38391
            3190         5.37949
            3191         5.30549
            3192         5.24706
            3193         5.30434
            3194         5.29312
            3195         5.36854
            3196         5.32251
            3197         5.13896
            3198         5.21627
            3199         5.15447
            3200         5.40357
            3201         5.32990
            3202         5.33916
            3203     401.961E-03
            3204     550.934E-03
            3205     398.135E-03
            3206         5.49413
            3207         5.47103
            3208         5.31018
            3209         5.39815
            3210         5.42966
            3211         5.58021
            3212         5.30278
            3213         5.02910
            3214         5.08504
            3215         4.81603
            3216         5.10690
            3217         5.05245
            3218         5.06296
            3219         5.00918
            3220         5.21728
            3221         5.39123
            3222         5.42786
            3223         5.23828
            3224         5.04277
            3225         5.26493
            3226         5.20595
            3227         5.47436
            3228         5.65823
            3229         5.63775
            3230         5.67473
            3231         2.57388
            3232         2.58066
            3233         2.62075
            3234         2.57526
            3235         2.57003
            3236         2.53961
            3237         5.45701
            3238         5.46221
            3239         2.65332
            3240         2.66633
            3241         2.62595
            3242         2.63923
            3243         2.62552
            3244         2.66479
            3245         4.80306
            3246         5.04221
            3247         4.78215
            3248         5.02945
            3249         4.79634
            3250         4.80635
            3251         5.05252
            3252         5.01276
            3253         5.03368
            3254         3.70504
            3255         3.85830
            3256         3.67118
            3257         3.80892
            3258         3.65862
            3259         3.84417
            3260         4.08374
            3261         4.33810
            3262         4.12889
            3263         4.34471
            3264         4.09057
            3265         4.29882
            3266         3.77497
            3267         3.81250
            3268         3.66890
            3269         3.57295
            3270         3.54115
            3271         3.67712
            3272         3.90812
            3273         3.79840
            3274         3.66274
            3275         3.69599
            3276         3.52254
            3277         3.48427
            3278         3.49346
            3279     218.563E-03
            3280     233.310E-03
            3281     305.047E-03
            3282     404.184E-03
            3283     386.534E-03
            3284     316.300E-03
            3285         5.14148
            3286         5.26412
            3287         5.25871
            3288         5.35997
            3289         5.22863
            3290         5.23551
            3291         5.50063
            3292         5.58801
            3293         5.48981
            3294         5.47989
            3295         5.39132
            3296         5.49666
            3297         2.55416
            3298         2.58634
            3299         2.55749
            3300         5.65263
            3301         5.55529
            3302         5.64789
            3303         5.33940
            3304         5.32122
            3305         5.36842
            3306         5.53074
            3307         5.51512
            3308         4.44708
            3309         4.42969
            3310         4.57103
            3311         4.22433
            3312         4.58325
            3313         2.57052
            3314         2.58560
            3315         2.59980
            3316         2.60115
            3317         4.02619
            3318         3.88336
            3319         3.91597
            3320         4.17635
            3321         4.33054
            3322         4.28945
            3323         3.62474
            3324         3.46353
            3325         3.57010
            3326         5.35318
            3327         5.29768
            3328         5.35078
            3329         5.39922
            3330         5.43589
            3331         5.39690
            3332         5.23086
            3333         5.03627
            3334         5.08099
            3335         5.08653
            3336         5.24346
            3337         5.68751
            3338         5.56695
            3339         5.63269
            3340         5.56003
            3341         5.66444
            3342         5.59975
            3343     209.958E-03
            3344     293.903E-03
            3345     282.501E-03
            3346         5.63600
            3347         5.68776
            3348         5.71233
            3349         5.79866
            3350         5.72469
            3351         5.69797
            3352         5.77000
            3353         5.82194
            3354         5.77642
            3355         5.70777
            3356         5.66983
            3357         5.69731
            3358         5.20203
            3359         5.13966
            3360         5.17210
            3361         5.11277
            3362         5.16797
            3363         5.08263
            3364         5.07324
            3365         5.06280
            3366         5.08774
            3367         5.12449
            3368         2.46732
            3369         2.13433
            3370         2.04764
            3371         1.98263
            3372         2.31175
            3373         2.40437
            3374         1.99490
            3375         1.93884
            3376         2.32859
            3377         2.22737
            3378         2.29219
            3379         1.89627
            3380         2.29260
            3381         2.16279
            3382         2.17183
            3383         2.19876
            3384         2.33489
            3385         2.33539
            3386         2.17970
            3387         2.29137
            3388         2.28800
            3389         2.42519
            3390         2.29928
            3391         2.30465
            3392         2.19777
            3393         2.31057
            3394         2.19388
            3395         4.87304
            3396         4.97115
            3397         5.23896
            3398         5.25391
            3399         5.15265
            3400         4.88822
            3401         5.24299
            3402         4.87764
            3403         5.11355
            3404         4.84458
            3405         5.20968
            3406         5.55882
            3407         5.64341
            3408         5.54345
            3409         4.31907
            3410         4.58544
            3411         4.35242
            3412         4.27952
            3413         4.02630
            3414         4.24677
            3415     146.671E-03
            3416     231.214E-03
            3417     209.946E-03
            3418         4.25292
            3419         4.13115
            3420         4.20466
            3421         4.29378
            3422         4.39539
            3423         4.32244
            3424         3.91234
            3425         3.71256
            3426         3.79305
            3427         3.87224
            3428         4.07598
            3429         3.99334
            3430         2.16611
            3431         2.43733
            3432         2.58615
            3433         2.76953
            3434         2.48579
            3435         2.34476
            3436         2.74736
            3437         2.91723
            3438         3.01204
            3439         2.16824
            3440         1.99791
            3441         1.85183
            3442         2.55308
            3443         2.28984
            3444         2.13523
            3445         1.95324
            3446         1.63979
            3447         1.63882
            3448         1.95763
            3449         1.59455
            3450         3.12434
            3451         2.69597
            3452         2.80140
            3453         2.41929
            3454         2.84692
            3455         2.58214
            3456         2.55919
            3457         2.57237
            3458         2.55891
            3459         2.57124
            3460         2.55826
            3461         1.11700
            3462         1.10045
            3463         1.01207
            3464         1.15723
            3465         1.17396
            3466         1.26188
            3467         2.60504
            3468         2.62665
            3469         2.60947
            3470         2.62624
            3471         2.60355
            3472         2.61940
            3473         1.19996
            3474         1.06843
            3475         1.11280
            3476     974.098E-03
            3477         1.09606
            3478         1.05072
            3479         1.46467
            3480         1.47243
            3481         1.30525
            3482         1.34521
            3483         1.33865
            3484         1.50380
            3485         4.09944
            3486         4.47150
            3487         4.24561
            3488         2.64212
            3489         2.62158
            3490         2.63392
            3491         2.62742
            3492         2.65321
            3493         2.63645
            3494         3.63313
            3495         3.52904
            3496         3.26937
            3497         3.22832
            3498         3.48327
            3499         3.85378
            3500         3.89883
            3501         4.00789
            3502         5.20354
            3503         4.97743
            3504         5.08161
            3505         4.95544
            3506         5.17049
            3507         5.06382
            3508         5.40871
            3509         5.46707
            3510         5.35962
            3511         5.66778
            3512         5.60994
            3513         5.73065
            3514         1.64571
            3515         1.47870
            3516         1.55817
            3517         1.42710
            3518         1.59317
            3519         1.51403
            3520         1.64601
            3521         1.61451
            3522         1.50339
            3523         1.61309
            3524         1.64438
            3525         1.75278
            3526         1.74336
            3527         1.59491
            3528         1.73276
            3529         1.54278
            3530         1.67337
            3531         1.59928
            3532         2.76227
            3533         2.80354
            3534         2.72933
            3535         2.78612
            3536         2.74256
            3537         2.81786
            3538         2.65019
            3539         2.69126
            3540         2.67824
            3541     230.411E-03
            3542     320.252E-03
            3543     229.077E-03
            3544         6.00573
            3545         5.84924
            3546         5.89614
            3547         5.64687
            3548         5.80315
            3549         5.76451
            3550         5.39909
            3551         5.20575
            3552         5.43613
            3553         5.15675
            3554         5.34926
            3555         5.19075
            3556         5.48188
            3557         5.50461
            3558         5.54896
            3559         5.59348
            3560         5.56572
            3561         5.52313
            3562         5.79708
            3563         5.84848
            3564         5.75923
            3565         5.70275
            3566         5.64107
            3567         5.74135
            3568         5.52048
            3569         5.38032
            3570         5.56211
            3571         5.41055
            3572         5.54925
            3573         5.38324
            3574         5.50469
            3575         5.48217
            3576     264.958E-03
            3577     208.601E-03
            3578     213.085E-03
            3579     251.125E-03
            3580     307.545E-03
            3581     301.971E-03
            3582         6.88957
            3583         5.33393
            3584         6.01556
            3585         6.21945
            3586         8.37372
            3587         7.14401
            3588         5.60137
            3589         5.79500
            3590         5.55136
            3591     417.969E-03
            3592     379.098E-03
            3593     307.765E-03
            3594     269.761E-03
            3595     379.753E-03
            3596     222.912E-03
            3597     317.188E-03
            3598     276.080E-03
            3599         2.39817
            3600         2.39507
            3601         2.40207
            3602         2.47073
            3603         2.48045
            3604         2.46811
            3605         2.37603
            3606         2.32071
            3607         2.35542
            3608         2.29365
            3609         2.35552
            3610         2.31560
            3611         2.45557
            3612         2.48144
            3613         2.43674
            3614         5.60749
            3615         5.80739
            3616         5.99921
            3617         2.30557
            3618         2.31121
            3619         2.30756
            3620         5.88268
            3621         6.04262
            3622         5.98150
            3623         6.04154
            3624         5.89172
            3625         5.93507
            3626         5.90956
            3627         5.83975
            3628         5.88028
            3629         2.67220
            3630         2.66637
            3631         2.65299
            3632         2.66639
            3633         2.67265
            3634         2.68886
            3635         5.78029
            3636         5.86135
            3637         5.84889
            3638         5.80815
            3639         5.81813
            3640         5.86693
            3641         5.78743
            3642         5.79359
            3643         2.67435
            3644         2.69201
            3645         2.69064
            3646         2.64741
            3647         2.62887
            3648         2.63531
            3649         2.67998
            3650         2.66206
            3651         2.68062
            3652         5.82595
            3653         5.76116
            3654         5.78527
            3655         5.76175
            3656         5.77602
            3657         5.74585
            3658         5.75486
            3659         2.97207
            3660         2.78568
            3661         2.81266
            3662         2.30726
            3663         2.49236
            3664         2.48173
            3665         2.62903
            3666         2.44171
            3667         2.14309
            3668         1.85632
            3669         1.52987
            3670         1.64452
            3671         1.98013
            3672         1.56534
            3673         2.91944
            3674         2.76442
            3675         3.11656
            3676     981.205E-03
            3677     979.483E-03
            3678         1.10833
            3679     740.595E-03
            3680     679.810E-03
            3681     777.901E-03
            3682     851.301E-03
            3683     918.966E-03
            3684     813.556E-03
            3685     864.241E-03
            3686         1.00329
            3687     827.152E-03
            3688     612.431E-03
            3689     715.202E-03
            3690     648.042E-03
            3691     694.058E-03
            3692     720.602E-03
            3693     775.409E-03
            3694     805.077E-03
            3695     652.630E-03
            3696     686.908E-03
            3697     657.162E-03
            3698         2.67585
            3699         2.66309
            3700         2.66126
            3701         2.64999
            3702         2.66099
            3703         1.93823
            3704         1.90636
            3705         1.95205
            3706         1.91150
            3707         1.94187
            3708         1.90527
            3709         1.89888
            3710         1.89159
            3711         1.88535
            3712     998.753E-03
            3713         1.13334
            3714     910.384E-03
            3715     979.323E-03
            3716     847.182E-03
            3717         1.06696
            3718     706.985E-03
            3719     666.486E-03
            3720     679.226E-03
            3721     558.229E-03
            3722     995.262E-03
            3723         1.13180
            3724         5.15519
            3725         5.29140
            3726         5.55292
            3727         5.31719
            3728         5.18256
            3729         4.93917
            3730         5.19334
            3731         5.07691
            3732         4.99364
            3733         5.14173
            3734         4.91643
            3735         5.04424
            3736         5.95586
            3737         5.74904
            3738         5.68281
            3739         5.51172
            3740         5.25180
            3741         5.27265
            3742         5.06403
            3743         5.31118
            3744         5.29524
            3745         2.64695
            3746         2.63024
            3747         2.63582
            3748         2.63340
            3749         2.64744
            3750         5.25007
            3751         5.00483
            3752         5.20866
            3753         5.23776
            3754         5.49244
            3755         5.64957
            3756         5.88650
            3757         6.07432
            3758         1.86235
            3759         1.84512
            3760         1.97212
            3761         1.85526
            3762         1.87436
            3763         1.33400
            3764         1.18233
            3765         1.31094
            3766         1.23795
            3767         1.39083
            3768         1.44276
            3769         1.38602
            3770         1.43335
            3771         1.57918
            3772         3.89421
            3773         4.07147
            3774         3.98752
            3775         4.25706
            3776         4.09274
            3777         4.17230
            3778         3.51721
            3779         3.34395
            3780         3.65340
            3781         3.72766
            3782         3.59214
            3783         3.17498
            3784         3.48455
            3785         3.30799
            3786         4.36875
            3787         4.10071
            3788         4.11622
            3789         3.83473
            3790         4.10507
            3791         3.13397
            3792         2.94338
            3793         3.28453
            3794         2.90409
            3795         3.09374
            3796         2.75548
            3797         3.65884
            3798         3.83303
            3799         3.64591
            3800         3.97209
            3801         3.80443
            3802         3.98795
            3803         3.30771
            3804         3.48140
            3805         3.45648
            3806         3.12554
            3807         1.70122
            3808         1.63880
            3809         1.68261
            3810         1.56817
            3811         1.64812
            3812         1.58736
            3813         1.92037
            3814         1.91182
            3815         2.02154
            3816         1.90180
            3817         1.90991
            3818         1.79850
            3819         2.50371
            3820         2.53192
            3821         2.50503
            3822         2.52771
            3823         2.50522
            3824         2.52632
            3825         1.79281
            3826         1.88571
            3827         1.77070
            3828         1.64338
            3829         1.65024
            3830         1.65503
            3831         1.52585
            3832         2.49251
            3833         2.55233
            3834         2.50082
            3835         2.51471
            3836         2.45482
            3837         2.50752
            3838         2.48845
            3839         2.57579
            3840         2.56649
            3841         2.55323
            3842         2.48191
            3843         2.47409
            3844         2.66352
            3845         2.58015
            3846         2.61742
            3847         2.53633
            3848         2.60489
            3849         2.45825
            3850         2.54690
            3851         2.51087
            3852         2.58680
            3853         2.49985
            3854         5.85005
            3855         5.72050
            3856         5.76912
            3857         5.67950
            3858         5.76071
            3859         5.71714
            3860         5.73494
            3861         6.26062
            3862         6.37331
            3863         6.36703
            3864         6.16583
            3865         6.07103
            3866         6.07085
            3867         5.85208
            3868         5.71167
            3869         5.71378
            3870         5.85472
            3871         5.79594
            3872         5.26941
            3873         5.17145
            3874         4.95819
            3875         5.09638
            3876         5.19861
            3877         5.37538
            3878         6.38022
            3879         6.14003
            3880         6.34948
            3881         6.13085
            3882         6.36772
            3883         6.15945
            3884         2.14587
            3885         1.84969
            3886         1.54384
            3887         1.26805
            3888         1.41213
            3889         1.55652
            3890         1.82940
            3891         1.69134
            3892     388.959E-03
            3893     512.442E-03
            3894     394.516E-03
            3895     614.850E-03
            3896     502.162E-03
            3897     619.444E-03
            3898     823.996E-03
            3899     698.800E-03
            3900     765.930E-03
            3901     583.514E-03
            3902     560.260E-03
            3903     441.464E-03
            3904         6.37971
            3905         6.34778
            3906         6.59418
            3907         2.64260
            3908         2.72213
            3909         2.79851
            3910         1.28606
            3911         1.01318
            3912         1.12500
            3913         1.16565
            3914     909.630E-03
            3915         1.29982
            3916         1.17714
            3917         1.81671
            3918         5.99032
            3919         6.19539
            3920         1.58936
            3921         1.57485
            3922         1.44863
            3923         1.16340
            3924         1.17037
            3925         1.28940
            3926     747.635E-03
            3927     586.701E-03
            3928     734.810E-03
            3929     582.217E-03
            3930     740.797E-03
            3931     596.076E-03
            3932         5.84006
            3933         5.80874
            3934         5.82879
            3935     782.810E-03
            3936     634.637E-03
            3937     740.404E-03
            3938     791.156E-03
            3939     895.585E-03
            3940     927.826E-03
            3941     812.883E-03
            3942     930.682E-03
            3943     999.578E-03
            3944         1.23583
            3945         1.13782
            3946         1.16791
            3947         1.02845
            3948         4.21289
            3949         3.75438
            3950         3.99299
            3951         3.51150
            3952         3.98009
            3953         3.74116
            3954         4.82017
            3955         5.30641
            3956         4.94464
            3957         4.87788
            3958         4.41371
            3959         4.77138
            3960         2.77729
            3961         2.71201
            3962         2.71502
            3963         2.87797
            3964         2.94874
            3965         2.94524
            3966         2.61845
            3967         2.60399
            3968         2.61120
            3969         2.89995
            3970         2.90483
            3971         2.75957
            3972         2.74502
            3973         2.86724
            3974         2.57501
            3975         2.60584
            3976         2.58878
            3977         2.71912
            3978         2.71559
            3979         2.75619
            3980         2.99480
            3981         2.99350
            3982         2.94133
            3983         2.60766
            3984         2.59388
            3985         2.61276
            3986         2.85016
            3987         3.06654
            3988         3.14466
            3989         2.92980
            3990         3.01154
            3991         2.79191
            3992         2.71210
            3993         2.77826
            3994         2.72529
            3995         2.80261
            3996         2.73689
            3997         2.58237
            3998         2.58106
            3999         2.59211
            4000         2.56156
            4001         2.56167
            4002         2.54989
            4003         5.98453
            4004         5.94989
            4005         5.78034
            4006         6.08529
            4007         5.81870
            4008         6.54694
            4009         6.87860
            4010         6.58550
            4011         6.79513
            4012         6.45523
            4013         6.78082
            4014         5.66709
            4015         5.63347
            4016         5.55704
            4017         5.47445
            4018         5.51545
            4019         5.58585
            4020         5.80453
            4021         5.88927
            4022         5.67041
            4023         5.85669
            4024         5.76640
            4025         5.99017
            4026         5.58150
            4027         5.48465
            4028         5.50753
            4029         5.40921
            4030         5.48569
            4031         3.81237
            4032         3.66395
            4033         3.85174
            4034         3.46424
            4035         3.65600
            4036         3.42606
            4037         3.87056
            4038         3.83798
            4039         4.00017
            4040         3.91181
            4041         3.73952
            4042         3.79991
            4043         3.69539
            4044         3.87008
            4045         3.48019
            4046         3.39813
            4047         3.43910
            4048     42.1805E-03
            4049     210.100E-03
            4050     99.3153E-03
            4051     216.946E-03
            4052     48.5501E-03
            4053     175.613E-03
            4054         2.60745
            4055         2.64082
            4056         2.60092
            4057         2.62025
            4058         2.58640
            4059         2.62845
            4060     46.8218E-03
            4061     12.5984E-03
            4062     13.7905E-03
            4063     14.3748E-03
            4064     46.1180E-03
            4065     48.2818E-03
            4066     56.3806E-03
            4067     105.400E-03
            4068     45.1716E-03
            4069     10.7217E-03
            4070     14.0255E-03
            4071     25.0136E-03
            4072         2.75769
            4073         2.71506
            4074         2.85483
            4075         2.80337
            4076         2.84853
            4077         2.70628
            4078         2.90463
            4079         3.04042
            4080         3.03325
            4081         3.17818
            4082         3.04104
            4083         3.04792
            4084         3.01312
            4085         3.13493
            4086         3.11245
            4087         2.99361
            4088         3.09374
            4089         3.17051
            4090         3.22263
            4091         3.16769
            4092         3.30862
            4093         3.25901
            4094         3.31022
            4095         4.44572
            4096         4.66933
            4097         4.44874
            4098         4.51492
            4099         4.30294
            4100         4.51206
            4101         4.05712
            4102         3.88846
            4103         4.05774
            4104         3.89632
            4105         4.06259
            4106         3.89595
            4107         6.87732
            4108         7.17712
            4109         6.63333
            4110         7.08072
            4111         6.79141
            4112         7.36555
            4113         7.46894
            4114         7.84344
            4115         7.37676
            4116         7.34862
            4117         6.99989
            4118         7.44262
            4119         7.67472
            4120         7.18830
            4121         7.57465
            4122         5.24147
            4123         5.32040
            4124         5.08300
            4125         5.20984
            4126         5.08859
            4127         5.32157
            4128         2.51422
            4129         2.53529
            4130         2.52803
            4131         2.56582
            4132         2.54287
            4133         6.22751
            4134         5.99022
            4135         6.09881
            4136         6.12332
            4137         6.31673
            4138         6.20451
            4139         6.32979
            4140         6.42208
            4141         6.37861
            4142         6.21160
            4143         6.13141
            4144         6.15798
            4145         6.01478
            4146         5.83726
            4147         6.02735
            4148         5.91727
            4149         5.92408
            4150         6.15594
            4151         6.01001
            4152         6.18690
            4153         5.94911
            4154         6.10162
            4155     335.510E-03
            4156     238.232E-03
            4157         5.87320
            4158         5.91445
            4159         5.94241
            4160         6.04230
            4161         5.89172
            4162         5.90368
            4163         5.78839
            4164         5.88959
            4165         5.85395
            4166         6.00402
            4167         5.87966
            4168         5.91870
            4169         5.76741
            4170         5.90919
            4171         5.87474
            4172         5.77088
            4173         5.39525
            4174         5.18782
            4175         5.21854
            4176         5.11236
            4177         5.28999
            4178         5.23993
            4179         5.44877
            4180         5.40377
            4181         5.60132
            4182         5.66545
            4183         5.68136
            4184         2.67551
            4185         2.65956
            4186         2.67701
            4187     656.372E-03
            4188     829.992E-03
            4189     769.487E-03
            4190         1.00968
            4191     842.509E-03
            4192     879.175E-03
            4193         1.01022
            4194     835.908E-03
            4195         1.08118
            4196     453.202E-03
            4197     617.745E-03
            4198     516.452E-03
            4199     607.710E-03
            4200     604.985E-03
            4201     606.081E-03
            4202     821.161E-03
            4203     821.364E-03
            4204         2.71677
            4205         2.71127
            4206         2.71127
            4207     422.677E-03
            4208     434.922E-03
            4209     429.354E-03
            4210     682.965E-03
            4211     514.551E-03
            4212     415.854E-03
            4213     459.194E-03
            4214     629.600E-03
            4215     718.900E-03
            4216         1.69094
            4217         1.51445
            4218         1.30987
            4219         1.32315
            4220         1.52485
            4221         1.70740
            4222         2.68013
            4223         2.69946
            4224         2.71125
            4225         2.69923
            4226         2.69018
            4227         2.69017
            4228         1.64673
            4229         1.89225
            4230         1.77419
            4231         1.87361
            4232         1.63281
            4233         1.77740
            4234         6.96659
            4235         6.96064
            4236         6.90671
            4237         7.35608
            4238         7.34707
            4239         7.38272
            4240         6.65591
            4241         6.29386
            4242         6.51362
            4243         6.18204
            4244         6.55198
            4245         6.31684
            4246         6.69627
            4247         6.66756
            4248         6.43009
            4249         6.71409
            4250         6.28712
            4251         6.66421
            4252         6.31644
            4253         2.61132
            4254         2.46973
            4255         2.81051
            4256         2.65424
            4257         2.81751
            4258         2.46541
            4259         2.79033
            4260         2.96954
            4261         2.79876
            4262         2.79402
            4263         2.69533
            4264         2.70362
            4265         2.63069
            4266         2.71351
            4267         2.70551
            4268         2.91897
            4269         3.11061
            4270         3.07997
            4271         2.92421
            4272         2.73475
            4273         2.88406
            4274         3.08120
            4275         2.99614
            4276         3.48594
            4277         3.39750
            4278         3.30224
            4279         1.99323
            4280         1.93320
            4281         1.92797
            4282         1.94752
            4283         2.01374
            4284         2.02119
            4285         1.90784
            4286         1.88697
            4287         1.88465
            4288         1.87199
            4289         1.89621
            4290         1.88542
            4291         2.04216
            4292         2.12112
            4293         2.07329
            4294         2.00648
            4295         1.94506
            4296         1.99424
            4297     505.082E-03
            4298     547.931E-03
            4299     499.374E-03
            4300         1.97394
            4301         2.14901
            4302         2.06576
            4303         2.13293
            4304     653.624E-03
            4305     569.335E-03
            4306     543.661E-03
            4307     294.727E-03
            4308     363.880E-03
            4309     388.761E-03
            4310     776.180E-03
            4311     668.316E-03
            4312     746.093E-03
            4313     302.722E-03
            4314     371.500E-03
            4315     549.788E-03
            4316     301.745E-03
            4317     150.335E-03
            4318     476.780E-03
            4319     391.728E-03
            4320     399.391E-03
            4321     179.916E-03
            4322     254.804E-03
            4323     249.021E-03
            4324         4.95049
            4325         4.94860
            4326         4.78697
            4327         4.79019
            4328         5.07604
            4329         4.30837
            4330         4.38929
            4331         4.30785
            4332         4.53064
            4333         4.53044
            4334         4.52777
            4335         4.64678
            4336         5.09573
            4337         4.81632
            4338         4.95019
            4339         5.23948
            4340         5.09650
            4341         7.25897
            4342         6.81159
            4343         6.99881
            4344         6.80895
            4345         7.25752
            4346         7.06515
            4347         7.43078
            4348         7.59066
            4349         7.59907
            4350         7.16243
            4351         7.01040
            4352         7.00376
            4353     559.849E-03
            4354     575.977E-03
            4355     873.526E-03
            4356     668.920E-03
            4357     655.139E-03
            4358     381.172E-03
            4359         6.66881
            4360         6.93361
            4361         6.77344
            4362         7.23477
            4363         6.95968
            4364         7.12117
            4365     81.2038E-03
            4366     136.380E-03
            4367     79.7462E-03
            4368     399.510E-03
            4369     310.685E-03
            4370     369.251E-03
            4371         1.53611
            4372         1.46035
            4373         1.56346
            4374         1.21368
            4375         1.16814
            4376         1.19454
            4377     701.206E-03
            4378     922.496E-03
            4379     653.290E-03
            4380         1.15038
            4381     823.854E-03
            4382         1.12057
            4383         1.16217
            4384         1.44444
            4385     68.7809E-03
            4386     215.757E-03
            4387     130.265E-03
            4388     134.971E-03
            4389     134.959E-03
            4390     69.0505E-03
            4391     229.264E-03
            4392     152.199E-03
            4393     305.331E-03
            4394     244.244E-03
            4395     233.414E-03
            4396     242.537E-03
            4397     245.887E-03
            4398     385.432E-03
            4399     56.3627E-03
            4400     137.285E-03
            4401     52.4404E-03
            4402     34.2369E-03
            4403     78.1362E-03
            4404     78.1663E-03
            4405     207.428E-03
            4406     236.697E-03
            4407     197.332E-03
            4408     170.045E-03
            4409     119.119E-03
            4410     199.071E-03
            4411     224.210E-03
            4412     285.498E-03
            4413     563.146E-03
            4414     605.865E-03
            4415     813.790E-03
            4416     795.143E-03
            4417     770.087E-03
            4418     917.242E-03
            4419     832.123E-03
            4420         1.19010
            4421     926.691E-03
            4422         1.01509
            4423         6.66530
            4424         6.77176
            4425         6.50475
            4426     359.998E-03
            4427     245.583E-03
            4428     460.777E-03
            4429     297.749E-03
            4430     420.119E-03
            4431     325.295E-03
            4432     295.150E-03
            4433     10.3248E-03
            4434     21.2456E-03
            4435     42.9012E-03
            4436     22.2519E-03
            4437     12.2224E-03
            4438     9.39102E-03
            4439     21.7056E-03
            4440     11.7232E-03
            4441     39.4175E-03
            4442     13.5000E-03
            4443     13.2817E-03
            4444         6.85623
            4445         6.96486
            4446         6.69473
            4447     15.1307E-03
            4448         7.36323
            4449         7.44424
            4450         7.33064
            4451         2.76601
            4452         2.63124
            4453         2.70207
            4454         2.41871
            4455         2.58774
            4456         2.47415
            4457         2.37377
            4458         2.09698
            4459         2.28955
            4460         2.09866
            4461         2.36652
            4462         2.18039
            4463         2.66732
            4464         2.36673
            4465         2.22129
            4466         2.04834
            4467         2.48897
            4468     22.3423E-03
            4469     24.2004E-03
            4470     37.5384E-03
            4471     12.9741E-03
            4472     12.7399E-03
            4473     11.9077E-03
            4474     159.258E-03
            4475     92.7779E-03
            4476     89.3404E-03
            4477     115.535E-03
            4478     183.133E-03
            4479     186.835E-03
            4480         2.59258
            4481         2.52672
            4482         2.56870
            4483         2.55469
            4484         2.62505
            4485         2.58012
            4486     127.185E-03
            4487     195.992E-03
            4488     226.206E-03
            4489     192.228E-03
            4490     122.772E-03
            4491     95.5547E-03
            4492     350.614E-03
            4493     127.420E-03
            4494     204.404E-03
            4495     219.934E-03
            4496     199.258E-03
            4497     125.715E-03
            4498     537.768E-03
            4499     366.361E-03
            4500     315.463E-03
            4501     513.711E-03
            4502         2.67041
            4503         2.63951
            4504         2.62431
            4505         2.67406
            4506     648.478E-03
            4507     601.832E-03
            4508     470.981E-03
            4509     713.496E-03
            4510     319.740E-03
            4511     315.900E-03
            4512     438.749E-03
            4513     479.668E-03
            4514     427.314E-03
            4515     317.743E-03
            4516     419.340E-03
            4517     621.249E-03
            4518     600.317E-03
            4519     426.104E-03
            4520     799.433E-03
            4521     880.664E-03
            4522         1.00105
            4523         1.02167
            4524         1.03735
            4525     922.946E-03
            4526         3.02664
            4527         3.05606
            4528         3.07366
            4529         3.16615
            4530         3.13218
            4531         3.11427
            4532         1.50522
            4533         1.19049
            4534         1.18507
            4535         1.04240
            4536         1.34827
            4537         1.35726
            4538     408.883E-03
            4539     534.225E-03
            4540         1.10772
            4541         1.34625
            4542         1.11052
            4543         1.42129
            4544         1.19530
            4545         1.42094
            4546         7.38721
            4547         7.51511
            4548         7.37209
            4549         7.10154
            4550         6.97001
            4551         7.11643
            4552         7.20074
            4553         6.69944
            4554         6.73381
            4555         6.48088
            4556         6.93625
            4557         4.68073
            4558         4.68191
            4559         4.80856
            4560         4.97095
            4561         4.97069
            4562         4.84261
            4563         4.57564
            4564         4.69285
            4565         4.85356
            4566         4.30747
            4567         4.31932
            4568         4.22149
            4569         4.47784
            4570         4.46546
            4571     109.510E-03
            4572     218.248E-03
            4573     181.050E-03
            4574     186.287E-03
            4575     80.9460E-03
            4576     115.629E-03
            4577         2.55371
            4578         2.51556
            4579         2.51233
            4580         5.87635
            4581         5.69779
            4582         5.94330
            4583         5.75286
            4584         5.93461
            4585         5.68656
            4586         5.97283
            4587         5.95929
            4588         6.95318
            4589         6.67642
            4590         6.96080
            4591         6.29763
            4592         6.65967
            4593         6.54442
            4594         6.15366
            4595         6.07371
            4596         6.08644
            4597         5.99498
            4598         6.06404
            4599         6.05593
            4600         5.65388
            4601         5.58013
            4602         5.56692
            4603         5.63189
            4604         5.35311
            4605         5.36002
            4606         5.41436
            4607         2.62383
            4608         2.74409
            4609         2.66569
            4610         2.37119
            4611         2.24507
            4612         2.31938
            4613         3.09359
            4614         2.76133
            4615         2.84048
            4616         2.46585
            4617         2.49317
            4618         2.49529
            4619         2.67530
            4620         2.81134
            4621         8.75100
            4622         8.74365
            4623         8.12812
            4624         8.15014
            4625         8.16732
            4626         8.78583
            4627         8.08590
            4628         8.00820
            4629         8.05192
            4630         8.62271
            4631         8.69422
            4632         8.65505
            4633         5.94151
            4634         5.54064
            4635         5.69446
            4636         5.61836
            4637         6.02348
            4638         5.86247
            4639         5.44958
            4640         5.30886
            4641         5.28247
            4642         5.53192
            4643         5.67612
            4644         5.70069
            4645         2.52760
            4646         2.49800
            4647         2.45807
            4648         2.43414
            4649         2.43452
            4650         2.38600
            4651         2.41439
            4652         2.41224
            4653         3.07638
            4654         2.94394
            4655         2.96878
            4656         2.94240
            4657         3.04416
            4658         6.11160
            4659         6.49122
            4660         6.30798
            4661         6.68326
            4662         6.30490
            4663         6.48829
            4664         2.55481
            4665         2.47802
            4666         2.60493
            4667         2.62676
            4668         2.70039
            4669         2.63609
            4670         2.79674
            4671         2.62836
            4672         2.68913
            4673         2.53060
            4674         2.69639
            4675         2.36642
            4676         2.25536
            4677         2.39619
            4678         2.37219
            4679         2.34369
            4680         2.36499
            4681         2.30488
            4682         2.38489
            4683         2.37284
            4684         2.42811
            4685         2.35272
            4686         2.25047
            4687         2.19406
            4688         2.28606
            4689         2.27414
            4690         2.32669
            4691         2.23780
            4692         2.38032
            4693         2.36773
            4694         2.29257
            4695         2.36099
            4696         2.77841
            4697         2.77031
            4698         2.40323
            4699         2.45202
            4700         2.40272
            4701         2.42321
            4702         2.39738
            4703         2.42988
            4704         2.44725
            4705         2.46555
            4706         2.18637
            4707         2.23243
            4708         2.26626
            4709         2.22526
            4710         2.24844
            4711         2.33469
            4712         2.35172
            4713         2.34162
            4714         2.39419
            4715         2.41351
            4716         2.35447
            4717         4.73738
            4718         4.39545
            4719         4.53154
            4720         4.24200
            4721         4.60783
            4722         4.47408
            4723         2.33669
            4724         2.36149
            4725         2.33225
            4726         2.30186
            4727         4.20771
            4728         4.50351
            4729         4.43181
            4730         4.81430
            4731         4.52930
            4732         4.91483
            4733         4.59927
            4734         5.04249
            4735         5.11287
            4736         5.32044
            4737         5.37232
            4738         3.09172
            4739         3.42670
            4740         3.04300
            4741         3.08408
            4742         3.13624
            4743         2.46094
            4744         2.04072
            4745         2.09913
            4746         2.51827
            4747         2.21154
            4748         4.80175
            4749         4.87970
            4750         4.75756
            4751         4.66010
            4752         4.56419
            4753         4.70911
            4754         4.71116
            4755         4.47342
            4756         4.65119
            4757         4.42293
            4758         4.61531
            4759         4.43323
            4760         4.21630
            4761         4.32149
            4762         4.25843
            4763         4.06863
            4764         4.29686
            4765         4.26822
            4766         4.51500
            4767         4.29458
            4768         3.03409
            4769         2.93115
            4770         3.05991
            4771         5.03432
            4772         5.04242
            4773         5.11498
            4774         5.09762
            4775         4.93906
            4776         4.85207
            4777         5.04685
            4778         4.95498
            4779         2.37652
            4780         2.30297
            4781         2.34815
            4782         2.34520
            4783         4.99216
            4784         5.10486
            4785         5.06147
            4786         5.01199
            4787         4.89449
            4788         4.60038
            4789         4.53729
            4790         4.76004
            4791         4.90982
            4792         4.89828
            4793         4.72338
            4794         4.65782
            4795         4.73374
            4796         4.96373
            4797         4.75485
            4798         4.87540
            4799         5.66958
            4800         5.79672
            4801         5.68108
            4802         5.67525
            4803         5.56548
            4804         5.66327
            4805         5.61857
            4806         5.55654
            4807         5.44866
            4808         5.52883
            4809         5.51978
            4810         5.75330
            4811         5.83286
            4812         5.83868
            4813         5.88411
            4814         5.76442
            4815         5.76156
            4816         5.75505
            4817         5.68763
            4818         6.23379
            4819         6.32344
            4820         6.21248
            4821         6.50627
            4822         6.42523
            4823         6.53363
            4824         5.97626
            4825         6.07064
            4826         6.09326
            4827         5.85078
            4828         5.91764
            4829         5.72934
            4830         5.72791
            4831         5.68422
            4832         5.85434
            4833         6.07853
            4834         5.95572
            4835         5.89418
            4836         7.34607
            4837         7.76019
            4838         7.68161
            4839         7.69531
            4840         7.28870
            4841         7.35735
            4842         7.10686
            4843         6.98906
            4844         7.16640
            4845         6.80634
            4846         6.92550
            4847         6.75149
            4848         7.68048
            4849         7.50625
            4850         7.56801
            4851         7.75755
            4852         7.79545
            4853         6.12364
            4854         5.89675
            4855         6.22210
            4856         6.02869
            4857         6.25757
            4858         5.92582
            4859         6.44895
            4860         6.68752
            4861         6.48788
            4862         6.11649
            4863         6.27548
            4864         6.22907
            4865         5.80220
            4866         5.91969
            4867         6.70908
            4868         6.52107
            4869         6.85103
            4870         6.60857
            4871         6.51876
            4872         6.27823
            4873         6.37262
            4874         6.66725
            4875         6.51920
            4876         6.09573
            4877         6.06092
            4878         3.16001
            4879         3.20854
            4880         3.15391
            4881         3.01225
            4882         5.88328
            4883         5.69143
            4884         5.47544
            4885         5.76665
            4886         5.45984
            4887         5.67046
            4888         5.39499
            4889         5.18527
            4890         4.93844
            4891         4.97015
            4892         5.24216
            4893         5.03410
            4894         5.02529
            4895         5.70369
            4896         5.80277
            4897         5.52887
            4898         5.88597
            4899         5.76560
            4900         5.90793
            4901         5.67174
            4902         5.83352
            4903         5.47842
            4904         5.61907
            4905         5.17805
            4906         5.22813
            4907         5.31223
            4908         5.26145
            4909     22.3339E-03
            4910     38.8516E-03
            4911     21.3562E-03
            4912     40.5806E-03
            4913     20.7035E-03
            4914     17.4396E-03
            4915         2.90447
            4916         2.89786
            4917         2.97096
            4918         2.86400
            4919         2.97653
            4920         4.73476
            4921         4.59674
            4922         4.76698
            4923         4.83885
            4924         4.98862
            4925         4.80874
            4926         5.27188
            4927         2.71105
            4928         2.70638
            4929         2.79630
            4930         2.70950
            4931         5.48071
            4932         4.25512
            4933         3.93399
            4934         4.03451
            4935         3.96546
            4936         4.28553
            4937         4.18101
            4938         3.82881
            4939         3.65028
            4940         3.91154
            4941         3.87262
            4942         4.05832
            4943         3.78731
            4944         4.38502
            4945         4.65491
            4946         4.51876
            4947         4.48987
            4948         4.22807
            4949         4.10288
            4950         4.14744
            4951         4.38497
            4952         4.60728
            4953         4.60177
            4954         4.55706
            4955         4.34332
            4956         2.79051
            4957         2.79723
            4958         2.71209
            4959         4.58240
            4960         4.82047
            4961         4.58763
            4962         5.63311
            4963         5.71067
            4964         5.39799
            4965         5.37285
            4966         5.68640
            4967         5.11793
            4968         4.86482
            4969         5.05053
            4970         5.18242
            4971         5.44910
            4972         5.25232
            4973         3.16758
            4974         3.06100
            4975         3.16545
            4976         3.05796
            4977         3.16523
            4978         3.05964
            4979         3.40505
            4980         3.41070
            4981         3.27893
            4982         3.28001
            4983         3.27446
            4984         3.40687
            4985         3.16273
            4986         3.16583
            4987         3.16281
            4988         3.55754
            4989         3.41780
            4990         3.41511
            4991         3.16169
            4992         3.06027
            4993     18.8137E-03
            4994     19.4368E-03
            4995     44.0274E-03
            4996         3.40616
            4997         3.41178
            4998         3.28663
            4999         3.28759
            5000         3.28352
            5001         3.40952
            5002         3.59517
            5003         3.62800
            5004         3.51342
            5005         3.43973
            5006         3.48056
            5007         3.71822
            5008         3.89267
            5009         3.72734
            5010         3.86961
            5011         3.69644
            5012         3.85849
            5013         3.54778
            5014         3.55632
            5015         3.55968
            5016         3.68595
            5017         3.67675
            5018         3.54103
            5019         3.55003
            5020         2.73942
            5021         2.80621
            5022         2.86764
            5023         2.85231
            5024         2.72479
            5025         2.90885
            5026         3.04411
            5027         2.92698
            5028         2.97222
            5029         2.84945
            5030         2.95472
            5031         2.79120
            5032         2.86511
            5033         2.70634
            5034         2.70260
            5035         2.64003
            5036         2.66191
            5037         2.66566
            5038         2.74145
            5039         2.62816
            5040         2.66836
            5041         2.58947
            5042         2.71097
            5043         2.63880
            5044         2.72361
            5045         2.81615
            5046         2.87668
            5047         2.96431
            5048     87.1576E-03
            5049     60.9787E-03
            5050         2.77483
            5051         2.79318
            5052         2.85999
            5053         2.87101
            5054     143.060E-03
            5055     162.203E-03
            5056     141.344E-03
            5057         2.15248
            5058         2.10659
            5059         2.08555
            5060         2.13316
            5061         2.04058
            5062         2.60160
            5063         2.59032
            5064         2.54924
            5065         2.58787
            5066         2.59894
            5067     18.2570E-03
            5068     19.7784E-03
            5069     27.8814E-03
            5070     19.9026E-03
            5071     16.7086E-03
            5072     40.7588E-03
            5073         2.48349
            5074         2.46645
            5075         2.46448
            5076         2.49953
            5077         2.50681
            5078         2.50815
            5079         2.56359
            5080         2.55357
            5081         2.47506
            5082         2.51079
            5083         2.46720
            5084         2.22309
            5085         2.28145
            5086         2.27875
            5087         2.21094
            5088         2.49346
            5089         2.53809
            5090         2.40781
            5091         2.33917
            5092         2.39583
            5093         1.67340
            5094         1.78130
            5095         1.82073
            5096         1.79918
            5097         1.69643
            5098         1.64763
            5099         1.67254
            5100         1.69559
            5101         1.58044
            5102         1.55566
            5103         1.56764
            5104         1.80795
            5105         1.91874
            5106         1.80305
            5107         1.90761
            5108         1.79687
            5109         1.92314
            5110         2.65564
            5111         2.65633
            5112         2.67074
            5113         2.65768
            5114         2.65595
            5115         2.64155
            5116         1.69539
            5117         1.81301
            5118         1.81827
            5119         1.69293
            5120         1.64383
            5121         1.77941
            5122         1.72190
            5123         1.75537
            5124         1.62308
            5125         1.89922
            5126         1.98845
            5127         1.90383
            5128         1.89464
            5129         1.80490
            5130         1.88942
            5131     15.9683E-03
            5132     29.8906E-03
            5133     23.0478E-03
            5134         1.81410
            5135         1.84351
            5136         1.78380
            5137         1.41818
            5138         1.42453
            5139         1.42084
            5140         1.31860
            5141         1.32258
            5142         1.31727
            5143         1.58124
            5144         1.56864
            5145         1.57725
            5146         1.67981
            5147         1.69213
            5148         1.17492
            5149         1.27918
            5150         1.29205
            5151         1.43698
            5152         1.33596
            5153         2.64887
            5154         2.66362
            5155         2.65567
            5156         2.66561
            5157         2.65095
            5158         2.66080
            5159     49.8250E-03
            5160     77.1848E-03
            5161         1.43020
            5162         1.28082
            5163         1.28468
            5164         1.17955
            5165         1.55051
            5166         1.54526
            5167         1.54747
            5168         1.81768
            5169         1.79507
            5170         1.91470
            5171         1.07234
            5172         1.20658
            5173         1.16205
            5174         1.33665
            5175         1.20189
            5176         1.24622
            5177     932.169E-03
            5178     884.973E-03
            5179     944.906E-03
            5180         1.08041
            5181         1.12900
            5182     883.494E-03
            5183     729.034E-03
            5184     872.803E-03
            5185     731.439E-03
            5186     750.286E-03
            5187         1.03841
            5188         1.05371
            5189         1.19359
            5190         1.18097
            5191         1.23688
            5192         1.04948
            5193     898.979E-03
            5194     531.916E-03
            5195     648.963E-03
            5196     585.439E-03
            5197     499.419E-03
            5198     442.226E-03
            5199     467.300E-03
            5200     17.3378E-03
            5201     43.8871E-03
            5202     19.1956E-03
            5203     558.258E-03
            5204     412.444E-03
            5205     435.126E-03
            5206     411.449E-03
            5207     494.153E-03
            5208     376.466E-03
            5209     480.836E-03
            5210     518.637E-03
            5211     637.660E-03
            5212         5.90859
            5213         5.99340
            5214         2.58345
            5215         2.58407
            5216         2.60342
            5217         2.60047
            5218         2.60034
            5219         2.58082
            5220         6.03515
            5221         6.21697
            5222         6.30582
            5223         6.28724
            5224         6.09180
            5225         6.02192
            5226         6.02306
            5227         5.91306
            5228         5.99529
            5229         2.82453
            5230         2.85669
            5231         2.89928
            5232         2.86354
            5233         2.83083
            5234         6.51183
            5235         6.29932
            5236         6.37435
            5237         6.39856
            5238         5.82883
            5239         5.58595
            5240         5.67946
            5241         5.44132
            5242         5.70433
            5243         5.60443
            5244         5.96446
            5245         6.27087
            5246         6.23229
            5247         6.57009
            5248         6.24774
            5249         6.33786
            5250         6.41462
            5251         6.65609
            5252         2.57448
            5253         2.56575
            5254         2.58764
            5255         2.57201
            5256         2.55923
            5257         6.13419
            5258         5.44097
            5259         5.47059
            5260         5.44659
            5261         5.43317
            5262         5.42832
            5263         5.21097
            5264         5.28268
            5265         5.38032
            5266         5.37344
            5267         5.41556
            5268         5.09626
            5269         5.12828
            5270         5.14770
            5271         5.07820
            5272         5.06050
            5273         5.04603
            5274         5.00473
            5275         5.04044
            5276         5.02472
            5277         5.08470
            5278         5.07702
            5279         5.13912
            5280         5.04330
            5281         5.03173
            5282         5.04661
            5283         5.02408
            5284         5.71350
            5285         5.57181
            5286         5.24028
            5287         5.26046
            5288         5.29531
            5289         5.11533
            5290         5.28450
            5291         5.15590
            5292         5.26970
            5293         5.28607
            5294         5.55467
            5295         5.42968
            5296         5.38149
            5297         1.80746
            5298         1.37934
            5299         1.51342
            5300         1.16095
            5301     690.367E-03
            5302         1.24242
            5303     764.162E-03
            5304         1.21170
            5305     663.787E-03
            5306         1.11810
            5307         1.18882
            5308         1.72105
            5309         2.20185
            5310         2.03512
            5311         2.67841
            5312         2.25212
            5313         2.42250
            5314         1.92159
            5315         2.40949
            5316         2.35594
            5317         3.07323
            5318         2.31497
            5319         2.37603
            5320         1.02075
            5321     984.809E-03
            5322         1.11506
            5323         1.71356
            5324     894.075E-03
            5325         1.14024
            5326     881.040E-03
            5327     677.961E-03
            5328     688.783E-03
            5329     676.366E-03
            5330     877.392E-03
            5331     811.713E-03
            5332         1.00678
            5333         2.27235
            5334         1.97757
            5335         2.19640
            5336         2.50795
            5337         2.82379
            5338         2.89871
            5339         2.87307
            5340         2.08947
            5341         2.72572
            5342         3.19117
            5343         3.47694
            5344         3.10348
            5345         3.37855
            5346         2.74464
            5347         2.93819
            5348         2.70131
            5349         1.97328
            5350         1.57579
            5351         1.72352
            5352         1.59688
            5353         1.98870
            5354         1.85714
            5355         2.78362
            5356         2.58089
            5357         2.35017
            5358         2.35005
            5359         2.57057
            5360         2.77819
            5361         2.20503
            5362         2.21326
            5363         3.08321
            5364         2.65346
            5365         2.84832
            5366         2.96487
            5367         3.01565
            5368         1.80302
            5369         1.69706
            5370         1.71323
            5371         1.82043
            5372         1.47597
            5373         1.53925
            5374         1.31212
            5375         1.29421
            5376         1.51853
            5377         1.11966
            5378         1.27042
            5379         1.50973
            5380         1.79209
            5381         1.41280
            5382         1.82274
            5383         1.91859
            5384         2.05830
            5385         2.09099
            5386         2.47359
            5387         2.28730
            5388         4.84783
            5389         5.10345
            5390         4.95897
            5391         5.17321
            5392         4.93982
            5393         4.11499
            5394         3.89986
            5395         4.07160
            5396         4.24584
            5397         4.48404
            5398         4.29037
            5399         4.11765
            5400         4.16341
            5401         3.68137
            5402         3.86055
            5403         3.73515
            5404         4.04645
            5405         2.92087
            5406         2.98879
            5407         2.92699
            5408         4.77158
            5409         4.80204
            5410         1.77226
            5411         1.82496
            5412         1.31815
            5413         1.23430
            5414         3.00520
            5415         3.13746
            5416         1.94613
            5417         1.65163
            5418         2.97624
            5419         2.20851
            5420         2.08840
            5421         2.57528
            5422         3.47541
            5423         3.41016
            5424         3.18090
            5425         3.37222
            5426         5.67400
            5427         5.76693
            5428         5.68515
            5429         5.60490
            5430         5.60793
            5431         5.54738
            5432         5.51573
            5433         5.49018
            5434         5.54068
            5435         5.40745
            5436         5.37034
            5437         5.47618
            5438         5.43988
            5439         5.36771
            5440         5.11233
            5441         5.16661
            5442         5.28616
            5443         5.30634
            5444         5.27182
            5445         5.13662
            5446         2.82121
            5447         2.83688
            5448         4.39377
            5449         2.96231
            5450         2.88988
            5451         1.52737
            5452         5.37773
            5453         5.47913
            5454         5.45063
            5455         5.34954
            5456         5.26086
            5457         5.35472
            5458         5.14257
            5459         5.22816
            5460         5.16197
            5461         5.13603
            5462         5.05489
            5463         5.11206
            5464         4.52107
            5465         4.61926
            5466         4.40554
            5467         4.17881
            5468         4.00012
            5469         4.23012
            5470         4.29471
            5471         4.26506
            5472         4.47886
            5473         4.48508
            5474         1.95997
            5475         1.12106
            5476         1.13479
            5477     695.322E-03
            5478         1.34459
            5479         1.32695
            5480         4.88694
            5481         4.61060
            5482         4.65608
            5483         4.88239
            5484         4.83262
            5485         1.30698
            5486     927.411E-03
            5487     662.103E-03
            5488         5.16974
            5489         5.18764
            5490         5.02516
            5491         3.82424
            5492         4.51817
            5493         4.73040
            5494         5.07246
            5495         5.12026
            5496         2.74135
            5497         2.71593
            5498         2.72851
            5499         2.72764
            5500         2.75140
            5501         2.73965
            5502     14.9987E-03
            5503     21.2121E-03
            5504     12.3720E-03
            5505         5.30781
            5506         5.18149
            5507         5.36677
            5508         5.45026
            5509         5.40589
            5510         5.49979
            5511         5.41296
            5512         5.53098
            5513         5.42061
            5514         5.51531
            5515         6.26555
            5516         5.67500
            5517         5.57134
            5518         5.63256
            5519         5.61010
            5520         5.58719
            5521         5.60975
            5522         5.46003
            5523         2.81043
            5524         2.86900
            5525         2.80138
            5526         2.84026
            5527         2.78272
            5528         2.85009
            5529         2.69596
            5530         2.67043
            5531         2.68508
            5532         5.48133
            5533         5.38240
            5534         5.50154
            5535         5.46809
            5536         5.43712
            5537         5.39967
            5538         5.57311
            5539         5.52670
            5540         5.55452
            5541         5.50002
            5542         5.55412
            5543         5.52657
            5544         5.52626
            5545         5.49762
            5546         5.56503
            5547         5.51533
            5548     803.700E-03
            5549     692.157E-03
            5550     695.957E-03
            5551     836.740E-03
            5552     933.889E-03
            5553     971.589E-03
            5554         5.95146
            5555         5.63021
            5556         5.70183
            5557         5.53540
            5558         5.84164
            5559         5.75631
            5560         6.20637
            5561         6.74241
            5562         6.52463
            5563         6.84713
            5564         6.30244
            5565         6.56505
            5566         1.70846
            5567         1.28132
            5568         1.41199
            5569         1.69080
            5570         1.60940
            5571         6.34902
            5572         6.86470
            5573         6.47310
            5574         6.03673
            5575         6.34042
            5576         5.53019
            5577         5.40383
            5578         5.52061
            5579         5.40877
            5580         5.51083
            5581         5.39282
            5582         5.65393
            5583         5.70526
            5584         5.66027
            5585         5.62672
            5586         5.59204
            5587         5.62348
            5588         5.69169
            5589         5.71196
            5590         5.69707
            5591         5.77305
            5592         5.97608
            5593         5.79032
            5594         5.83268
            5595         5.68315
            5596         5.81030
            5597         5.72583
            5598         5.22465
            5599         5.25384
            5600         5.41985
            5601         5.23619
            5602         5.21109
            5603         5.06780
            5604         6.01463
            5605         5.81954
            5606         5.99918
            5607         5.46621
            5608         5.49108
            5609         2.83775
            5610         2.77730
            5611         2.82865
            5612         5.55355
            5613         5.56551
            5614         5.60673
            5615         4.14088
            5616         4.38582
            5617         4.13918
            5618         4.12394
            5619         3.89239
            5620         4.12187
            5621         4.52768
            5622         4.59113
            5623         4.43257
            5624         4.37832
            5625         4.31863
            5626         4.46994
            5627         4.78202
            5628         4.63487
            5629         4.66635
            5630         4.82717
            5631         4.63303
            5632         4.63208
            5633         4.37747
            5634         4.37859
            5635     558.621E-03
            5636     418.001E-03
            5637     479.931E-03
            5638     536.964E-03
            5639     928.821E-03
            5640     715.014E-03
            5641         1.57184
            5642         1.42730
            5643         1.17063
            5644         4.51011
            5645         4.62588
            5646         4.76889
            5647         4.69065
            5648         4.59212
            5649         4.43176
            5650         4.72675
            5651         4.96688
            5652         4.72422
            5653         4.81532
            5654         4.38399
            5655         4.06838
            5656         4.17116
            5657         4.06089
            5658         4.24778
            5659         4.98572
            5660         4.75497
            5661         4.99345
            5662         3.31174
            5663         3.08896
            5664         3.21038
            5665         3.22127
            5666         3.45341
            5667         3.32486
            5668         3.66520
            5669         3.87187
            5670         3.65341
            5671         3.59331
            5672         3.39458
            5673         3.59757
            5674         3.53621
            5675         3.76670
            5676         3.67751
            5677         3.75165
            5678         3.15692
            5679         3.25323
            5680         2.85562
            5681         2.88196
            5682         2.90750
            5683         2.87643
            5684         2.82498
            5685         3.52884
            5686         3.33244
            5687         3.28113
            5688         3.57730
            5689         3.85591
            5690         3.52219
            5691         4.00374
            5692         3.78336
            5693         3.78139
            5694         4.05625
            5695         4.09196
            5696         4.29738
            5697         4.04179
            5698         4.32606
            5699         3.10134
            5700         4.13826
            5701         3.87163
            5702         4.44382
            5703         4.68743
            5704         4.43950
            5705         4.51843
            5706         4.15715
            5707         3.94643
            5708         3.88740
            5709         3.71224
            5710         4.49132
            5711         4.76417
            5712         4.47079
            5713         4.51631
            5714         4.26000
            5715         4.53560
            5716         3.75639
            5717         4.00823
            5718         3.98027
            5719         3.91496
            5720         2.95603
            5721         2.94034
            5722         2.86500
            5723         2.86705
            5724         2.88119
            5725         2.95709
            5726         2.87962
            5727         2.87971
            5728         2.88027
            5729         2.96417
            5730         2.96203
            5731         2.96239
            5732         2.96244
            5733         2.96200
            5734     394.354E-03
            5735     405.119E-03
            5736     334.428E-03
            5737         2.31347
            5738         2.31843
            5739         2.33762
            5740         2.29343
            5741         2.29020
            5742         2.26921
            5743         3.16650
            5744         3.16932
            5745         2.40174
            5746         2.42458
            5747         2.37864
            5748         2.37342
            5749         2.34878
            5750         2.39583
            5751         2.43468
            5752         2.45940
            5753         2.47216
            5754         2.47744
            5755         2.45427
            5756         2.43847
            5757         2.50350
            5758         2.48027
            5759         2.48505
            5760         2.48378
            5761         2.47898
            5762         2.47073
            5763         2.43861
            5764         2.44296
            5765         2.22786
            5766         2.18641
            5767         2.25286
            5768         2.16477
            5769         2.21233
            5770         2.14111
            5771         2.28355
            5772         2.27741
            5773         2.28311
            5774         2.34018
            5775         2.34468
            5776         2.33811
            5777         2.33988
            5778         2.39534
            5779         2.39743
            5780         2.34256
            5781         2.31435
            5782         2.37065
            5783         2.34210
            5784         2.33878
            5785         2.28008
            5786         2.31078
            5787         2.20752
            5788         2.12870
            5789         2.20984
            5790         2.11298
            5791         2.19406
            5792         2.11280
            5793         2.28549
            5794         2.34085
            5795         2.28815
            5796         2.25076
            5797         2.30786
            5798     960.924E-03
            5799     693.097E-03
            5800         1.02863
            5801     637.399E-03
            5802     883.815E-03
            5803         2.25269
            5804         1.79893
            5805         1.76174
            5806         1.86548
            5807         1.78398
            5808         1.82006
            5809         1.71172
            5810     591.506E-03
            5811     469.086E-03
            5812     632.473E-03
            5813     654.912E-03
            5814     781.943E-03
            5815     612.739E-03
            5816         2.01037
            5817         2.10142
            5818         2.00893
            5819         2.09822
            5820         2.00756
            5821         2.10611
            5822         1.92153
            5823         2.01383
            5824         2.01614
            5825         2.02041
            5826         2.01141
            5827         1.82991
            5828         1.86993
            5829         1.82618
            5830         2.19152
            5831         2.17059
            5832         2.17177
            5833         2.19252
            5834         2.23658
            5835         2.17704
            5836         2.16597
            5837         2.17121
            5838         2.02315
            5839         1.92408
            5840         1.90826
            5841         1.94025
            5842         2.07294
            5843         2.09562
            5844         2.05475
            5845         1.94953
            5846         2.05289
            5847         2.03267
            5848         2.04471
            5849         2.06450
            5850         1.87667
            5851         1.62833
            5852         1.83943
            5853         1.78345
            5854         2.01517
            5855         1.81919
            5856         1.67221
            5857         1.61551
            5858         1.65954
            5859         1.78375
            5860         1.85028
            5861         1.79155
            5862         2.19388
            5863         2.19112
            5864         2.07704
            5865         2.02961
            5866         2.13704
            5867     958.518E-03
            5868         1.01615
            5869         1.07428
            5870         1.26558
            5871         1.21932
            5872         1.08026
            5873         1.28095
            5874         1.27679
            5875         1.36104
            5876         1.36526
            5877         1.35671
            5878     436.670E-03
            5879     401.134E-03
            5880         8.37225
            5881         8.49452
            5882         7.87936
            5883         7.89054
            5884         7.76414
            5885         8.38585
            5886         7.01155
            5887         7.16982
            5888         6.61147
            5889         6.59158
            5890         6.98810
            5891         8.18689
            5892         8.20051
            5893         7.60532
            5894         8.01882
            5895         7.38487
            5896         6.83029
            5897         7.18660
            5898         7.40222
            5899         5.83493
            5900         5.54875
            5901         6.21997
            5902         6.18432
            5903         6.61757
            5904         5.18863
            5905         5.17658
            5906         5.16306
            5907     564.006E-03
            5908     683.975E-03
            5909     365.754E-03
            5910     403.974E-03
            5911     321.754E-03
            5912     692.747E-03
            5913     593.099E-03
            5914     598.669E-03
            5915     503.428E-03
            5916     444.026E-03
            5917     438.488E-03
            5918     535.608E-03
            5919         5.40061
            5920         5.19429
            5921         5.22057
            5922         5.59675
            5923         5.43426
            5924         5.60294
            5925         5.55100
            5926         6.99230
            5927         6.92866
            5928         4.83566
            5929         4.81127
            5930         5.20484
            5931         5.01180
            5932         4.81601
            5933         5.61161
            5934         5.58699
            5935         5.20143
            5936         5.22868
            5937         4.96170
            5938         5.11313
            5939         5.15464
            5940         5.38388
            5941         5.15026
            5942         5.79593
            5943         6.12248
            5944         6.37425
            5945         6.14609
            5946         4.17766
            5947         3.90883
            5948         3.93700
            5949         3.43868
            5950         3.35655
            5951         3.79432
            5952         3.47471
            5953     453.508E-03
            5954     458.862E-03
            5955     619.279E-03
            5956     563.503E-03
            5957     559.842E-03
            5958     427.085E-03
            5959         1.49894
            5960         1.35768
            5961         1.81488
            5962         1.72360
            5963         1.88590
            5964         1.39338
            5965         2.41559
            5966         2.39080
            5967         4.11477
            5968         4.06675
            5969         2.53451
            5970         2.43724
            5971         2.46307
            5972         2.33020
            5973         2.42224
            5974         2.39397
            5975         2.28541
            5976         2.24274
            5977         2.33826
            5978         2.50444
            5979         2.54903
            5980         2.55273
            5981         2.48420
            5982         2.44079
            5983         2.64761
            5984         2.65721
            5985         2.70109
            5986         2.35005
            5987         2.37238
            5988         2.10465
            5989         2.17206
            5990         2.12885
            5991         2.17688
            5992         2.21236
            5993         2.25899
            5994         2.15029
            5995         2.06412
            5996         2.17254
            5997         2.14302
            5998         2.34685
            5999         2.21175
            6000         2.28774
            6001         2.32890
            6002         2.25660
            6003         2.98250
            6004         2.88938
            6005         3.05801
            6006         2.91008
            6007         3.00565
            6008         2.83733
            6009         2.94841
            6010         3.04302
            6011         3.08041
            6012         2.98757
            6013         2.89822
            6014         2.86119
            6015         3.26461
            6016         3.27402
            6017         3.38849
            6018         3.23016
            6019         3.22143
            6020         3.11537
            6021         2.95818
            6022         3.11837
            6023         3.16360
            6024         3.00311
            6025         2.87518
            6026         3.04083
            6027         2.94655
            6028         3.36560
            6029         3.35978
            6030         3.17044
            6031         3.23888
            6032         3.24852
            6033         3.44023
            6034         3.24974
            6035         3.34853
            6036         3.27863
            6037         3.52971
            6038         3.42662
            6039         3.49696
            6040         2.74337
            6041         2.72515
            6042         2.72736
            6043         2.70612
            6044         2.66789
            6045         2.68592
            6046         2.65632
            6047         2.61276
            6048         2.62854
            6049         2.74556
            6050         2.67584
            6051         2.72353
            6052         2.79117
            6053         2.77126
            6054         2.79270
            6055         2.74389
            6056         2.65511
            6057         2.70282
            6058         2.68306
            6059         2.70359
            6060         2.65556
            6061         2.67296
            6062         2.58082
            6063         2.59096
            6064         2.60879
            6065         2.59985
            6066         2.64837
            6067         2.62628
            6068         2.64100
            6069         2.64094
            6070         2.62617
            6071         2.67829
            6072         2.71644
            6073         2.70820
            6074         2.75906
            6075         2.70949
            6076         2.71901
            6077         2.60291
            6078         2.75057
            6079         2.75095
            6080         2.67388
            6081         2.64297
            6082         2.65330
            6083         2.64942
            6084         2.68070
            6085         2.66749
            6086         2.63342
            6087         2.65306
            6088         2.64256
            6089         2.64176
            6090         2.64926
            6091         2.70001
            6092         2.73865
            6093         2.70506
            6094         2.75102
            6095         2.71162
            6096         2.74553
            6097         2.67440
            6098         2.53311
            6099         2.55487
            6100         2.53324
            6101         2.56056
            6102         2.53927
            6103         2.56225
            6104         2.53935
            6105         2.51689
            6106         2.53951
            6107         2.50921
            6108         2.51831
            6109         2.49134
            6110         2.48894
            6111         2.44827
            6112         2.45974
            6113         2.48084
            6114         2.50204
            6115         2.46136
            6116     428.784E-03
            6117     278.783E-03
            6118     273.002E-03
            6119     196.021E-03
            6120     342.394E-03
            6121     347.855E-03
            6122         2.55691
            6123         2.55847
            6124         2.55331
            6125         2.53273
            6126         2.53492
            6127         2.53573
            6128         2.54276
            6129         2.54296
            6130         2.51483
            6131         2.53686
            6132         2.58473
            6133         2.57044
            6134         2.56894
            6135         2.57047
            6136         2.58632
            6137         2.58634
            6138         2.33680
            6139         2.34002
            6140         2.28911
            6141         2.57112
            6142         2.56971
            6143         2.40746
            6144         2.34996
            6145         2.40379
            6146         2.33741
            6147         2.39542
            6148         2.40765
            6149         2.39777
            6150         2.33165
            6151         2.52395
            6152         2.51644
            6153         2.50484
            6154         2.52741
            6155         2.53468
            6156         2.51233
            6157         2.52197
            6158         2.49508
            6159         2.51395
            6160         2.51057
            6161         2.54136
            6162         2.52307
            6163         2.52613
            6164         2.65934
            6165         2.76882
            6166         2.68032
            6167         2.70240
            6168         2.59721
            6169         2.67924
            6170         2.51702
            6171         2.51238
            6172         2.55686
            6173         2.58028
            6174         2.55140
            6175         2.44278
            6176         2.41138
            6177         2.80009
            6178         2.69736
            6179         2.82668
            6180         2.40976
            6181         2.53581
            6182         2.38783
            6183         2.38134
            6184         2.32059
            6185         2.36034
            6186         2.34389
            6187         2.40695
            6188         2.36980
            6189         2.37389
            6190         2.37111
            6191         2.41867
            6192         2.38498
            6193         2.38753
            6194         2.51140
            6195         2.50178
            6196         2.47166
            6197         2.48612
            6198         2.46857
            6199         2.47181
            6200         2.43861
            6201         2.22377
            6202         2.22952
            6203         2.26927
            6204         2.18774
            6205         2.18415
            6206         2.15322
            6207         2.27571
            6208         2.23339
            6209         2.24248
            6210         2.38725
            6211         2.37198
            6212         2.48882
            6213         2.51681
            6214         2.48886
            6215         2.52050
            6216         2.49276
            6217         2.52199
            6218         2.42971
            6219         2.38959
            6220         2.39222
            6221         2.43756
            6222         2.45274
            6223         2.43075
            6224         2.59099
            6225         2.60260
            6226         2.60097
            6227         2.58932
            6228         2.59255
            6229         2.58611
            6230         2.57065
            6231         2.57785
            6232         2.57343
            6233         2.58841
            6234         2.58766
            6235         2.61042
            6236         2.60466
            6237         2.60236
            6238         2.59799
            6239         2.60037
            6240         2.60297
            6241         2.59689
            6242         2.59456
            6243         2.65709
            6244         2.68454
            6245     907.484E-03
            6246     863.392E-03
            6247     864.738E-03
            6248     999.674E-03
            6249         1.04415
            6250         1.04445
            6251         2.59909
            6252         2.61176
            6253         2.61688
            6254         2.61086
            6255         2.61587
            6256         2.62156
            6257         2.61419
            6258         2.61989
            6259         2.61367
            6260         2.62629
            6261         2.60652
            6262         2.60750
            6263         2.59964
            6264     282.537E-03
            6265     254.193E-03
            6266     257.937E-03
            6267         2.60615
            6268         2.61613
            6269         2.61156
            6270         2.62486
            6271         2.61966
            6272         2.57477
            6273         2.57377
            6274         2.59936
            6275         2.59943
            6276         2.60403
            6277         2.61225
            6278         2.61245
            6279         2.61174
            6280         2.61043
            6281         2.61219
            6282         2.61095
            6283         2.60945
            6284         2.61261
            6285         2.61150
            6286         2.61608
            6287         2.61165
            6288         2.61254
            6289         2.61574
            6290         2.61098
            6291         2.60666
            6292         2.61138
            6293         2.62346
            6294         2.61395
            6295         2.61636
            6296         2.60728
            6297         2.61413
            6298         2.49680
            6299         2.52978
            6300         2.48803
            6301         2.48756
            6302         2.45113
            6303         2.49865
            6304         2.59991
            6305         2.63034
            6306         2.62770
            6307         2.63536
            6308         2.61888
            6309         2.62157
            6310         2.61499
            6311         2.64053
            6312         2.64202
            6313         2.63798
            6314         2.63322
            6315         2.63606
            6316         2.53897
            6317         2.56947
            6318         2.58172
            6319         2.57368
            6320         2.54922
            6321         2.62106
            6322         2.62425
            6323         2.62729
            6324         2.61736
            6325         2.61373
            6326         2.61817
            6327         2.59522
            6328         2.56894
            6329         2.58855
            6330         2.57430
            6331         2.59950
            6332         2.57992
            6333         2.63627
            6334         2.64414
            6335         2.62214
            6336         2.62697
            6337         2.62024
            6338         2.64260
            6339     123.617E-03
            6340     211.588E-03
            6341     123.942E-03
            6342     114.984E-03
            6343     43.4971E-03
            6344     114.549E-03
            6345         2.66442
            6346         2.64723
            6347         2.66604
            6348         2.68647
            6349         2.68197
            6350         2.53161
            6351         2.54520
            6352         2.55771
            6353         2.54112
            6354         2.52998
            6355         2.45068
            6356         2.49659
            6357         2.44750
            6358         2.44439
            6359         2.44745
            6360         2.45587
            6361         2.59440
            6362         2.60864
            6363         2.58295
            6364         2.56344
            6365         2.57754
            6366         2.59999
            6367         2.62433
            6368         2.58557
            6369         2.61915
            6370         2.59631
            6371         2.63709
            6372         2.61454
            6373         2.62985
            6374         2.53415
            6375         2.55140
            6376         2.55154
            6377         2.54692
            6378         2.56636
            6379         2.56126
            6380         2.54597
            6381         2.55459
            6382         2.58800
            6383         2.56885
            6384         2.57510
            6385         2.57368
            6386         2.54932
            6387         2.54238
            6388         2.81212
            6389         2.88557
            6390         2.80031
            6391         2.80009
            6392         2.86873
            6393         2.84905
            6394         2.73964
            6395         2.75828
            6396         2.61590
            6397         2.59069
            6398         2.87009
            6399         2.88450
            6400         2.76343
            6401         2.78042
            6402         2.90958
            6403         2.73251
            6404         2.67795
            6405         2.71477
            6406         3.05470
            6407         2.88944
            6408         3.09751
            6409         2.90972
            6410         3.03529
            6411         2.84349
            6412         2.95140
            6413         3.19898
            6414         3.17805
            6415         3.26306
            6416         3.03167
            6417         2.15041
            6418         2.14474
            6419         2.08528
            6420         1.76009
            6421         1.77065
            6422         1.31230
            6423         1.70847
            6424         1.38241
            6425         1.39857
            6426         1.44028
            6427         1.17471
            6428         1.45479
            6429         2.19257
            6430         1.44696
            6431         2.50253
            6432         2.49447
            6433         2.16162
            6434         2.91840
            6435         2.92023
            6436         3.11549
            6437         2.48713
            6438         2.46707
            6439         2.84462
            6440         2.83438
            6441         3.36771
            6442         3.15075
            6443         3.12166
            6444         3.14314
            6445         3.36099
            6446         2.87580
            6447         3.29848
            6448         3.16843
            6449         2.79085
            6450         2.96486
            6451         2.99763
            6452         3.44544
            6453         3.74414
            6454         3.41669
            6455         3.44710
            6456         3.52272
            6457         3.77698
            6458         3.34236
            6459         3.15214
            6460         2.95667
            6461         2.95434
            6462         3.25975
            6463         3.21939
            6464         2.85838
            6465         3.61862
            6466         3.56280
            6467         1.92464
            6468         1.85663
            6469         1.82882
            6470         1.81212
            6471         1.88881
            6472         1.90754
            6473         3.67382
            6474         3.85211
            6475         3.51002
            6476         3.86673
            6477         3.76949
            6478         2.46637
            6479         4.82916
            6480         5.39420
            6481         4.98732
            6482         4.92154
            6483         5.19545
            6484         5.26168
            6485         5.50979
            6486         5.59240
            6487         5.49894
            6488         5.52469
            6489         5.53267
            6490         5.53966
            6491         5.52641
            6492         5.47528
            6493         5.48144
            6494         5.55599
            6495         5.55972
            6496         5.59719
            6497         5.65209
            6498         5.64513
            6499         5.47514
            6500         5.47923
            6501         5.50310
            6502         5.57113
            6503         5.86934
            6504         5.84887
            6505         5.81952
            6506         5.87692
            6507         5.87301
            6508         5.93219
            6509         5.70656
            6510         5.69392
            6511         5.73484
            6512         5.75561
            6513         5.74657
            6514         5.72282
            6515         5.58010
            6516         5.67935
            6517         5.53124
            6518         5.70665
            6519         5.60306
            6520         5.80875
            6521         5.63468
            6522         5.71334
            6523         5.81145
            6524         5.87458
            6525         5.90032
            6526         5.82949
            6527         4.98344
            6528         4.90520
            6529         5.12948
            6530         5.47717
            6531         5.47146
            6532         5.66176
            6533         5.62028
            6534         5.66222
            6535         5.58363
            6536         6.04471
            6537         6.12972
            6538         6.12035
            6539         6.96369
            6540         7.41318
            6541         6.78831
            6542         7.04382
            6543         6.61839
            6544         7.18946
            6545         6.09239
            6546         5.87362
            6547         6.12574
            6548         6.04574
            6549         6.29451
            6550         6.02050
            6551         6.26970
            6552         6.37821
            6553         6.58174
            6554         6.49747
            6555         5.80190
            6556         6.03949
            6557         5.81978
            6558         7.13517
            6559         6.68638
            6560         6.72349
            6561         6.38897
            6562         6.80992
            6563         5.52180
            6564         1.19201
            6565         1.00987
            6566     944.544E-03
            6567         1.11422
            6568         1.10575
            6569         6.40673
            6570         6.11790
            6571         6.13380
            6572         5.75512
            6573         5.83803
            6574         5.89356
            6575         5.96589
            6576         5.69386
            6577         5.69204
            6578         5.55389
            6579         5.53032
            6580         5.53537
            6581         5.68100
            6582         6.11118
            6583         5.84873
            6584         5.80166
            6585         6.16832
            6586         6.05994
            6587         6.06332
            6588         5.82335
            6589         6.18991
            6590         6.14384
            6591         6.20374
            6592         6.38335
            6593         7.64151
            6594         7.67011
            6595         6.82638
            6596         6.92199
            6597         6.85508
            6598         7.76184
            6599         2.60614
            6600         2.61880
            6601         2.63517
            6602         2.63358
            6603         2.61396
            6604         5.68161
            6605         5.83070
            6606         2.11926
            6607         2.16159
            6608         2.16902
            6609         2.15536
            6610         2.11189
            6611         2.11711
            6612         2.05723
            6613         2.03251
            6614         2.08604
            6615         2.03575
            6616         2.06377
            6617         2.00998
            6618         2.09392
            6619         2.10141
            6620         2.09815
            6621         2.05539
            6622         2.04912
            6623         2.14743
            6624         2.19330
            6625         2.14827
            6626         2.14871
            6627         2.11285
            6628         2.06155
            6629         2.03326
            6630         1.97940
            6631         2.03272
            6632         2.05608
            6633         2.64190
            6634         2.64117
            6635         2.61742
            6636         2.54164
            6637         2.54282
            6638         2.55575
            6639         2.54160
            6640         2.54136
            6641         2.52600
            6642         2.58338
            6643         2.51225
            6644         2.53975
            6645         2.54692
            6646         2.49290
            6647         2.46517
            6648         2.46126
            6649         2.56952
            6650         2.53958
            6651         2.51813
            6652         2.53873
            6653         2.53726
            6654         2.59379
            6655         2.57453
            6656         2.58246
            6657         2.57474
            6658         2.62877
            6659         2.61679
            6660         2.60931
            6661         2.62182
            6662         2.60551
            6663         2.59791
            6664         2.62059
            6665         2.61801
            6666         2.61562
            6667         2.63324
            6668         2.63400
            6669         2.55739
            6670         2.57300
            6671         2.57125
            6672         2.56314
            6673         2.61308
            6674         2.59570
            6675         2.64805
            6676         2.63432
            6677         2.63563
            6678         2.62386
            6679         2.63215
            6680         2.63462
            6681         2.63507
            6682         2.63321
            6683         2.64180
            6684         2.64410
            6685         2.63442
            6686         2.58882
            6687         2.67092
            6688         2.67563
            6689         2.66921
            6690         2.66898
            6691         2.66553
            6692         2.67066
            6693         2.67962
            6694         2.67907
            6695         2.67076
            6696         2.68038
            6697         2.67038
            6698         2.72239
            6699         2.77157
            6700         2.74966
            6701         2.77520
            6702         2.72508
            6703         2.74573
            6704         2.61205
            6705         2.61592
            6706         2.62414
            6707         2.60868
            6708         2.62055
            6709         2.60556
            6710         2.59827
            6711         2.58134
            6712         2.58426
            6713         2.58795
            6714         2.60182
            6715         2.62691
            6716         2.63473
            6717         2.63395
            6718         2.63129
            6719         2.62312
            6720         2.61442
            6721         2.64095
            6722         2.65370
            6723         2.64261
            6724         2.64649
            6725         2.64445
            6726         2.64321
            6727         2.65061
            6728         2.64240
            6729         2.64913
            6730         2.64956
            6731         2.57528
            6732         2.58376
            6733         2.58595
            6734         2.59982
            6735         2.58990
            6736         2.99325
            6737         3.14927
            6738         2.99532
            6739         3.10938
            6740         2.96420
            6741         3.11831
            6742         3.00596
            6743         3.00596
            6744         2.87981
            6745         2.97534
            6746         2.97559
            6747         3.12280
            6748         3.02072
            6749         2.91673
            6750         3.06279
            6751         2.87630
            6752         2.83429
            6753         2.84172
            6754         2.87541
            6755         2.91229
            6756     861.926E-03
            6757     832.365E-03
            6758     997.561E-03
            6759     721.939E-03
            6760     761.908E-03
            6761     724.593E-03
            6762     757.869E-03
            6763     680.285E-03
            6764     829.650E-03
            6765     685.577E-03
            6766     999.919E-03
            6767         1.13334
            6768         1.03123
            6769         1.16572
            6770         1.13505
            6771     673.015E-03
            6772     719.874E-03
            6773     942.085E-03
            6774         1.00051
            6775     929.131E-03
            6776     829.171E-03
            6777     516.338E-03
            6778     586.461E-03
            6779     520.701E-03
            6780     763.784E-03
            6781         1.31102
            6782         1.39029
            6783         1.37138
            6784         1.47281
            6785         1.39880
            6786         1.41960
            6787         1.84630
            6788         1.78688
            6789         1.76914
            6790         1.25068
            6791         1.35172
            6792         1.23050
            6793         1.53599
            6794         1.55987
            6795         1.47828
            6796         3.65059
            6797         3.49545
            6798         3.56748
            6799         3.49613
            6800         3.65115
            6801         3.57890
            6802         2.88349
            6803         2.71183
            6804         2.80078
            6805         2.60476
            6806         2.76588
            6807         2.67703
            6808         3.56284
            6809         3.73300
            6810         3.59509
            6811         3.59951
            6812         3.43088
            6813         2.91584
            6814         2.70850
            6815         2.74023
            6816         3.21070
            6817         3.36908
            6818         3.12429
            6819         3.26720
            6820         3.10979
            6821         3.35366
            6822         4.15607
            6823         4.14932
            6824         4.29207
            6825         4.38398
            6826         4.39006
            6827         4.24619
            6828         4.44259
            6829         4.17776
            6830         4.43119
            6831         4.29247
            6832         4.16225
            6833         4.05502
            6834         4.54763
            6835         4.54621
            6836         4.64955
            6837         4.64957
            6838         3.97040
            6839         4.09414
            6840         3.98774
            6841         3.00020
            6842         3.06562
            6843         2.97363
            6844         2.88903
            6845         2.82991
            6846         4.75947
            6847         4.54846
            6848         4.73848
            6849         4.54327
            6850         4.75346
            6851         4.56467
            6852         4.94460
            6853         4.72093
            6854         4.74353
            6855         5.21560
            6856         5.28467
            6857         5.03190
            6858         5.29597
            6859         5.22853
            6860         5.49319
            6861         5.03774
            6862         5.05043
            6863         5.16838
            6864         5.32848
            6865         5.31733
            6866         5.19997
            6867     146.231E-03
            6868     293.557E-03
            6869     118.889E-03
            6870     259.076E-03
            6871     117.040E-03
            6872     290.265E-03
            6873         6.42775
            6874         6.11616
            6875         6.32633
            6876         5.77648
            6877         5.98383
            6878         5.99147
            6879         5.94785
            6880         5.76337
            6881         5.73711
            6882         5.94387
            6883         6.15298
            6884         6.20711
            6885         4.99147
            6886         5.11302
            6887         4.93844
            6888         4.94413
            6889         4.81100
            6890         4.99700
            6891         4.72483
            6892         4.81918
            6893         4.89285
            6894         4.77203
            6895         4.67825
            6896         4.59151
            6897         4.88690
            6898         4.91128
            6899         5.01365
            6900         5.11898
            6901         5.07221
            6902         4.96763
            6903         4.55897
            6904         4.71328
            6905         4.67797
            6906         4.93033
            6907         4.88596
            6908         5.06747
            6909         5.84946
            6910         5.93235
            6911         5.90824
            6912         5.82985
            6913         5.88656
            6914         5.78574
            6915         5.76930
            6916         5.78650
            6917         5.81233
            6918         5.81614
            6919         5.97588
            6920         5.69991
            6921         5.66999
            6922         5.69979
            6923         5.77533
            6924         5.80502
            6925         5.77391
            6926         5.65875
            6927         5.62346
            6928         5.64874
            6929         5.62853
            6930         5.64241
            6931         5.65168
            6932         5.68643
            6933         5.64581
            6934         5.58125
            6935         5.63353
            6936         5.53228
            6937         5.85379
            6938         6.00958
            6939         5.84795
            6940         5.89639
            6941         5.77043
            6942         5.89660
            6943         4.94522
            6944         4.95421
            6945         5.11678
            6946         4.95242
            6947         4.95835
            6948         4.79422
            6949         5.18906
            6950         1.98634
            6951         1.93736
            6952         1.87362
            6953         1.96815
            6954         2.03130
            6955         5.21856
            6956         5.25595
            6957         5.04222
            6958         5.38739
            6959         5.27047
            6960         5.40825
            6961         5.23364
            6962         5.36977
            6963         5.37254
            6964         5.24876
            6965         5.25337
            6966         5.57283
            6967         5.52012
            6968         5.83465
            6969         4.53523
            6970         4.61006
            6971         4.62683
            6972         4.53729
            6973         4.06441
            6974         4.23090
            6975         4.76324
            6976         4.57484
            6977         4.67348
            6978         4.83245
            6979         4.71221
            6980         4.23746
            6981         4.30288
            6982         4.47595
            6983         3.48586
            6984         3.56006
            6985         3.54724
            6986         3.67078
            6987         3.59499
            6988         3.60845
            6989         3.24286
            6990         3.23951
            6991         3.16689
            6992         3.31012
            6993         3.31212
            6994         3.39501
            6995         3.35091
            6996         3.26684
            6997         3.42745
            6998         3.47320
            6999         3.50591
            7000         3.33320
            7001         3.45598
            7002         3.30300
            7003         2.96949
            7004         2.84760
            7005         2.95522
            7006         2.89506
            7007         3.02516
            7008         2.90899
            7009         3.06598
            7010         2.93557
            7011         2.94895
            7012         3.12547
            7013         3.22827
            7014         3.20106
            7015         3.30800
            7016         3.32956
            7017         3.20108
            7018         3.17830
            7019         1.46657
            7020         3.12758
            7021         3.04945
            7022         3.01146
            7023         3.05166
            7024         3.05721
            7025         2.97360
            7026         3.03247
            7027         2.94366
            7028         3.02756
            7029         2.96960
            7030         3.10044
            7031         3.18014
            7032         3.21111
            7033         3.17351
            7034         3.09314
            7035         3.06070
            7036         3.05883
            7037         3.13225
            7038         3.03451
            7039         2.95525
            7040         2.88613
            7041         2.94558
            7042         2.89171
            7043         2.96038
            7044         2.89960
            7045         3.22781
            7046         3.24542
            7047         3.15192
            7048         3.19377
            7049         3.17699
            7050         3.27158
            7051         2.93138
            7052         2.92551
            7053         2.87232
            7054         2.88047
            7055         2.94060
            7056         3.01477
            7057         3.00901
            7058         3.02434
            7059         3.08810
            7060         3.09504
            7061         3.07741
            7062         2.95081
            7063         2.95585
            7064         2.89797
            7065         2.89489
            7066         2.95184
            7067         2.73206
            7068         2.70172
            7069         2.72980
            7070         2.71687
            7071         2.74706
            7072         2.71879
            7073         2.78067
            7074         2.80543
            7075         2.77350
            7076         2.76200
            7077         2.77069
            7078         2.74317
            7079         2.72779
            7080         2.73594
            7081         2.71137
            7082         2.72508
            7083         2.71819
            7084         2.24044
            7085         2.10531
            7086         2.10111
            7087         2.12235
            7088         2.25380
            7089         2.26133
            7090         2.33114
            7091         2.42349
            7092         2.33495
            7093         2.44941
            7094         2.35693
            7095         2.44200
            7096         2.55297
            7097         2.48486
            7098         2.49174
            7099         2.49461
            7100         2.56162
            7101         2.55537
            7102         2.40202
            7103         2.30958
            7104         2.31443
            7105         2.31811
            7106         2.40863
            7107         2.40946
            7108         2.22927
            7109         2.09924
            7110         2.10285
            7111         1.95737
            7112         2.09213
            7113         2.08918
            7114         2.48241
            7115         2.56535
            7116         2.53926
            7117         1.66730
            7118     859.051E-03
            7119     844.152E-03
            7120         1.11217
            7121         1.07784
            7122         1.09915
            7123     394.532E-03
            7124     235.857E-03
            7125     234.746E-03
            7126     394.144E-03
            7127         1.03822
            7128     896.011E-03
            7129         1.03984
            7130     977.485E-03
            7131         1.11947
            7132     972.031E-03
            7133     849.476E-03
            7134     713.441E-03
            7135     751.432E-03
            7136     694.347E-03
            7137     836.420E-03
            7138     790.511E-03
            7139     593.784E-03
            7140     732.015E-03
            7141     677.127E-03
            7142         1.06881
            7143     921.131E-03
            7144         1.02490
            7145         1.39785
            7146         1.61308
            7147         1.45658
            7148         1.56494
            7149         1.34546
            7150         1.51056
            7151         2.95132
            7152         3.08326
            7153         3.09561
            7154         1.14529
            7155         1.15992
            7156         1.64277
            7157         1.42860
            7158         1.49339
            7159         1.30972
            7160         1.51909
            7161         2.50070
            7162         2.49078
            7163         1.76259
            7164         1.93357
            7165         1.72958
            7166         1.93609
            7167         1.75566
            7168         1.96204
            7169         1.28711
            7170         1.47342
            7171         1.61906
            7172         1.82595
            7173         1.67016
            7174         1.54365
            7175         1.46811
            7176     464.060E-03
            7177     527.805E-03
            7178     424.030E-03
            7179     452.137E-03
            7180     319.291E-03
            7181     913.217E-03
            7182     889.660E-03
            7183         1.06163
            7184     952.511E-03
            7185     960.478E-03
            7186         1.18682
            7187         1.14974
            7188         1.09416
            7189         1.26764
            7190         1.12497
            7191         1.30047
            7192         1.27940
            7193     851.687E-03
            7194     989.034E-03
            7195         1.46290
            7196         1.31939
            7197         2.04216
            7198         2.10419
            7199         2.09529
            7200         1.63807
            7201         1.67044
            7202         1.83175
            7203         1.78894
            7204         1.75818
            7205         1.96133
            7206         2.12676
            7207         2.19141
            7208         2.20985
            7209         2.23985
            7210         2.14649
            7211         2.08915
            7212         2.13975
            7213         2.26253
            7214         2.32552
            7215         2.23136
            7216         2.32101
            7217         2.25733
            7218         2.35544
            7219         2.42442
            7220         2.43838
            7221         2.43933
            7222         2.48666
            7223         2.47800
            7224         2.47270
            7225         2.42197
            7226         2.48237
            7227         2.40616
            7228         2.52529
            7229         2.47802
            7230         2.54159
            7231         2.44287
            7232         2.51085
            7233         2.52447
            7234         2.57381
            7235         2.51231
            7236         2.49646
            7237         2.53690
            7238         2.55018
            7239         2.40193
            7240         2.37623
            7241         2.40906
            7242         2.50240
            7243         2.53563
            7244         2.52839
            7245         2.46364
            7246         2.48232
            7247     139.192E-03
            7248     91.1443E-03
            7249     101.358E-03
            7250         1.14552
            7251     774.507E-03
            7252     815.008E-03
            7253     676.032E-03
            7254         1.01813
            7255         2.40927
            7256         2.46552
            7257         2.45927
            7258         2.51045
            7259         2.46649
            7260         2.40462
            7261         2.39744
            7262         2.85886
            7263         2.84330
            7264         2.84116
            7265         2.76132
            7266         2.78011
            7267         2.78412
            7268         2.80114
            7269         2.78611
            7270         2.84036
            7271         2.89229
            7272         2.89671
            7273         2.66613
            7274         2.72331
            7275         2.69012
            7276         2.69920
            7277         2.64243
            7278         2.67488
            7279         2.64338
            7280         2.65853
            7281         2.60124
            7282         1.94982
            7283         1.96960
            7284         1.98181
            7285         2.12768
            7286         2.09600
            7287         3.43878
            7288         3.59327
            7289         3.45799
            7290         3.45144
            7291         3.31074
            7292         3.43336
            7293         3.13123
            7294         3.13846
            7295         3.26655
            7296         3.39145
            7297         3.26390
            7298         3.39412
            7299         3.34497
            7300         3.48293
            7301         3.46445
            7302         3.35236
            7303         3.32608
            7304     120.577E-03
            7305     49.5945E-03
            7306     140.599E-03
            7307     143.793E-03
            7308         3.26330
            7309         3.41391
            7310         3.30246
            7311         3.39573
            7312         3.09935
            7313         3.14132
            7314         3.30825
            7315         3.26918
            7316         3.31543
            7317         3.00384
            7318         2.95095
            7319         2.89896
            7320         2.94748
            7321         2.95633
            7322         3.02086
            7323         2.88333
            7324         2.82136
            7325         2.95310
            7326         2.70262
            7327         2.70579
            7328         2.68347
            7329         2.77842
            7330         2.75770
            7331         2.81980
            7332         2.76452
            7333         2.78347
            7334         2.72141
            7335         2.82289
            7336         2.78750
            7337         2.70489
            7338         2.67547
            7339         2.69686
            7340         2.72522
            7341         2.75206
            7342         2.73885
            7343         2.90112
            7344         2.89776
            7345         2.98958
            7346         2.29790
            7347         2.20332
            7348         2.31986
            7349         2.31132
            7350         2.39951
            7351         2.28895
            7352         2.99471
            7353         2.90650
            7354         3.00159
            7355         3.12807
            7356         3.10326
            7357         3.02781
            7358         3.10804
            7359         2.77036
            7360         2.70688
            7361         2.72417
            7362         2.72689
            7363         2.71513
            7364         2.80185
            7365         2.83411
            7366         2.78565
            7367         2.76452
            7368         2.80607
            7369         2.71285
            7370         2.69810
            7371         2.70924
            7372         2.70402
            7373         2.72333
            7374         2.71033
            7375         2.71709
            7376         2.71249
            7377         2.74479
            7378         2.73048
            7379         2.86867
            7380         2.89028
            7381         2.89473
            7382         2.87407
            7383         2.97548
            7384         3.07773
            7385         2.82746
            7386         2.86231
            7387         1.66224
            7388         1.69124
            7389         1.84143
            7390         1.81071
            7391         1.85973
            7392         2.67836
            7393         2.68933
            7394         2.67608
            7395         2.83064
            7396         2.86001
            7397         2.90092
            7398         2.91987
            7399         3.15227
            7400         3.22771
            7401         4.03137
            7402         3.94927
            7403         3.96361
            7404         3.80020
            7405         3.88005
            7406         3.86612
            7407         4.08483
            7408         3.91466
            7409         3.99521
            7410         3.82397
            7411         3.83926
            7412         3.68373
            7413         3.74521
            7414         3.81152
            7415         4.27888
            7416         4.51263
            7417         4.26828
            7418         4.46352
            7419         4.23097
            7420         4.47585
            7421         4.19027
            7422         4.42243
            7423         4.43103
            7424         4.22662
            7425         4.31402
            7426         4.10151
            7427         4.41242
            7428         4.46829
            7429         4.42992
            7430         4.21455
            7431         4.16080
            7432         4.19541
            7433         4.38561
            7434         4.40819
            7435         4.13567
            7436         4.62148
            7437         4.88487
            7438         4.57108
            7439         4.63294
            7440         4.68463
            7441         3.47184
            7442         3.56230
            7443         3.70549
            7444         3.59851
            7445         3.50704
            7446         3.50334
            7447         3.34131
            7448         3.29944
            7449         3.28809
            7450         3.44989
            7451         3.49128
            7452         4.20851
            7453         4.02447
            7454         4.13329
            7455         3.89546
            7456         4.07493
            7457         3.96534
            7458         3.76871
            7459         3.70866
            7460         3.83549
            7461         3.63317
            7462         3.68250
            7463         3.56615
            7464         3.51472
            7465         1.83742
            7466         5.39688
            7467         5.15035
            7468         5.47024
            7469         5.46800
            7470         5.72679
            7471         5.39450
            7472         5.95217
            7473         5.85729
            7474         5.82772
            7475         5.56708
            7476         5.59591
            7477         4.95066
            7478         5.32636
            7479         5.05314
            7480         5.39970
            7481         5.02569
            7482         5.29725
            7483         5.66513
            7484         5.63889
            7485         2.12837
            7486         2.13438
            7487         2.21799
            7488         2.22306
            7489         2.21914
            7490         2.13598
            7491         5.85485
            7492         5.93934
            7493         6.14438
            7494         5.93091
            7495         6.39970
            7496         6.18750
            7497         6.40822
            7498         4.82709
            7499         5.06518
            7500         4.81201
            7501         5.13520
            7502         4.90085
            7503         5.37996
            7504         5.25859
            7505         5.59667
            7506         5.27107
            7507         5.47204
            7508         5.80546
            7509         5.82919
            7510         5.78980
            7511         5.46575
            7512         5.58756
            7513         5.80112
            7514         5.24882
            7515         5.03812
            7516         5.24576
            7517         2.69642
            7518         2.77501
            7519         2.67264
            7520         2.61909
            7521         2.54540
            7522         2.64695
            7523         6.16444
            7524         6.38798
            7525         6.16648
            7526         6.05689
            7527         6.05959
            7528         6.63465
            7529         6.40550
            7530         6.63379
            7531         5.79440
            7532         5.89945
            7533         5.69595
            7534         5.70436
            7535         5.60167
            7536         5.81433
            7537         5.81197
            7538         6.05560
            7539         6.06194
            7540         5.72650
            7541         5.82870
            7542         6.05330
            7543         5.73611
            7544         4.80600
            7545         5.53313
            7546         5.68121
            7547         5.65768
            7548         5.71723
            7549         5.73212
            7550         5.76212
            7551         5.71188
            7552         5.72092
            7553         5.73929
            7554         5.71440
            7555         5.68054
            7556         5.65790
            7557         5.48737
            7558         5.57429
            7559         5.50466
            7560         5.52328
            7561         5.43581
            7562         5.53695
            7563         5.58924
            7564         5.54064
            7565         5.59767
            7566         5.62918
            7567         5.67745
            7568         5.62655
            7569         5.63372
            7570         5.08638
            7571         5.14184
            7572         4.96446
            7573         5.07296
            7574         5.01020
            7575         5.19609
            7576         5.05908
            7577         4.94486
            7578         5.13028
            7579         4.71030
            7580         4.44690
            7581         4.64659
            7582         4.41554
            7583         4.69009
            7584         4.48143
            7585     243.239E-03
            7586     409.470E-03
            7587     91.1273E-03
            7588     60.5615E-03
            7589     60.6539E-03
            7590     33.1345E-03
            7591     91.6201E-03
            7592         5.08141
            7593         5.31030
            7594         5.29665
            7595         5.31479
            7596         5.07863
            7597         5.48148
            7598         5.45506
            7599         5.45603
            7600         2.77733
            7601         2.81700
            7602         2.88345
            7603         2.85055
            7604         5.43992
            7605         5.58163
            7606         5.43979
            7607         5.16248
            7608         5.27044
            7609         5.29850
            7610         5.31944
            7611         5.18498
            7612         5.43758
            7613         5.59942
            7614         5.52462
            7615         5.59557
            7616         5.51446
            7617         4.26409
            7618         4.58219
            7619         4.36490
            7620         5.56003
            7621         5.41152
            7622         4.50564
            7623         4.61484
            7624         3.73159
            7625         3.52266
            7626         3.76287
            7627         3.99049
            7628         2.20336
            7629         2.16278
            7630         2.63270
            7631         2.53718
            7632         2.57883
            7633         2.11612
            7634     47.8904E-03
            7635     71.0602E-03
            7636     14.7793E-03
            7637     70.1849E-03
            7638     47.1713E-03
            7639         2.69668
            7640         2.31486
            7641         2.43369
            7642         3.82282
            7643         3.42310
            7644         3.04945
            7645         3.08721
            7646         3.77316
            7647         3.55736
            7648         2.96315
            7649         4.46452
            7650         4.72093
            7651         4.67719
            7652         4.42566
            7653         4.57718
            7654         4.71111
            7655         4.29684
            7656     262.174E-03
            7657     287.689E-03
            7658     356.742E-03
            7659         4.53817
            7660         4.76167
            7661         4.83978
            7662         4.52634
            7663     469.986E-03
            7664     471.370E-03
            7665         3.32661
            7666         3.08699
            7667         3.18402
            7668         3.41864
            7669         3.31042
            7670         5.34858
            7671         4.93911
            7672         5.10941
            7673         4.05750
            7674     963.528E-03
            7675     764.219E-03
            7676         1.04821
            7677         1.00292
            7678         1.20422
            7679     919.868E-03
            7680         2.20467
            7681         2.20910
            7682         2.28483
            7683         2.14666
            7684         2.14534
            7685         2.05871
            7686         2.29587
            7687         2.24276
            7688         2.23253
            7689         2.15376
            7690         2.20350
            7691         2.20989
            7692         1.49345
            7693         1.44622
            7694         1.73304
            7695         1.42147
            7696         1.46788
            7697         1.43953
            7698         1.14709
            7699         1.06486
            7700         1.07293
            7701         1.36205
            7702         1.18845
            7703         1.40072
            7704         1.71010
            7705         1.88228
            7706         1.56295
            7707         2.29910
            7708         2.15933
            7709         1.80134
            7710         2.20725
            7711         5.60478
            7712         6.03267
            7713         5.70575
            7714         5.72534
            7715         5.46029
            7716         5.59379
            7717         5.98524
            7718         5.83912
            7719         6.50160
            7720         6.26133
            7721         6.33015
            7722         6.57136
            7723         6.67782
            7724         6.58048
            7725         6.99799
            7726         4.47182
            7727         4.47022
            7728         5.35235
            7729         5.10715
            7730         5.39482
            7731         5.49629
            7732         5.75546
            7733         5.45282
            7734         6.21691
            7735         6.11222
            7736         6.22746
            7737         5.49996
            7738         5.85932
            7739         5.72239
            7740         5.36504
            7741         4.88090
            7742         5.02728
            7743         5.75874
            7744         4.45558
            7745         4.33702
            7746         4.58890
            7747         4.37210
            7748         4.52801
            7749         4.27787
            7750         4.49101
            7751         3.95533
            7752         3.70081
            7753         3.70413
            7754         3.53201
            7755         3.77192
            7756         3.76798
            7757         3.51680
            7758         3.75469
            7759         3.58299
            7760         4.52765
            7761         4.66844
            7762         3.92348
            7763         3.77788
            7764         3.54607
            7765         3.68131
            7766         4.24493
            7767         4.01062
            7768         4.24285
            7769         4.01763
            7770         4.25479
            7771         4.12242
            7772         4.49816
            7773         2.05216
            7774         1.98412
            7775         1.82167
            7776         1.90222
            7777         3.59472
            7778         3.33077
            7779         3.63603
            7780         4.40376
            7781         4.50144
            7782         2.76293
            7783         2.81936
            7784         2.60333
            7785         2.74880
            7786         2.69536
            7787         2.91712
            7788         2.40619
            7789         2.59286
            7790         2.58027
            7791         2.41079
            7792         2.27343
            7793         2.41647
            7794         2.39794
            7795         2.53891
            7796         2.38988
            7797         2.43333
            7798         2.31265
            7799         2.24942
            7800         2.25688
            7801         2.38842
            7802         2.45308
            7803         2.39087
            7804         2.26052
            7805         2.44940
            7806         3.18237
            7807         3.22231
            7808         4.53005
            7809         4.41578
            7810         4.39180
            7811         4.50365
            7812         4.82557
            7813         4.24888
            7814         4.57542
            7815         4.26638
            7816         2.87897
            7817         3.01975
            7818         2.14676
            7819         2.24924
            7820         2.13470
            7821         2.04743
            7822         2.16156
            7823         1.96283
            7824         1.95643
            7825         2.03753
            7826         1.98461
            7827         3.73415
            7828         3.34551
            7829         3.79344
            7830         4.04112
            7831         3.78806
            7832         2.26182
            7833         2.13818
            7834         2.24607
            7835         1.58967
            7836         1.54564
            7837         1.44072
            7838         1.39415
            7839         1.44006
            7840         1.54551
            7841         2.38146
            7842         11.3584
            7843         2.21517
            7844         2.18523
            7845         2.32965
            7846         2.26495
            7847         2.52889
            7848         2.59534
            7849         2.51385
            7850         2.93651
            7851         3.02835
            7852         3.00077
            7853         2.90947
            7854         2.85838
            7855         1.05540
            7856         4.02858
            7857         2.00616
            7858         2.32008
            7859         2.19496
            7860         2.28086
            7861         2.00695
            7862         1.93872
            7863         1.90569
            7864         1.93758
            7865         1.29139
            7866         1.33086
            7867         1.28657
            7868         1.24812
            7869         1.14587
            7870         2.21844
            7871         2.36679
            7872         2.05929
            7873         2.35667
            7874         2.19270
            7875         2.54592
            7876         1.89831
            7877         1.88741
            7878         1.97896
            7879         2.07628
            7880         2.01303
            7881         1.98834
            7882         1.89156
            7883         1.95976
            7884         1.96034
            7885         2.02424
            7886         2.10779
            7887         2.05497
            7888         2.95920
            7889         3.07192
            7890         2.64544
            7891         2.83678
            7892         2.70429
            7893         3.16283
            7894         2.07571
            7895         2.09546
            7896         2.15961
            7897         2.14030
            7898         2.08401
            7899         3.27420
            7900         3.03527
            7901         3.39877
            7902         3.11818
            7903         3.35441
            7904         2.52075
            7905         2.55461
            7906         2.36586
            7907         2.56223
            7908         2.51415
            7909         2.81058
            7910         2.80454
            7911         2.73045
            7912         2.75648
            7913         2.76268
            7914         2.73805
            7915         2.77339
            7916         2.73162
            7917         2.68337
            7918         2.67961
            7919         2.66848
            7920         2.68403
            7921         2.63374
            7922         2.61157
            7923         2.63017
            7924         2.63202
            7925         2.65260
            7926         2.63533
            7927         2.64130
            7928         2.61449
            7929         2.61829
            7930         2.67133
            7931         2.65772
            7932         2.66680
            7933         2.66690
            7934         2.66055
            7935         2.67034
            7936         2.67930
            7937         2.67008
            7938         2.66555
            7939         2.65846
            7940         2.57402
            7941         2.49120
            7942         2.47754
            7943         2.43053
            7944         2.47589
            7945         2.53086
            7946     398.226E-03
            7947     475.221E-03
            7948     283.693E-03
            7949         2.58735
            7950         2.55241
            7951         2.54660
            7952         2.55316
            7953         2.58927
            7954         2.59468
            7955         2.51646
            7956         2.56024
            7957         2.55340
            7958         2.58310
            7959         2.58463
            7960         2.60777
            7961         2.60586
            7962         2.31475
            7963         2.45201
            7964         2.40102
            7965     521.364E-03
            7966     436.797E-03
            7967         1.31941
            7968         1.40181
            7969         1.13109
            7970         1.07512
            7971         1.44380
            7972         4.23677
            7973         4.43663
            7974         4.64409
            7975         5.05294
            7976         4.83366
            7977         4.63688
            7978         2.69678
            7979         2.71441
            7980         2.71046
            7981     42.9790E-03
            7982     31.7669E-03
            7983     33.7954E-03
            7984     47.7927E-03
            7985     32.7491E-03
            7986     30.0183E-03
            7987         2.66055
            7988         2.64388
            7989         2.64957
            7990         2.64917
            7991         2.66091
            7992         2.69074
            7993         2.66224
            7994         2.65689
            7995         2.66327
            7996         2.66196
            7997         2.67014
            7998         2.69392
            7999         2.68290
            8000         2.65830
            8001         2.68212
            8002         2.66384
            8003         2.67392
            8004         2.63877
            8005         2.61779
            8006         2.61776
            8007         2.61752
            8008         2.69262
            8009         2.69983
            8010         2.69123
            8011         2.69659
            8012         2.69102
            8013         2.69755
            8014         2.70422
            8015         2.71855
            8016         2.71288
            8017         2.71366
            8018         2.70491
            8019         2.72419
            8020         2.72177
            8021         2.51698
            8022         2.54399
            8023         2.54494
            8024         2.50940
            8025         2.54709
            8026         2.78619
            8027         2.78951
            8028         2.76289
            8029         2.73988
            8030         2.74542
            8031         2.74354
            8032         2.71970
            8033         2.71384
            8034         2.72432
            8035         2.72149
            8036         2.76098
            8037         2.76048
            8038         2.74314
            8039         2.76427
            8040         2.71300
            8041         2.70896
            8042         2.73232
            8043         2.71669
            8044         2.69980
            8045         2.80340
            8046         2.78028
            8047         2.81568
            8048         2.77568
            8049         2.79841
            8050         2.79452
            8051         2.76837
            8052         2.77143
            8053         2.76870
            8054         2.80209
            8055         2.80910
            8056         2.77915
            8057         2.75167
            8058         2.77223
            8059         2.74763
            8060         2.84748
            8061         2.83788
            8062         2.85457
            8063         2.84646
            8064         2.85799
            8065         2.79932
            8066         2.79802
            8067         2.79327
            8068         2.77036
            8069         2.77204
            8070         2.77647
            8071     724.065E-03
            8072     626.422E-03
            8073         2.81280
            8074         2.84495
            8075         2.85398
            8076         2.83495
            8077         2.83826
            8078         2.83011
            8079         2.83127
            8080         2.70061
            8081         2.69428
            8082         2.84887
            8083         2.87674
            8084         2.88038
            8085         2.84704
            8086         2.71417
            8087         2.76981
            8088         2.81934
            8089         2.90803
            8090         2.93319
            8091         2.96621
            8092         2.51960
            8093         2.53473
            8094         2.49963
            8095         2.50264
            8096         2.72582
            8097         2.79442
            8098         2.75432
            8099         2.75778
            8100         2.74453
            8101         2.71196
            8102         2.69035
            8103         2.68017
            8104         2.70369
            8105         2.74159
            8106         2.65170
            8107         2.63191
            8108         2.67861
            8109         2.65110
            8110         2.78793
            8111         3.33692
            8112         3.34083
            8113         3.30493
            8114         3.30293
            8115         2.66871
            8116         2.64692
            8117         2.67129
            8118         2.65115
            8119         2.67245
            8120         2.65127
            8121         2.61475
            8122         2.62080
            8123         2.64334
            8124         2.71965
            8125         2.65722
            8126         2.63061
            8127         2.63909
            8128         2.64526
            8129         2.60887
            8130         2.65966
            8131         2.66899
            8132         2.65597
            8133         2.65774
            8134         2.64886
            8135         3.26912
            8136         3.45252
            8137         2.65469
            8138         2.66982
            8139         2.67401
            8140         2.65885
            8141         2.75139
            8142         2.74509
            8143         2.74944
            8144         2.69067
            8145         2.70196
            8146         2.71566
            8147         2.69818
            8148         2.69871
            8149         2.71481
            8150         2.72768
            8151         2.72593
            8152         2.73102
            8153         2.72457
            8154         2.71026
            8155         2.71444
            8156         2.74082
            8157         2.72420
            8158     861.148E-03
            8159     820.002E-03
            8160     842.559E-03
            8161         1.17561
            8162         1.27914
            8163         1.17223
            8164         1.16700
            8165         1.06188
            8166         1.17239
            8167         2.71111
            8168         2.78061
            8169         2.77666
            8170         2.81815
            8171         2.93977
            8172         2.99722
            8173         2.92528
            8174         2.78849
            8175         2.82664
            8176         2.73429
            8177         2.75391
            8178         2.74937
            8179         2.73243
            8180         2.75832
            8181         2.76958
            8182         2.74285
            8183         2.76605
            8184         2.62325
            8185         2.63764
            8186         2.63214
            8187         2.66613
            8188         2.65872
            8189         2.65838
            8190         2.65830
            8191         2.66606
            8192         2.66680
            8193         3.20992
            8194         3.16739
            8195         3.20828
            8196         3.35069
            8197         3.30592
            8198         2.63379
            8199         2.63523
            8200         2.64474
            8201         2.63859
            8202         2.63740
            8203         2.62996
            8204         2.64286
            8205         2.63058
            8206         2.63233
            8207         2.63187
            8208         2.64545
            8209         2.65186
            8210         2.65298
            8211         2.65018
            8212         2.63396
            8213         2.63008
            8214         2.65388
            8215         2.66769
            8216         2.65299
            8217         2.65768
            8218         2.64920
            8219         2.65096
            8220         2.67166
            8221         2.67521
            8222         2.67589
            8223         2.67684
            8224         2.69054
            8225         2.67564
            8226         2.58137
            8227         2.55792
            8228         2.67641
            8229         2.68970
            8230         2.68150
            8231         2.67186
            8232         2.68277
            8233         2.92079
            8234         3.07561
            8235         2.89741
            8236         2.64397
            8237         2.68091
            8238         2.68272
            8239         2.66868
            8240         2.68277
            8241         2.68988
            8242         2.69151
            8243         2.68861
            8244         2.68201
            8245         2.68368
            8246     921.992E-03
            8247     950.180E-03
            8248         1.06030
            8249         1.09603
            8250         1.06216
            8251     950.112E-03
            8252         2.69191
            8253         2.68355
            8254         2.69898
            8255         2.65921
            8256         2.70291
            8257         2.69608
            8258         2.69797
            8259         2.69902
            8260         2.63651
            8261         2.62814
            8262         2.60502
            8263         2.60573
            8264         2.60960
            8265         2.62707
            8266         2.61265
            8267         2.61823
            8268         2.68167
            8269         2.61782
            8270         2.62578
            8271         2.61747
            8272         2.62140
            8273         2.64228
            8274         2.34529
            8275         2.32098
            8276         2.26341
            8277         2.24116
            8278         2.27658
            8279         2.32348
            8280         2.67786
            8281         2.67859
            8282         2.67652
            8283         2.67105
            8284         2.67276
            8285         2.60932
            8286         2.61402
            8287         2.61047
            8288         2.62066
            8289         2.64326
            8290         2.60415
            8291         2.59303
            8292         2.61148
            8293         2.61706
            8294         2.57777
            8295         2.58860
            8296     186.984E-03
            8297         3.16907
            8298         3.06302
            8299         3.04815
            8300         3.53504
            8301         3.58884
            8302         3.42295
            8303         3.43561
            8304         3.38408
            8305         3.54866
            8306         3.26361
            8307         3.27502
            8308     296.577E-03
            8309     220.729E-03
            8310     225.685E-03
            8311     243.617E-03
            8312     318.884E-03
            8313     314.566E-03
            8314         3.03487
            8315         2.95359
            8316         3.07439
            8317         2.96975
            8318         2.93097
            8319         3.28252
            8320         3.18387
            8321         3.15740
            8322         3.14097
            8323         3.23691
            8324         2.99283
            8325         3.10657
            8326         3.29370
            8327         2.89422
            8328         2.84135
            8329         2.92134
            8330         2.68624
            8331         1.76853
            8332         1.77969
            8333         1.70216
            8334         5.41059
            8335         3.13529
            8336         3.18382
            8337         3.07266
            8338         3.10959
            8339         3.22870
            8340         3.02232
            8341         2.98246
            8342         3.01323
            8343         3.05437
            8344         2.94770
            8345         2.93546
            8346         2.89558
            8347         2.98091
            8348         3.33117
            8349     265.540E-03
            8350     137.460E-03
            8351         3.52692
            8352         3.64149
            8353         3.56003
            8354         3.69801
            8355         3.58431
            8356         3.66747
            8357         3.33169
            8358         3.45669
            8359         3.42533
            8360         3.42549
            8361         3.30393
            8362         2.13381
            8363         2.00136
            8364         2.02777
            8365         2.05565
            8366         2.02995
            8367         3.55842
            8368         3.58210
            8369         3.67580
            8370         3.88091
            8371         3.89702
            8372         3.94153
            8373         3.68840
            8374         3.57026
            8375         3.71075
            8376         3.68644
            8377         3.50191
            8378         3.63925
            8379         3.59134
            8380         3.71809
            8381         3.61645
            8382         3.49543
            8383         3.45240
            8384         3.58695
            8385         3.35234
            8386         3.24043
            8387         3.33184
            8388         3.32743
            8389         3.34966
            8390         3.30316
            8391         3.32361
            8392         3.32024
            8393         3.21149
            8394         3.09427
            8395         3.19240
            8396         3.11891
            8397         3.21999
            8398         3.11738
            8399         3.19190
            8400         1.46039
            8401         1.40174
            8402         1.46144
            8403         1.55657
            8404         1.61313
            8405         1.55633
            8406         2.97393
            8407         3.16760
            8408         3.42405
            8409         3.27642
            8410         3.45439
            8411         3.58709
            8412         3.64679
            8413         3.04706
            8414         3.80007
            8415         3.66070
            8416         3.79655
            8417         2.61894
            8418         2.62012
            8419         2.68108
            8420         2.55146
            8421         2.54944
            8422         2.49891
            8423         3.21698
            8424         3.64255
            8425         3.69888
            8426         3.85032
            8427         3.80881
            8428         3.27202
            8429         2.92239
            8430         2.57249
            8431         2.57342
            8432         2.59660
            8433         2.61354
            8434         2.59899
            8435         2.60047
            8436         2.59831
            8437         2.58285
            8438         2.58618
            8439         2.58433
            8440         2.57175
            8441         2.56870
            8442         2.57025
            8443         2.58757
            8444         2.58487
            8445         2.56895
            8446         2.62379
            8447         2.61734
            8448         2.62185
            8449         2.61183
            8450         2.61948
            8451         2.59999
            8452         2.59686
            8453         2.59519
            8454         2.59962
            8455         2.59929
            8456         2.59612
            8457         2.59769
            8458         2.59430
            8459         2.60708
            8460         2.61021
            8461         2.61622
            8462         2.64243
            8463         2.62203
            8464         2.61012
            8465         2.61494
            8466         2.59653
            8467         2.59497
            8468         2.62543
            8469         2.62932
            8470         2.61625
            8471         2.61661
            8472         2.62088
            8473         3.13467
            8474         3.28399
            8475         3.27285
            8476         2.64651
            8477         2.64020
            8478         2.63569
            8479         2.65639
            8480         2.65400
            8481         2.63345
            8482         2.65167
            8483         2.61256
            8484         2.62047
            8485         2.63200
            8486         2.62473
            8487         2.61079
            8488         2.59073
            8489         2.60686
            8490         2.60720
            8491         2.60631
            8492         2.60917
            8493         2.60733
            8494         2.61547
            8495         2.60651
            8496         2.60762
            8497         2.59501
            8498         2.59827
            8499         2.59577
            8500         2.61026
            8501     22.4116E-03
            8502         2.58852
            8503         2.58341
            8504         2.57339
            8505         2.57599
            8506         2.60880
            8507         2.60201
            8508         2.65782
            8509         2.66109
            8510         2.60871
            8511         2.59752
            8512         2.61221
            8513         2.79820
            8514         2.80517
            8515         2.81158
            8516         2.80556
            8517         2.81230
            8518         2.86435
            8519         2.78975
            8520         2.78745
            8521         2.86380
            8522         2.84611
            8523         2.94313
            8524         2.95930
            8525         2.94624
            8526         2.86430
            8527         2.70548
            8528         2.72608
            8529         2.70431
            8530         2.72409
            8531         2.67393
            8532         2.69480
            8533         2.67477
            8534         2.96507
            8535         2.96327
            8536         3.05258
            8537         2.69021
            8538         2.66532
            8539         2.64914
            8540         2.71118
            8541         2.00651
            8542         1.95864
            8543         1.88078
            8544         1.82067
            8545         1.87502
            8546         1.96105
            8547         1.30810
            8548         1.24450
            8549         1.16294
            8550         1.09807
            8551         1.16450
            8552         1.24549
            8553         2.69034
            8554         4.25228
            8555         4.49995
            8556         4.27567
            8557         4.29148
            8558         4.05886
            8559         4.26852
            8560         3.07710
            8561         3.00881
            8562         3.27678
            8563         3.10167
            8564         3.21131
            8565         3.31708
            8566         3.39555
            8567         3.52615
            8568         3.26541
            8569         1.11020
            8570         2.94969
            8571         3.05859
            8572     798.232E-03
            8573     806.927E-03
            8574     799.868E-03
            8575     671.482E-03
            8576     671.396E-03
            8577     670.553E-03
            8578         4.84086
            8579         4.83005
            8580         4.37304
            8581         4.34980
            8582         4.36688
            8583         3.99233
            8584         3.97791
            8585         4.18161
            8586         4.09129
            8587         3.93869
            8588         3.89254
            8589         3.96198
            8590         4.11711
            8591         4.16321
            8592         3.51578
            8593         3.60352
            8594         3.61727
            8595         3.75734
            8596         3.74505
            8597         3.73762
            8598         3.42193
            8599         3.32858
            8600         4.32690
            8601         4.29909
            8602         3.31694
            8603         3.27419
            8604         2.48762
            8605         2.54680
            8606         2.53887
            8607         2.60096
            8608         2.52676
            8609         2.53566
            8610         2.57978
            8611         2.51988
            8612         2.60761
            8613         2.60013
            8614         2.49852
            8615         2.42853
            8616         2.49819
            8617         2.38461
            8618         2.45096
            8619         2.50572
            8620         2.57439
            8621         2.50258
            8622         2.44216
            8623         1.98985
            8624         2.00975
            8625         1.98212
            8626         2.37170
            8627         2.43379
            8628         2.36554
            8629         2.43430
            8630         2.56998
            8631         2.58706
            8632         2.68706
            8633         2.56648
            8634         2.52704
            8635         2.93221
            8636         3.16139
            8637         3.01739
            8638         2.85802
            8639         2.99879
            8640         2.94199
            8641         3.06166
            8642         2.99924
            8643         2.88870
            8644         2.98421
            8645         2.89788
            8646         3.05442
            8647         2.88479
            8648         2.82116
            8649         3.09111
            8650         3.09188
            8651         3.15276
            8652         2.98187
            8653         2.93032
            8654         1.59008
            8655         1.57579
            8656         1.49209
            8657         1.55357
            8658         3.36249
            8659         3.28772
            8660         3.34001
            8661         2.10906
            8662         2.21223
            8663         2.20528
            8664         2.36039
            8665         2.26468
            8666         2.26475
            8667         2.97746
            8668         3.04660
            8669         7.50011
            8670         7.44481
            8671         7.54666
            8672         7.04556
            8673         7.08754
            8674         2.84436
            8675         2.06046
            8676         2.09409
            8677         2.26420
            8678         2.32837
            8679         2.26668
            8680         2.31585
            8681         2.25382
            8682         2.32064
            8683         1.78058
            8684         1.78177
            8685         2.18069
            8686         2.22450
            8687         2.17575
            8688         2.41512
            8689         2.48053
            8690         2.41283
            8691         2.39873
            8692         2.34243
            8693         2.40130
            8694         2.38777
            8695         2.37352
            8696         2.36690
            8697         2.22810
            8698         2.33520
            8699         2.23448
            8700         2.27079
            8701         2.17500
            8702         2.26386
            8703         2.60524
            8704         2.56317
            8705         2.52471
            8706         2.46148
            8707         2.49296
            8708         2.53250
            8709         2.67023
            8710         2.63316
            8711         2.58923
            8712         2.76417
            8713         2.69513
            8714         2.68084
            8715         2.75014
            8716         2.72843
            8717         2.41611
            8718         2.44810
            8719         2.32326
            8720         2.21040
            8721         2.32966
            8722         2.31623
            8723         2.30952
            8724         2.30419
            8725         2.31791
            8726         2.57253
            8727         2.49605
            8728         2.26698
            8729         2.20953
            8730         2.22930
            8731         2.28320
            8732         2.77247
            8733         3.96584
            8734         3.61187
            8735         3.58665
            8736         3.55473
            8737         3.45640
            8738         3.49927
            8739         3.51159
            8740         3.72692
            8741         3.81382
            8742         3.72558
            8743         3.54541
            8744         3.41319
            8745         3.60268
            8746         3.76536
            8747         3.94029
            8748         4.02885
            8749         3.83021
            8750         3.63945
            8751         3.57001
            8752         3.31015
            8753         3.24156
            8754         3.14436
            8755         3.19922
            8756         3.09863
            8757         2.79642
            8758         4.63649
            8759         4.19853
            8760         4.24938
            8761         4.02588
            8762         4.43545
            8763         4.40330
            8764         3.74413
            8765         3.85416
            8766         4.11550
            8767         3.72810
            8768         3.33557
            8769         4.34727
            8770         4.40819
            8771         5.95532
            8772         5.78532
            8773         5.81852
            8774         5.63550
            8775         5.82873
            8776         6.01853
            8777         6.02639
            8778         5.83323
            8779         5.64609
            8780         2.10211
            8781         2.09619
            8782         2.01225
            8783         2.10314
            8784         2.01964
            8785         5.44789
            8786         5.64867
            8787         5.67631
            8788         5.48019
            8789         5.49139
            8790         5.98378
            8791         6.07540
            8792         6.22128
            8793         6.17279
            8794         6.08867
            8795         6.33390
            8796         6.32524
            8797         6.08504
            8798         6.35304
            8799         6.08419
            8800         6.02044
            8801         6.08332
            8802         6.04810
            8803         6.00930
            8804         5.94256
            8805         5.94927
            8806         6.02935
            8807         1.23964
            8808         1.36119
            8809         1.40675
            8810         1.36877
            8811         4.88685
            8812         5.78634
            8813         5.86803
            8814         5.75882
            8815         5.80855
            8816         5.97202
            8817         5.60203
            8818         5.63086
            8819         5.66243
            8820         5.52697
            8821         5.52749
            8822         5.66203
            8823         5.59190
            8824         5.73570
            8825         5.74857
            8826         5.73387
            8827         1.33986
            8828         1.45820
            8829         1.43440
            8830         1.54731
            8831         1.42832
            8832         5.53532
            8833         5.38957
            8834         5.44806
            8835         5.35284
            8836         5.50548
            8837         5.44361
            8838         5.41020
            8839         5.47669
            8840         5.47130
            8841         5.69304
            8842         5.68183
            8843         7.99833
            8844         8.87148
            8845         8.37070
            8846         8.59705
            8847         7.89177
            8848         8.29398
            8849         5.65451
            8850         5.66871
            8851         5.73156
            8852         5.72822
            8853         5.73020
            8854         5.67047
            8855         5.69005
            8856         5.70895
            8857         5.69674
            8858         5.62834
            8859         5.64799
            8860         5.73376
            8861         5.77358
            8862         2.86698
            8863         5.51038
            8864         5.53111
            8865         5.42222
            8866         5.57832
            8867         5.69828
            8868         5.36473
            8869         5.34730
            8870         5.27392
            8871         5.33945
            8872         5.34577
            8873         5.38146
            8874         5.34982
            8875         5.44650
            8876         5.38213
            8877         5.28544
            8878         5.75292
            8879         5.87934
            8880         5.85565
            8881         5.94987
            8882         5.81308
            8883         5.82991
            8884         5.81020
            8885         5.78556
            8886         5.92212
            8887         2.84531
            8888         5.54028
            8889         5.66694
            8890         5.60712
            8891         5.66480
            8892         5.54628
            8893         5.60154
            8894         5.32541
            8895         5.49085
            8896         5.21706
            8897         5.10022
            8898         5.38666
            8899         5.79527
            8900         5.70330
            8901         5.45028
            8902         5.62577
            8903         5.75188
            8904         6.05886
            8905         5.70097
            8906         6.02596
            8907         6.40717
            8908         6.21207
            8909         6.46744
            8910         6.02130
            8911         6.23518
            8912         6.06932
            8913         5.84337
            8914         2.73464
            8915         3.04816
            8916         2.80391
            8917         3.57339
            8918         3.20452
            8919         3.46045
            8920         4.86260
            8921     17.3719E-03
            8922     100.453E-03
            8923         3.91051
            8924         3.82198
            8925         4.26023
            8926         3.62510
            8927         3.71845
            8928         3.30382
            8929         5.07351
            8930         5.09189
            8931         4.39591
            8932         4.78639
            8933         5.45515
            8934         3.03704
            8935         3.66069
            8936         3.23221
            8937         4.19488
            8938         3.44536
            8939         3.66583
            8940         4.18840
            8941         5.57237
            8942         1.37539
            8943         1.31382
            8944         1.29515
            8945         5.97978
            8946         6.13485
            8947         5.87003
            8948         6.22752
            8949         6.39955
            8950         6.33071
            8951         6.52575
            8952         6.34660
            8953         6.41317
            8954         5.94038
            8955         2.51224
            8956         6.57923
            8957         6.80489
            8958         6.31319
            8959         6.51458
            8960         6.83168
            8961         5.94752
            8962         6.26553
            8963         6.16319
            8964         6.30956
            8965         6.19890
            8966         6.04949
            8967         5.82222
            8968         5.66087
            8969         5.50531
            8970         5.90373
            8971         6.04304
            8972         5.85803
            8973         6.08827
            8974         6.13159
            8975     16.6963E-03
            8976     63.0830E-03
            8977     59.8458E-03
            8978     15.3899E-03
            8979         7.13418
            8980         7.19183
            8981         7.76398
            8982         7.72678
            8983         7.65497
            8984         7.19990
            8985         6.19179
            8986         6.28229
            8987         5.99673
            8988         2.59278
            8989         2.59703
            8990         2.57600
            8991         6.90363
            8992         6.60547
            8993         5.76679
            8994         6.70059
            8995         6.44168
            8996         6.73745
            8997         6.72878
            8998         7.00240
            8999         6.69801
            9000         7.30740
            9001         7.45746
            9002         7.13386
            9003         7.95574
            9004         7.70360
            9005         8.09061
            9006         7.32951
            9007         7.13074
            9008         6.65007
            9009         6.41021
            9010         6.39396
            9011         7.08003
            9012         6.79995
            9013         6.99061
            9014         7.18337
            9015         7.35562
            9016         7.16182
            9017         6.83595
            9018         6.63296
            9019         6.89874
            9020         7.73294
            9021         7.60382
            9022         8.27067
            9023         7.60259
            9024         7.82417
            9025     400.636E-03
            9026     399.942E-03
            9027     299.877E-03
            9028     294.896E-03
            9029     397.613E-03
            9030         6.57910
            9031         6.88792
            9032         6.55624
            9033         6.67234
            9034         6.69391
            9035         6.89365
            9036         6.54576
            9037         6.87755
            9038         6.01002
            9039         6.01228
            9040         6.01368
            9041         6.16057
            9042         6.20970
            9043         6.15618
            9044         6.15769
            9045         5.76031
            9046         5.69516
            9047         5.90162
            9048         5.86596
            9049         6.61123
            9050         6.36955
            9051         6.41987
            9052         6.15477
            9053         6.60774
            9054         6.54774
            9055         6.43951
            9056         6.84316
            9057         6.52670
            9058         5.69543
            9059         5.70366
            9060         5.65624
            9061         5.68987
            9062         5.59668
            9063         6.71997
            9064         6.30503
            9065         6.81091
            9066         5.46063
            9067         5.77351
            9068         5.85973
            9069         5.90425
            9070         5.80279
            9071         5.62340
            9072         5.66666
            9073         5.64542
            9074         6.04547
            9075         5.96617
            9076         5.91647
            9077         5.92121
            9078         6.04874
            9079         5.98241
            9080         5.84400
            9081         5.98307
            9082         5.82934
            9083         5.81896
            9084         6.21020
            9085         6.16775
            9086         6.20385
            9087         6.17031
            9088         6.22418
            9089         6.26229
            9090         6.34162
            9091         6.55506
            9092         6.58290
            9093         5.74707
            9094         6.21197
            9095         6.21232
            9096         6.60003
            9097         6.55047
            9098         5.92114
            9099         6.13223
            9100         6.02551
            9101         6.65603
            9102         6.42072
            9103         6.97075
            9104         7.00578
            9105         7.14449
            9106         7.50527
            9107         5.59011
            9108         5.94235
            9109         5.93753
            9110         6.41749
            9111         6.17693
            9112         5.89090
            9113         5.80742
            9114         5.81150
            9115         5.69678
            9116         5.66016
            9117         5.53207
            9118         5.56462
            9119         5.71072
            9120         5.65454
            9121         5.81435
            9122         5.57909
            9123         5.87565
            9124         5.79049
            9125         6.80401
            9126         2.81074
            9127         2.94744
            9128         5.58110
            9129         6.20199
            9130         1.88583
            9131         1.88566
            9132         1.86599
            9133         1.99272
            9134         2.00145
            9135         4.95863
            9136         4.81097
            9137         5.05507
            9138         5.15411
            9139         5.12646
            9140         4.71560
            9141         5.09620
            9142         4.73279
            9143         5.63208
            9144         5.44277
            9145         5.72965
            9146         5.58725
            9147         5.78188
            9148         5.51333
            9149         5.37704
            9150         5.52046
            9151         5.51278
            9152         5.40049
            9153         5.30159
            9154         5.45126
            9155         4.96378
            9156         4.92125
            9157         5.84315
            9158         5.89148
            9159         6.41458
            9160         5.01783
            9161         5.36352
            9162         5.25578
            9163         5.39393
            9164         6.28110
            9165         6.54363
            9166         5.85387
            9167         7.00802
            9168         5.72667
            9169         5.11665
            9170         5.61394
            9171         5.69393
            9172         6.34236
            9173         5.68413
            9174     954.238E-03
            9175     330.272E-03
            9176     500.670E-03
            9177     323.641E-03
            9178     914.612E-03
            9179     747.046E-03
            9180         1.45004
            9181         1.79445
            9182         1.43103
            9183         2.41382
            9184         2.06184
            9185         2.48648
            9186         1.12740
            9187         1.40447
            9188         1.19930
            9189     955.489E-03
            9190     697.904E-03
            9191     538.643E-03
            9192     804.623E-03
            9193         1.39203
            9194         1.43334
            9195         3.19202
            9196         3.12401
            9197         1.22594
            9198         1.25640
            9199         3.02914
            9200         3.17715
            9201         2.46340
            9202         2.42271
            9203         2.47476
            9204         3.14181
            9205         3.15181
            9206         3.15897
            9207     706.624E-03
            9208         1.55956
            9209         1.19529
            9210     706.061E-03
            9211     338.308E-03
            9212     410.598E-03
            9213     373.971E-03
            9214     228.626E-03
            9215     246.750E-03
            9216     417.413E-03
            9217     399.458E-03
            9218     364.261E-03
            9219     71.0668E-03
            9220     128.172E-03
            9221     139.736E-03
            9222     33.7674E-03
            9223     101.466E-03
            9224     79.6995E-03
            9225     60.6968E-03
            9226     37.1591E-03
            9227     34.9891E-03
            9228     505.290E-03
            9229     308.051E-03
            9230     325.637E-03
            9231     197.366E-03
            9232     378.718E-03
            9233     258.013E-03
            9234     39.0437E-03
            9235     56.1350E-03
            9236     111.547E-03
            9237     127.288E-03
            9238     36.7856E-03
            9239     30.3516E-03
            9240     33.8665E-03
            9241     60.5167E-03
            9242         8.33365
            9243         13.1985
            9244         14.9014
            9245         16.9424
            9246         10.2505
            9247         8.75434
            9248     792.365E-03
            9249     819.587E-03
            9250     528.355E-03
            9251     768.048E-03
            9252         7.37042
            9253         8.57524
            9254         6.93387
            9255         8.30835
            9256         7.29352
            9257     962.058E-03
            9258     667.103E-03
            9259     840.865E-03
            9260     709.717E-03
            9261     788.426E-03
            9262     626.403E-03
            9263     484.957E-03
            9264     213.680E-03
            9265     108.913E-03
            9266     348.380E-03
            9267     604.335E-03
            9268     897.769E-03
            9269         1.68287
            9270         1.14735
            9271         1.14305
            9272         1.36619
            9273         1.05174
            9274         1.06410
            9275         1.39227
            9276     989.952E-03
            9277         1.17937
            9278     986.522E-03
            9279     993.579E-03
            9280     485.855E-03
            9281         13.4849
            9282         14.4628
            9283         12.7998
            9284         21.5297
            9285         19.0215
            9286         22.5571
            9287     816.783E-03
            9288     901.499E-03
            9289     673.709E-03
            9290     685.345E-03
            9291         1.16394
            9292         2.06679
            9293         1.87681
            9294         2.04210
            9295         1.77726
            9296         2.40548
            9297         3.42899
            9298         3.55590
            9299         3.21958
            9300         3.21318
            9301         3.58615
            9302         3.55380
            9303         3.93403
            9304         3.68768
            9305         3.66846
            9306         3.45414
            9307         6.78710
            9308         6.78731
            9309         7.04561
            9310         8.82488
            9311         11.3330
            9312         9.62766
            9313         8.81605
            9314         6.89700
            9315         7.40745
            9316         7.39476
            9317         7.47614
            9318         6.97689
            9319         6.98901
            9320         2.60938
            9321         7.43744
            9322         7.58354
            9323         7.18666
            9324         7.04531
            9325         7.58342
            9326         5.47997
            9327         6.58791
            9328         6.59303
            9329         6.52142
            9330         6.51673
            9331         6.50304
            9332         6.18700
            9333         5.93816
            9334         1.67812
            9335         1.73258
            9336         4.01680
            9337         4.27339
            9338         4.28167
            9339         4.08267
            9340         4.02671
            9341         4.91033
            9342         6.03886
            9343         4.72235
            9344         4.81573
            9345         4.57037
            9346         4.79911
            9347         4.81083
            9348         4.83092
            9349         4.59629
            9350         4.57558
            9351         5.04654
            9352         4.81966
            9353         4.83493
            9354         5.53719
            9355         5.53128
            9356         5.67772
            9357         5.48772
            9358         5.50408
            9359         5.49010
            9360         5.01120
            9361         5.69554
            9362         5.64442
            9363         5.64687
            9364         5.68575
            9365         5.73362
            9366         5.73196
            9367         6.79296
            9368         7.01210
            9369         7.01792
            9370         5.92310
            9371         4.46080
            9372         4.46853
            9373         4.54533
            9374         6.62989
            9375         6.92051
            9376         6.56960
            9377         5.96993
            9378         5.09721
            9379         4.68229
            9380         4.97297
            9381         1.63129
            9382         1.48869
            9383         1.52273
            9384         3.61572
            9385         3.62742
            9386         3.49601
            9387         3.31138
            9388         2.53084
            9389         2.97379
            9390         2.90062
            9391         3.38171
            9392         2.89101
            9393         2.66436
            9394         2.90850
            9395         3.44733
            9396         3.34835
            9397         4.31625
            9398         4.72858
            9399         4.56777
            9400         4.30909
            9401         3.97698
            9402         4.08803
            9403         4.35637
            9404         1.93904
            9405         1.84562
            9406         2.64485
            9407         2.67972
            9408         3.04460
            9409         4.10711
            9410         4.46345
            9411         4.75584
            9412         5.73024
            9413         5.73692
            9414         5.70886
            9415         2.42759
            9416         2.30261
            9417         2.30508
            9418         2.42274
            9419         2.25152
            9420         4.08307
            9421         4.63571
            9422         4.57167
            9423         3.89983
            9424         4.07291
            9425         3.97474
            9426         1.87487
            9427         1.90543
            9428         1.89822
            9429         2.29403
            9430         2.49229
            9431         2.44271
            9432         2.82523
            9433         2.45203
            9434         2.82796
            9435         2.41828
            9436         2.78942
            9437         2.11784
            9438         3.39600
            9439         2.23472
            9440         2.22725
            9441         2.69441
            9442         2.71546
            9443         3.96771
            9444         4.16418
            9445         4.25476
            9446         3.74717
            9447         3.52854
            9448         3.48199
            9449         3.56686
            9450         3.32940
            9451         3.88166
            9452         4.68732
            9453         4.73312
            9454         4.31157
            9455         4.20117
            9456         4.13923
            9457         4.31311
            9458         3.07447
            9459         3.74598
            9460         4.83946
            9461         4.90168
            9462         5.16912
            9463         5.13973
            9464         5.06292
            9465         5.72148
            9466         5.40251
            9467         5.77738
            9468         5.21365
            9469         5.46461
            9470         5.86428
            9471         6.22305
            9472         6.47442
            9473         6.35903
            9474         6.07754
            9475         5.66883
            9476         5.60001
            9477         5.38886
            9478         6.45775
            9479         6.08542
            9480         6.64408
            9481         5.78855
            9482         5.79534
            9483         5.85155
            9484         5.94068
            9485         7.06351
            9486         5.48037
            9487         5.34319
            9488         5.80278
            9489         6.09615
            9490         5.88002
            9491         6.05631
            9492         5.78983
            9493         5.92874
            9494         5.78705
            9495         6.61203
            9496         6.58770
            9497         6.82026
            9498         6.95469
            9499         6.70977
            9500         6.77754
            9501         6.44232
            9502         6.67555
            9503         7.49395
            9504         7.30737
            9505         6.99621
            9506         6.73523
            9507         6.88011
            9508         4.82145
            9509         4.91971
            9510         5.13006
            9511         6.22719
            9512         6.41285
            9513         6.12436
            9514         6.14368
            9515         6.31128
            9516         5.72240
            9517         5.72325
            9518         5.68939
            9519         5.68707
            9520         6.15932
            9521         6.00875
            9522         6.26518
            9523         6.16588
            9524         5.68268
            9525         7.31260
            9526         7.35951
            9527         7.27015
            9528         7.90373
            9529         7.85646
            9530         7.92498
            9531         7.48423
            9532         8.07234
            9533         6.63158
            9534         6.93299
            9535         6.50357
            9536         6.93198
            9537         6.41275
            9538         7.74516
            9539         7.78616
            9540         8.14538
            9541         8.19274
            9542         7.52100
            9543         7.12357
            9544         7.62921
            9545         8.70605
            9546         8.74911
            9547         9.40084
            9548         8.47493
            9549         8.16232
            9550         8.35833
            9551         7.12049
            9552         7.30103
            9553         8.50880
            9554         8.62508
            9555         9.20715
            9556         8.74426
            9557         8.08218
            9558         7.97241
            9559         1.92777
            9560         8.52717
            9561         8.52482
            9562         9.03322
            9563         8.39021
            9564         7.91272
            9565         6.46939
            9566         7.53073
            9567         8.11512
            9568         7.59736
            9569         6.36292
            9570         6.82159
            9571         7.50306
            9572         7.44566
            9573         5.47221
            9574         5.57397
            9575         5.52880
            9576         5.51191
            9577         5.40094
            9578         5.45324
            9579         6.17631
            9580         6.54168
            9581         1.47691
            9582         4.62421
            9583         4.84499
            9584         5.35729
            9585         3.98790
            9586         1.52822
            9587         1.66329
            9588         5.40395
            9589         5.07273
            9590         5.01624
            9591         6.38448
            9592         6.31618
            9593         6.87660
            9594         4.76730
            9595         4.94835
            9596         5.33017
            9597         5.92186
            9598         7.61095
            9599         7.80763
            9600         7.61346
            9601         7.80617
            9602         7.61258
            9603         8.18376
            9604         6.22362
            9605         6.03294
            9606         5.63003
            9607         5.22571
            9608         5.96070
            9609         6.87491
            9610         6.87610
            9611         6.57252
            9612         6.38135
            9613         7.74538
            9614         7.89992
            9615         8.28016
            9616         7.89897
            9617         7.74602
            9618         5.43356
            9619         5.38880
            9620         5.48467
            9621         7.08474
            9622         6.66109
            9623         7.08693
            9624         7.20014
            9625         7.64896
            9626         7.19757
            9627         6.70124
            9628         6.69535
            9629         7.06203
            9630         7.54421
            9631         7.86322
            9632         7.54348
            9633         7.36537
            9634         7.33423
            9635         8.20357
            9636         8.08084
            9637         8.66016
            9638         8.08023
            9639         8.20015
            9640         6.12077
            9641         6.30852
            9642         6.44227
            9643         6.27955
            9644         6.09523
            9645         6.56409
            9646         6.53601
            9647         6.99467
            9648         7.02570
            9649         6.67834
            9650         6.89350
            9651         6.19965
            9652         6.47148
            9653         6.50427
            9654         4.64384
            9655         4.63303
            9656         4.68563
            9657         4.42806
            9658         4.43812
            9659         4.38660
            9660         4.93954
            9661         4.89268
            9662         5.21434
            9663         4.93192
            9664         5.21024
            9665         4.84762
            9666         5.05017
            9667         4.89177
            9668         5.25883
            9669         5.79993
            9670         5.69675
            9671         5.83272
            9672         2.40937
            9673         2.54865
            9674         2.21617
            9675         4.53552
            9676         4.76300
            9677         4.52606
            9678         5.14216
            9679         4.26896
            9680         4.02652
            9681         4.09156
            9682         5.57198
            9683         4.76419
            9684         4.78528
            9685         3.57491
            9686         3.52802
            9687         3.59394
            9688         3.59803
            9689         3.64065
            9690         5.31291
            9691         5.24006
            9692         5.35378
            9693         5.42011
            9694         5.27743
            9695         4.10316
            9696         3.90940
            9697         3.84809
            9698         3.85534
            9699         4.05770
            9700         4.11309
            9701         4.18180
            9702         4.11754
            9703         3.92381
            9704         2.72851
            9705         5.23206
            9706         2.70083
            9707         2.78195
            9708         2.74527
            9709         2.61909
            9710         2.66701
            9711         3.95516
            9712         4.40835
            9713         4.08804
            9714         2.46454
            9715         2.53525
            9716         2.35594
            9717         2.50256
            9718         2.43500
            9719         2.55876
            9720         1.98846
            9721         2.11611
            9722         1.98839
            9723         2.06308
            9724         2.26147
            9725         2.23317
            9726         2.22292
            9727         2.24776
            9728         2.26056
            9729         2.13012
            9730         2.18829
            9731         1.96683
            9732         1.96829
            9733         2.04032
            9734         1.96068
            9735         2.23814
            9736         2.10802
            9737         3.09772
            9738         2.92577
            9739         2.96435
            9740         3.13233
            9741         3.14824
            9742         2.97113
            9743         2.76342
            9744         2.48502
            9745         2.51554
            9746         1.88910
            9747         1.98471
            9748         1.90457
            9749         1.96294
            9750         1.99514
            9751         1.98517
            9752         1.96594
            9753         1.98027
            9754         1.98673
            9755         1.96367
            9756         1.99508
            9757         2.00799
            9758         2.04165
            9759         2.03577
            9760         2.00438
            9761         2.01602
            9762         2.21982
            9763         2.22410
            9764         2.16611
            9765         2.16780
            9766         2.14268
            9767         3.62577
            9768         3.33290
            9769         1.96713
            9770         1.96238
            9771         1.95714
            9772         2.09061
            9773         1.92869
            9774         1.93741
            9775         2.62573
            9776         2.02656
            9777         2.10223
            9778         2.09265
            9779         2.10289
            9780         2.17291
            9781         1.90110
            9782         1.87143
            9783         1.74915
            9784         1.75320
            9785         1.90603
            9786         1.90327
            9787         1.91649
            9788         1.93676
            9789         2.10073
            9790         2.08106
            9791         2.02033
            9792         2.71878
            9793         2.01793
            9794         1.99992
            9795         1.99384
            9796         3.15975
            9797         2.71261
            9798         2.68680
            9799         2.84888
            9800         2.85680
            9801         2.88971
            9802         2.72482
            9803         3.03589
            9804         3.32908
            9805         3.18874
            9806         3.44111
            9807         3.63153
            9808         3.37319
            9809         3.45302
            9810         3.30947
            9811         3.17953
            9812         3.01626
            9813         2.99524
            9814         3.03705
            9815         3.02296
            9816         2.97838
            9817         7.09684
            9818         6.66827
            9819         6.72352
            9820         4.67144
            9821         5.12356
            9822         2.81525
            9823         2.86574
            9824         2.80950
            9825         2.76199
            9826         2.76367
            9827         3.46904
            9828         5.24182
            9829         4.90534
            9830         4.99276
            9831         4.99701
            9832         4.91141
            9833         4.73730
            9834         5.04434
            9835         4.74085
            9836         4.91767
            9837         5.11109
            9838         4.18222
            9839         4.73626
            9840         5.65093
            9841         5.63922
            9842         5.61392
            9843         5.67948
            9844         5.62906
            9845         1.76025
            9846         5.71831
            9847         5.65403
            9848         5.63175
            9849         5.07197
            9850         5.08641
            9851         5.33015
            9852         5.38846
            9853         5.12332
            9854         5.64526
            9855         5.11621
            9856         4.80956
            9857         5.09854
            9858         5.12169
            9859         5.13961
            9860         4.49176
            9861         4.38294
            9862         4.54018
            9863         4.64935
            9864         5.45830
            9865         5.23070
            9866         4.96091
            9867         5.84894
            9868         5.60394
            9869         5.57159
            9870         5.63467
            9871         6.31014
            9872         6.12447
            9873         5.86302
            9874         5.95776
            9875         5.68235
            9876         6.14049
            9877         6.14140
            9878         1.76932
            9879         1.63320
            9880         6.77484
            9881         6.54802
            9882         6.54572
            9883         6.35711
            9884         6.35976
            9885         3.07847
            9886         3.21913
            9887         3.26721
            9888         3.21901
            9889         3.07906
            9890         6.14974
            9891         5.96301
            9892         5.77086
            9893         5.77267
            9894         6.15247
            9895         2.60008
            9896         2.46259
            9897         2.52663
            9898         2.81552
            9899         2.81342
            9900         2.76646
            9901         2.73612
            9902         2.76963
            9903         2.83949
            9904         2.74807
            9905         2.81029
            9906         2.62394
            9907         2.67341
            9908         2.67091
            9909         2.78808
            9910         2.70777
            9911         5.70234
            9912         5.70880
            9913         2.72128
            9914         2.69240
            9915         2.75438
            9916         3.05573
            9917         3.01383
            9918         2.90166
            9919         2.89992
            9920         2.94227
            9921         2.76826
            9922         2.88234
            9923         2.81584
            9924         2.81301
            9925         2.81263
            9926         5.51671
            9927         5.28414
            9928         4.85263
            9929         5.35014
            9930         2.74839
            9931         3.15432
            9932         3.06247
            9933         3.04738
            9934         2.97579
            9935         3.05516
            9936         3.07045
            9937         3.26969
            9938         3.42383
            9939         3.28343
            9940         3.42011
            9941         3.26451
            9942         3.41255
            9943         3.22818
            9944         3.10310
            9945         3.23212
            9946         2.46201
            9947         2.41256
            9948         2.09373
            9949         3.20613
            9950         3.08415
            9951         3.00925
            9952         2.98789
            9953         2.92309
            9954         3.01855
            9955         3.10359
            9956         3.14603
            9957         3.09400
            9958         2.83189
            9959         3.03868
            9960         2.95786
            9961         2.93316
            9962         3.01214
            9963         2.92120
            9964         2.86934
            9965         2.34817
            9966         2.45345
            9967         2.44812
            9968         2.32932
            9969         2.32259
            9970         2.87673
            9971         2.86410
            9972         2.57197
            9973         2.95931
            9974         2.64137
            9975         2.61507
            9976         2.60763
            9977         2.63110
            9978         2.59244
            9979         2.54219
            9980         2.57998
            9981         2.55727
            9982         2.57611
            9983         2.55349
            9984         2.57638
            9985         2.55815
            9986         2.57938
            9987         2.60002
            9988         2.60979
            9989         2.60142
            9990         2.63032
            9991         2.62924
            9992         2.62241
            9993         2.54393
            9994         2.52106
            9995         2.57645
            9996         2.57661
            9997         2.50009
            9998         2.47337
            9999         2.47658
           10000         2.53708
           10001         2.54949
           10002         2.54725
           10003         2.52722
           10004         2.57613
           10005         2.61421
           10006         2.61252
           10007         2.73767
           10008         2.67473
           10009         2.65310
           10010         2.62218
           10011         2.65191
           10012         2.71799
           10013         2.82148
           10014         2.67061
           10015         2.63336
           10016         2.53868
           10017         5.71314
           10018         2.55987
           10019         2.59854
           10020         2.57567
           10021         2.54066
           10022         2.53797
           10023         2.65397
           10024         2.61900
           10025     876.981E-03
           10026         1.28912
           10027         1.18310
           10028         1.27102
           10029     864.682E-03
           10030     968.838E-03
           10031         2.81313
           10032         2.74106
           10033         2.61805
           10034         2.61961
           10035         2.64990
           10036         5.70788
           10037         5.70798
           10038         3.41314
           10039         3.40787
           10040         3.28403
           10041         3.08825
           10042         3.14454
           10043         3.26716
           10044         3.11095
           10045         3.17063
           10046         3.10731
           10047         3.22657
           10048         3.16502
           10049         3.22986
           10050         3.88645
           10051         3.70737
           10052         3.70861
           10053         3.71770
           10054         3.49216
           10055         3.65062
           10056         3.70399
           10057         3.65428
           10058         3.06225
           10059         3.16644
           10060         3.16828
           10061         5.60120
           10062         5.53566
           10063         5.51299
           10064         3.15249
           10065         3.05173
           10066         3.29373
           10067         3.15743
           10068         3.28536
           10069         3.56308
           10070         3.56696
           10071         3.57164
           10072         3.77987
           10073         3.61926
           10074         3.56818
           10075         3.61967
           10076         3.78043
           10077         3.84286
           10078         3.97782
           10079         3.91370
           10080         3.97651
           10081         3.02165
           10082         3.07457
           10083         3.49187
           10084         3.65075
           10085         3.43642
           10086     364.882E-03
           10087     480.243E-03
           10088     478.589E-03
           10089     740.445E-03
           10090     591.208E-03
           10091     594.856E-03
           10092         3.72488
           10093         3.57255
           10094         3.29698
           10095         3.16036
           10096         3.80614
           10097         3.80641
           10098         3.70796
           10099         3.71126
           10100         3.57855
           10101         3.49167
           10102         3.48884
           10103         3.71258
           10104         3.15494
           10105         3.33422
           10106         3.33941
           10107         1.76156
           10108         2.06935
           10109         2.22572
           10110         2.24753
           10111         1.94755
           10112         1.78353
           10113         3.57110
           10114         3.79107
           10115         3.92366
           10116         3.92206
           10117         3.92401
           10118         4.01424
           10119         3.79108
           10120         3.99355
           10121         3.91239
           10122         3.64901
           10123         3.51744
           10124         3.45230
           10125         3.51755
           10126         3.64930
           10127         3.72722
           10128         3.44815
           10129         3.44365
           10130         3.31835
           10131         3.51242
           10132         3.64463
           10133         3.37093
           10134         3.37660
           10135         3.58472
           10136         3.41141
           10137         3.41536
           10138         3.28653
           10139         3.24391
           10140         3.19243
           10141         3.37687
           10142         3.44251
           10143         3.24421
           10144         3.28228
           10145         3.11356
           10146         3.13773
           10147         3.13248
           10148         2.78262
           10149         3.35421
           10150         2.32960
           10151         2.63363
           10152         2.02159
           10153         2.09179
           10154         2.71590
           10155         3.24918
           10156         3.77836
           10157         5.34449
           10158         5.43837
           10159         5.40303
           10160         4.20463
           10161         4.06774
           10162         4.06766
           10163         2.96511
           10164         2.88324
           10165         3.11298
           10166         2.89140
           10167         3.05673
           10168         2.99392
           10169         2.99973
           10170         2.91765
           10171         2.91116
           10172         2.71222
           10173         2.88214
           10174         3.00985
           10175         3.27074
           10176         2.90038
           10177         3.09781
           10178         2.93263
           10179         2.97201
           10180         2.78924
           10181         2.50853
           10182         2.60644
           10183         2.43627
           10184         2.31562
           10185         2.46279
           10186         2.39175
           10187         2.72222
           10188         2.58714
           10189         2.72213
           10190         2.68868
           10191         2.50687
           10192         1.04533
           10193     856.973E-03
           10194     766.343E-03
           10195     774.664E-03
           10196         1.05847
           10197         2.74619
           10198         2.74690
           10199         2.90048
           10200         2.89534
           10201         2.94120
           10202         2.91695
           10203         3.02885
           10204     973.053E-03
           10205         1.30984
           10206         1.32352
           10207         2.59911
           10208         2.58987
           10209         2.63351
           10210         2.54992
           10211         2.56291
           10212         2.52434
           10213         2.57429
           10214         2.62634
           10215         2.61468
           10216     481.467E-03
           10217     376.103E-03
           10218     295.796E-03
           10219     194.685E-03
           10220     292.149E-03
           10221     373.160E-03
           10222         2.21780
           10223         2.19457
           10224         2.26369
           10225         2.29017
           10226         2.31389
           10227         2.25581
           10228         2.71846
           10229         2.65157
           10230         2.74389
           10231         2.71172
           10232         2.70152
           10233         2.75459
           10234         2.73844
           10235         2.69950
           10236         2.66694
           10237         2.64849
           10238         2.67978
           10239         2.65206
           10240         2.66970
           10241         1.77816
           10242         2.66940
           10243         2.66852
           10244         2.70425
           10245         2.67930
           10246         2.68392
           10247         2.67871
           10248         2.64396
           10249         2.64025
           10250         2.64412
           10251         2.63605
           10252         2.63576
           10253         2.63123
           10254         2.68433
           10255         2.68179
           10256         2.67662
           10257         2.67674
           10258         2.68443
           10259         2.67543
           10260         2.65346
           10261         2.65604
           10262         2.65695
           10263         2.66969
           10264         2.98434
           10265         2.83879
           10266         2.93046
           10267         2.67962
           10268         2.67572
           10269         2.68257
           10270         2.68642
           10271         2.67073
           10272         2.68573
           10273         2.65534
           10274         2.64977
           10275         2.64607
           10276         2.69217
           10277         2.69337
           10278         2.68843
           10279         2.66834
           10280         2.66302
           10281         2.66555
           10282         2.66564
           10283         2.66988
           10284         2.66216
           10285         2.66523
           10286         2.66247
           10287         2.64802
           10288         3.89333
           10289         3.87513
           10290         3.93502
           10291         4.10099
           10292         4.11799
           10293         4.05750
           10294         2.65694
           10295         2.65906
           10296         2.66237
           10297         2.65742
           10298         2.65976
           10299         2.65633
           10300         2.66027
           10301         2.65862
           10302         2.65908
           10303         2.65558
           10304         2.65323
           10305         2.67905
           10306         2.64668
           10307         2.65561
           10308         2.65498
           10309         2.64768
           10310         2.64755
           10311         2.64902
           10312         2.64689
           10313         2.56505
           10314         2.55074
           10315         2.55571
           10316         2.53826
           10317         2.58309
           10318         2.57010
           10319         2.57943
           10320         2.58399
           10321         2.57550
           10322         2.56778
           10323         2.56571
           10324         2.57686
           10325         4.34309
           10326         4.58699
           10327         4.54017
           10328         4.46192
           10329         4.22188
           10330         4.26711
           10331         4.17007
           10332         4.09750
           10333         4.02858
           10334         4.10010
           10335         3.98061
           10336         2.62536
           10337         5.54596
           10338         5.80440
           10339         5.80290
           10340         6.10253
           10341         5.83003
           10342         5.83066
           10343         2.59203
           10344         2.59339
           10345         2.64022
           10346         2.63562
           10347         2.64388
           10348         2.62999
           10349         2.62828
           10350         2.65957
           10351         2.61902
           10352         2.62103
           10353         2.51796
           10354         2.51451
           10355         2.57726
           10356         2.60819
           10357     622.283E-03
           10358         2.62273
           10359         2.62345
           10360         2.57580
           10361         2.60707
           10362         2.44016
           10363         2.42946
           10364         2.48254
           10365         2.37504
           10366         2.32017
           10367         2.37811
           10368         2.34538
           10369         2.28623
           10370         2.32427
           10371         2.29249
           10372         2.28929
           10373         2.22069
           10374         2.26854
           10375         2.24817
           10376         2.27417
           10377         2.21275
           10378         2.22531
           10379         2.21158
           10380         2.26220
           10381         2.22625
           10382         2.19524
           10383         2.17232
           10384         2.43860
           10385         2.44345
           10386         2.44540
           10387         2.15260
           10388         2.14639
           10389         2.15794
           10390         2.20523
           10391         2.11251
           10392         2.13142
           10393         2.28097
           10394         2.31175
           10395         2.36423
           10396         2.34436
           10397         1.89338
           10398         1.90121
           10399         2.01678
           10400         1.93706
           10401         1.94567
           10402         2.04312
           10403         2.02177
           10404         1.94366
           10405         1.93723
           10406         2.01533
           10407         2.01259
           10408         5.78148
           10409         6.09032
           10410         6.06027
           10411         1.91578
           10412         1.99369
           10413         3.24574
           10414         2.12796
           10415         2.12615
           10416         2.19223
           10417         2.16926
           10418         2.15779
           10419         2.27810
           10420         2.30800
           10421         1.81040
           10422         1.90533
           10423         1.76836
           10424         1.36626
           10425     944.818E-03
           10426         1.03113
           10427         1.03556
           10428         1.31937
           10429     16.8376E-03
           10430     60.6233E-03
           10431     33.6082E-03
           10432     68.2687E-03
           10433     28.5141E-03
           10434     54.7704E-03
           10435     25.8652E-03
           10436     28.5892E-03
           10437     27.2145E-03
           10438     26.1447E-03
           10439     42.2474E-03
           10440     45.7441E-03
           10441     33.9875E-03
           10442     33.2191E-03
           10443     17.8254E-03
           10444     36.1606E-03
           10445     17.6850E-03
           10446     21.5258E-03
           10447     74.4591E-03
           10448     20.0043E-03
           10449     14.6998E-03
           10450     41.4497E-03
           10451     41.0515E-03
           10452         3.55578
           10453         3.40253
           10454         3.48820
           10455     48.9696E-03
           10456     189.116E-03
           10457     160.627E-03
           10458     95.2650E-03
           10459     62.9754E-03
           10460     91.2299E-03
           10461     156.147E-03
           10462     33.6674E-03
           10463     18.0459E-03
           10464     22.5213E-03
           10465     90.0755E-03
           10466     22.6425E-03
           10467     37.3108E-03
           10468     44.9052E-03
           10469     36.4866E-03
           10470     46.1886E-03
           10471     42.3748E-03
           10472     15.1642E-03
           10473     38.3762E-03
           10474         1.35933
           10475         1.80525
           10476     445.728E-03
           10477     422.155E-03
           10478     427.975E-03
           10479     175.719E-03
           10480     461.341E-03
           10481         1.13132
           10482     881.773E-03
           10483         1.03288
           10484     336.601E-03
           10485     78.7975E-03
           10486         5.26649
           10487         5.48646
           10488         5.31583
           10489         4.15490
           10490         4.08604
           10491     220.895E-03
           10492     202.011E-03
           10493     110.898E-03
           10494     159.690E-03
           10495     175.482E-03
           10496     147.907E-03
           10497     148.434E-03
           10498     102.747E-03
           10499     256.735E-03
           10500     137.496E-03
           10501     134.464E-03
           10502     80.1214E-03
           10503     189.870E-03
           10504     192.409E-03
           10505     231.509E-03
           10506     250.688E-03
           10507     230.786E-03
           10508     243.038E-03
           10509     262.581E-03
           10510     352.712E-03
           10511     309.734E-03
           10512     297.204E-03
           10513     41.7002E-03
           10514     15.8296E-03
           10515     59.3258E-03
           10516     19.2956E-03
           10517     55.1228E-03
           10518         5.22873
           10519         5.17625
           10520         5.48074
           10521         5.48856
           10522         5.23394
           10523     80.7886E-03
           10524     115.926E-03
           10525     96.2592E-03
           10526     159.279E-03
           10527     113.279E-03
           10528     92.5758E-03
           10529     141.655E-03
           10530     75.3872E-03
           10531     95.9360E-03
           10532     185.468E-03
           10533     226.107E-03
           10534     15.5079E-03
           10535     112.080E-03
           10536     212.714E-03
           10537     163.596E-03
           10538     245.565E-03
           10539     316.548E-03
           10540     96.3391E-03
           10541     47.4056E-03
           10542     23.0065E-03
           10543     22.8712E-03
           10544     15.7912E-03
           10545     14.4828E-03
           10546     104.947E-03
           10547         3.46630
           10548         3.82472
           10549         3.81174
           10550     544.204E-03
           10551     709.273E-03
           10552     668.988E-03
           10553     667.774E-03
           10554     532.748E-03
           10555         1.43100
           10556         1.36203
           10557         1.19800
           10558         1.57834
           10559         1.76228
           10560         1.14408
           10561         1.04558
           10562     176.453E-03
           10563     179.549E-03
           10564         1.77547
           10565         1.95329
           10566         1.85023
           10567     597.296E-03
           10568     674.105E-03
           10569     739.929E-03
           10570     41.0636E-03
           10571         1.35226
           10572         1.69673
           10573         1.39368
           10574         1.66910
           10575         1.32352
           10576         1.63846
           10577     620.041E-03
           10578     828.069E-03
           10579     801.027E-03
           10580     414.687E-03
           10581     423.431E-03
           10582     430.499E-03
           10583         2.83194
           10584         2.81118
           10585     712.629E-03
           10586     564.319E-03
           10587         3.03200
           10588         3.32216
           10589         2.84021
           10590     987.572E-03
           10591     805.541E-03
           10592     724.977E-03
           10593         2.07986
           10594         2.04906
           10595         2.02082
           10596         2.72461
           10597         3.05195
           10598         2.75289
           10599         2.74039
           10600         2.43748
           10601         2.71170
           10602         2.93338
           10603         3.22863
           10604         2.84886
           10605         2.52245
           10606         2.97752
           10607     433.696E-03
           10608     593.422E-03
           10609     407.415E-03
           10610         2.06323
           10611         2.04076
           10612         2.17329
           10613         1.86431
           10614         2.29506
           10615         2.18197
           10616         2.50535
           10617         1.35033
           10618         1.54304
           10619         1.50791
           10620         3.09333
           10621         3.02839
           10622         3.07190
           10623         3.11790
           10624     558.227E-03
           10625     136.724E-03
           10626     133.961E-03
           10627     277.372E-03
           10628     118.972E-03
           10629     22.5077E-03
           10630         3.21321
           10631         3.09315
           10632         3.13385
           10633         3.09163
           10634     916.027E-03
           10635     332.721E-03
           10636     453.753E-03
           10637     375.567E-03
           10638     487.978E-03
           10639     365.123E-03
           10640     444.020E-03
           10641     427.465E-03
           10642     310.103E-03
           10643     418.581E-03
           10644         3.03146
           10645     578.087E-03
           10646     623.790E-03
           10647     620.895E-03
           10648     574.944E-03
           10649         3.02978
           10650     333.866E-03
           10651     454.954E-03
           10652     416.941E-03
           10653     602.197E-03
           10654     533.598E-03
           10655     566.941E-03
           10656     557.591E-03
           10657     540.599E-03
           10658     260.821E-03
           10659     164.822E-03
           10660         4.17641
           10661         3.64044
           10662     873.902E-03
           10663         1.02105
           10664         1.78102
           10665         2.09992
           10666         1.78872
           10667         1.85611
           10668         2.96009
           10669         2.89111
           10670         2.95924
           10671     296.800E-03
           10672     326.369E-03
           10673     139.547E-03
           10674     78.4847E-03
           10675         1.16937
           10676         1.35423
           10677         1.40795
           10678         1.49996
           10679         1.32426
           10680         1.26480
           10681     141.438E-03
           10682         1.99591
           10683         1.69066
           10684         1.83885
           10685     812.514E-03
           10686     621.330E-03
           10687     581.173E-03
           10688         2.02683
           10689         1.50797
           10690         1.59377
           10691         1.67441
           10692         1.25047
           10693         1.48198
           10694         1.39213
           10695         1.65509
           10696         1.69341
           10697         1.52138
           10698         1.55362
           10699         2.43220
           10700         2.72564
           10701         1.63725
           10702         1.95515
           10703         2.20730
           10704         1.99855
           10705         2.12296
           10706         1.49706
           10707         1.50435
           10708         1.56092
           10709         1.30777
           10710     173.304E-03
           10711     71.1927E-03
           10712     717.041E-03
           10713         1.42516
           10714         1.32449
           10715         1.19884
           10716     361.100E-03
           10717     516.705E-03
           10718     414.987E-03
           10719         2.84055
           10720         1.39446
           10721         1.13881
           10722         1.79618
           10723         1.82064
           10724         1.77299
           10725         1.13325
           10726         1.92105
           10727         1.93473
           10728         2.14697
           10729         2.01649
           10730         2.69045
           10731         2.49967
           10732         2.78395
           10733         1.85370
           10734         2.23273
           10735         2.42859
           10736         3.03079
           10737         2.99420
           10738         2.86045
           10739         3.15891
           10740         3.21292
           10741         3.36070
           10742         3.04429
           10743         3.27825
           10744         2.97096
           10745         2.82873
           10746         2.83296
           10747         2.95501
           10748         3.22952
           10749         3.04294
           10750         2.95799
           10751         2.40179
           10752         2.66058
           10753         2.58701
           10754         2.65662
           10755         2.68593
           10756         2.92239
           10757         2.94053
           10758         3.09578
           10759         1.96486
           10760         2.57832
           10761         2.71330
           10762         2.54857
           10763         3.20818
           10764         3.35775
           10765         3.20821
           10766         3.42803
           10767         3.27767
           10768         3.44477
           10769         3.07164
           10770         3.22295
           10771         3.17734
           10772         3.03346
           10773         3.05161
           10774         2.75588
           10775         2.90535
           10776         2.78976
           10777         2.88723
           10778         2.96896
           10779         3.04216
           10780         2.86640
           10781         3.18981
           10782         3.45459
           10783         3.28607
           10784         3.25551
           10785         2.80331
           10786         3.02295
           10787         2.98703
           10788         3.08090
           10789         3.24249
           10790         3.28827
           10791         3.18361
           10792         3.08952
           10793         3.34096
           10794         3.51465
           10795         3.49291
           10796         3.46857
           10797         1.13472
           10798         1.10754
           10799         1.25158
           10800         1.27894
           10801         1.35585
           10802         1.41906
           10803         1.57078
           10804         1.18654
           10805         1.37422
           10806         1.32242
           10807         1.52696
           10808         1.27100
           10809         1.34711
           10810         1.35861
           10811         1.27877
           10812         1.77707
           10813         1.70255
           10814         1.71265
           10815         1.78764
           10816         1.96502
           10817         1.80156
           10818         2.18980
           10819         2.19238
           10820         2.44046
           10821         2.48426
           10822         2.63957
           10823     45.3494E-03
           10824     590.790E-03
           10825     751.481E-03
           10826     7.95516E-03
           10827     7.41431E-03
           10828     44.4734E-03
           10829     29.5188E-03
           10830     73.6924E-03
           10831     33.8422E-03
           10832         7.83741
           10833         8.09553
           10834         7.29511
           10835         7.76753
           10836     130.799E-03
           10837     231.184E-03
           10838     431.889E-03
           10839     431.406E-03
           10840     543.847E-03
           10841     325.560E-03
           10842     546.098E-03
           10843     581.351E-03
           10844     438.678E-03
           10845     458.826E-03
           10846     419.506E-03
           10847     232.471E-03
           10848     126.910E-03
           10849     150.367E-03
           10850     260.702E-03
           10851     200.216E-03
           10852     129.086E-03
           10853     127.660E-03
           10854     122.702E-03
           10855     749.751E-03
           10856     650.956E-03
           10857     679.897E-03
           10858     637.265E-03
           10859     735.049E-03
           10860     558.747E-03
           10861     450.437E-03
           10862     560.499E-03
           10863     400.572E-03
           10864     504.680E-03
           10865     492.834E-03
           10866     522.456E-03
           10867     882.853E-03
           10868     903.123E-03
           10869     746.892E-03
           10870     584.604E-03
           10871     782.715E-03
           10872     431.042E-03
           10873     529.159E-03
           10874     375.922E-03
           10875     486.121E-03
           10876     443.707E-03
           10877     583.863E-03
           10878         1.10079
           10879         1.16763
           10880         1.21248
           10881         1.58183
           10882         1.79057
           10883         1.77143
           10884         1.80208
           10885         2.38272
           10886         2.36291
           10887         1.78823
           10888         2.64957
           10889         2.61705
           10890         2.61676
           10891         2.59828
           10892         2.41335
           10893         2.44157
           10894         2.18492
           10895         2.16612
           10896         2.21140
           10897         2.12921
           10898         2.04240
           10899         2.01701
           10900         1.95974
           10901         1.79360
           10902         1.61656
           10903         1.80039
           10904         1.68267
           10905         1.54433
           10906         2.32559
           10907         2.32946
           10908         1.07375
           10909         1.45197
           10910         1.46077
           10911         1.35672
           10912     988.029E-03
           10913     980.875E-03
           10914         2.86189
           10915         2.64167
           10916         2.79287
           10917         2.69090
           10918         2.80269
           10919         3.18509
           10920         2.74004
           10921         3.09493
           10922         2.63986
           10923         2.59746
           10924         2.55458
           10925         2.62608
           10926         2.70392
           10927         2.38381
           10928         2.32035
           10929         2.77882
           10930         2.46230
           10931         2.48142
           10932         2.46933
           10933         2.79952
           10934         3.41249
           10935         2.48715
           10936         2.44434
           10937         2.86551
           10938         3.03087
           10939         2.17080
           10940         1.81143
           10941         1.66915
           10942         1.95438
           10943         1.82298
           10944         1.38852
           10945         1.10451
           10946     584.218E-03
           10947         1.45325
           10948     911.469E-03
           10949     836.779E-03
           10950         2.21997
           10951         2.28698
           10952         2.03053
           10953         2.03666
           10954         2.22898
           10955     592.752E-03
           10956     629.317E-03
           10957         2.69851
           10958     464.689E-03
           10959     457.677E-03
           10960     345.074E-03
           10961     215.176E-03
           10962     220.793E-03
           10963     152.750E-03
           10964     334.062E-03
           10965     297.333E-03
           10966     408.428E-03
           10967         1.41490
           10968         1.20198
           10969         2.17204
           10970         1.13968
           10971         2.61717
           10972         2.64015
           10973         2.62597
           10974         2.63752
           10975         2.62722
           10976         2.63183
           10977         2.61577
           10978     9.00802E-03
           10979     92.3626E-03
           10980     54.2666E-03
           10981     121.792E-03
           10982     13.7621E-03
           10983     51.6784E-03
           10984     13.5730E-03
           10985     63.7980E-03
           10986     50.7062E-03
           10987     68.7445E-03
           10988     113.639E-03
           10989     108.209E-03
           10990     15.3688E-03
           10991     31.8409E-03
           10992     31.5156E-03
           10993         2.65865
           10994         2.65924
           10995         2.64085
           10996     65.8766E-03
           10997     36.2299E-03
           10998     37.9312E-03
           10999     20.1332E-03
           11000     19.8817E-03
           11001     35.5169E-03
           11002     23.5878E-03
           11003     24.2919E-03
           11004     50.6164E-03
           11005     16.8610E-03
           11006     17.3753E-03
           11007     52.3554E-03
           11008         2.67528
           11009     72.0916E-03
           11010     18.2240E-03
           11011     15.7729E-03
           11012     25.3555E-03
           11013     23.7115E-03
           11014     17.6294E-03
           11015     53.5321E-03
           11016     52.4898E-03
           11017     19.8054E-03
           11018     55.3161E-03
           11019     86.3747E-03
           11020     91.7880E-03
           11021     155.992E-03
           11022     19.5974E-03
           11023     54.6431E-03
           11024     257.739E-03
           11025     269.356E-03
           11026     163.352E-03
           11027     249.743E-03
           11028         2.65996
           11029         2.66354
           11030         2.65476
           11031         2.64588
           11032     317.076E-03
           11033     82.4374E-03
           11034     52.2640E-03
           11035     53.3203E-03
           11036     40.5133E-03
           11037     26.0961E-03
           11038     40.8758E-03
           11039         2.64377
           11040         2.63658
           11041         2.60320
           11042         2.60068
           11043     460.457E-03
           11044     449.370E-03
           11045     265.489E-03
           11046     324.710E-03
           11047     381.355E-03
           11048     380.762E-03
           11049     458.318E-03
           11050     338.781E-03
           11051     999.892E-03
           11052     326.116E-03
           11053     205.920E-03
           11054     964.053E-03
           11055     978.666E-03
           11056     946.755E-03
           11057     561.341E-03
           11058     545.086E-03
           11059         1.18956
           11060         1.29919
           11061         1.19432
           11062     918.019E-03
           11063     925.228E-03
           11064         1.04304
           11065     928.829E-03
           11066         1.08056
           11067     971.704E-03
           11068         1.07678
           11069     707.497E-03
           11070     557.205E-03
           11071     666.788E-03
           11072     672.583E-03
           11073     822.275E-03
           11074     712.148E-03
           11075     792.592E-03
           11076     798.405E-03
           11077     677.420E-03
           11078     910.731E-03
           11079     812.401E-03
           11080     792.884E-03
           11081     912.253E-03
           11082         1.13412
           11083         1.00836
           11084         1.01698
           11085     915.238E-03
           11086         1.04285
           11087         1.03932
           11088     844.117E-03
           11089     979.666E-03
           11090     850.408E-03
           11091     932.007E-03
           11092     190.904E-03
           11093     192.716E-03
           11094     144.502E-03
           11095     270.765E-03
           11096     272.925E-03
           11097     354.103E-03
           11098     352.853E-03
           11099     269.655E-03
           11100     226.703E-03
           11101     611.231E-03
           11102     514.815E-03
           11103     506.731E-03
           11104     449.533E-03
           11105     454.712E-03
           11106     365.390E-03
           11107     330.998E-03
           11108     677.837E-03
           11109     671.160E-03
           11110     508.836E-03
           11111         2.22575
           11112         2.32474
           11113         2.33312
           11114     560.868E-03
           11115     432.137E-03
           11116     718.626E-03
           11117     741.697E-03
           11118     748.464E-03
           11119         1.34948
           11120         1.20197
           11121         1.31426
           11122         1.15541
           11123         1.30562
           11124         1.19162
           11125     931.774E-03
           11126         2.55991
           11127         2.55339
           11128         1.25099
           11129         1.35897
           11130         1.27143
           11131         1.16804
           11132         1.46218
           11133         1.52429
           11134         1.36258
           11135         1.52549
           11136         1.51010
           11137         1.44717
           11138         1.49202
           11139         1.50676
           11140         1.39871
           11141         1.20018
           11142         1.32698
           11143         1.14869
           11144         1.14583
           11145         1.44009
           11146         1.55036
           11147         1.49843
           11148         6.83909
           11149         9.49956
           11150         6.90297
           11151         6.91033
           11152         4.41362
           11153         6.15110
           11154         2.24769
           11155         2.15066
           11156         2.19151
           11157         2.25437
           11158         1.53312
           11159         1.71349
           11160         1.70210
           11161         1.58246
           11162         2.18249
           11163         2.29742
           11164         2.36485
           11165         2.27422
           11166         2.05031
           11167         1.32218
           11168         1.58641
           11169         2.06590
           11170         1.99610
           11171         2.05801
           11172         2.21281
           11173         2.21400
           11174         2.46126
           11175         2.43537
           11176         2.27297
           11177         2.48130
           11178         2.33792
           11179         3.73537
           11180         3.72498
           11181         3.01235
           11182         2.80470
           11183         2.90040
           11184         2.63487
           11185         2.60878
           11186         2.70880
           11187         2.64880
           11188         2.66970
           11189         2.70017
           11190         2.73346
           11191         3.00431
           11192         3.03149
           11193         3.11700
           11194         3.23533
           11195         3.28279
           11196         3.28345
           11197         2.99970
           11198         2.86364
           11199         2.96837
           11200         3.25670
           11201         3.30545
           11202         3.43984
           11203         2.93283
           11204         2.94868
           11205         3.25062
           11206         3.11236
           11207         2.96137
           11208         3.17193
           11209         2.97052
           11210         3.02995
           11211         3.38443
           11212         3.27630
           11213         3.42995
           11214         3.32994
           11215         3.28647
           11216         3.09519
           11217         3.14501
           11218         3.25863
           11219         2.86898
           11220         2.91828
           11221         2.86927
           11222         2.92129
           11223         2.83253
           11224         2.86824
           11225         2.82683
           11226         3.39919
           11227         3.40781
           11228         4.36712
           11229         4.37582
           11230         4.14043
           11231         2.77637
           11232         2.75312
           11233         2.75725
           11234         2.69449
           11235         3.22371
           11236         3.10152
           11237         3.02971
           11238         1.32084
           11239         3.63813
           11240         3.37089
           11241         3.37035
           11242         2.85668
           11243         2.93699
           11244         2.88984
           11245         2.81916
           11246         2.80878
           11247         2.87238
           11248         2.71963
           11249         2.97462
           11250         3.00410
           11251         2.89977
           11252         2.75926
           11253         2.79636
           11254         2.76968
           11255         2.21904
           11256         2.28239
           11257         2.02244
           11258         1.89867
           11259     841.378E-03
           11260         1.26563
           11261         2.16050
           11262         2.53085
           11263         2.57328
           11264         2.52381
           11265         2.50788
           11266         2.40238
           11267         2.50466
           11268         2.21949
           11269         2.31685
           11270     387.105E-03
           11271         1.95986
           11272         2.62517
           11273         2.61520
           11274         2.66062
           11275         2.60944
           11276         2.61671
           11277         2.60028
           11278         2.34057
           11279         2.57854
           11280         1.90215
           11281         2.00531
           11282         2.01065
           11283     894.636E-03
           11284     273.469E-03
           11285     199.158E-03
           11286     141.721E-03
           11287         2.09380
           11288     735.333E-03
           11289         2.77543
           11290         1.75193
           11291         1.76875
           11292         1.48260
           11293         1.46033
           11294         1.90225
           11295         1.89505
           11296         1.64424
           11297         1.68389
           11298         1.70100
           11299         1.68616
           11300         1.56570
           11301         5.83799
           11302         1.76387
           11303         1.89831
           11304         1.90571
           11305         1.19230
           11306         1.17658
           11307         1.05656
           11308         1.84300
           11309         2.12443
           11310         2.20331
           11311         2.24406
           11312         2.01510
           11313         2.00002
           11314         1.99301
           11315         2.38435
           11316         2.35960
           11317         2.34152
           11318         2.28374
           11319         2.31388
           11320         2.29197
           11321         2.28690
           11322         2.20566
           11323         2.29828
           11324         2.17629
           11325         2.12670
           11326         2.07174
           11327         2.15200
           11328         2.19510
           11329         2.19941
           11330         2.17315
           11331         2.37640
           11332         2.35722
           11333         2.41705
           11334         2.42782
           11335         2.12077
           11336         2.19180
           11337         2.09360
           11338         2.30938
           11339         2.25471
           11340         2.60583
           11341         2.66979
           11342         2.66039
           11343         2.57662
           11344         2.56034
           11345         2.58621
           11346         2.71827
           11347         2.46042
           11348         2.48226
           11349         2.63014
           11350         2.59171
           11351         2.61557
           11352         2.61082
           11353         2.76780
           11354         2.75858
           11355         2.73592
           11356         2.74067
           11357         2.64172
           11358         2.64608
           11359         2.70849
           11360         2.70382
           11361         2.44632
           11362         2.60411
           11363         2.61631
           11364         2.57873
           11365         2.56746
           11366         6.21666
           11367         6.34635
           11368         6.33275
           11369         6.24410
           11370         6.11985
           11371         2.62079
           11372         2.55676
           11373         2.51891
           11374         2.62019
           11375         2.59324
           11376         2.66247
           11377         2.66122
           11378         2.66046
           11379         2.65905
           11380         2.65920
           11381         2.65864
           11382         2.65938
           11383         2.65882
           11384         2.65482
           11385         2.65283
           11386         2.65475
           11387         2.64925
           11388         2.63952
           11389         2.64237
           11390         2.67842
           11391         2.62714
           11392         2.63478
           11393         2.65077
           11394         2.64560
           11395         2.61886
           11396         2.63295
           11397         2.63126
           11398         2.64124
           11399         2.63246
           11400         2.69175
           11401         2.67233
           11402         2.66203
           11403         2.64187
           11404         2.63570
           11405         2.64879
           11406         2.65722
           11407         2.56248
           11408         2.55398
           11409         2.55094
           11410         2.60609
           11411         2.55863
           11412         2.55641
           11413         2.55391
           11414         2.53834
           11415         2.54876
           11416         2.60833
           11417         2.60051
           11418         2.61319
           11419         2.55610
           11420         2.54546
           11421         2.54576
           11422         2.56859
           11423         6.63593
           11424         6.53013
           11425         2.58719
           11426         2.61295
           11427         2.61598
           11428         2.61003
           11429         2.60709
           11430         2.59691
           11431         2.58689
           11432         2.40905
           11433         2.36737
           11434         2.48532
           11435         2.46022
           11436         2.49235
           11437         2.53186
           11438         2.51352
           11439         2.52267
           11440         2.42459
           11441         2.59368
           11442         2.59679
           11443         2.60842
           11444         2.58613
           11445         2.55852
           11446         2.37885
           11447         2.41333
           11448         2.40081
           11449         2.42615
           11450         2.21007
           11451         2.21536
           11452         2.21313
           11453         2.13150
           11454         2.17613
           11455         2.20569
           11456         2.44842
           11457         2.49044
           11458         2.43912
           11459         2.28003
           11460         2.03986
           11461         2.42171
           11462         2.48731
           11463         2.52072
           11464         2.40687
           11465         2.44858
           11466         2.20323
           11467         2.23799
           11468         2.14756
           11469         2.06068
           11470         2.07397
           11471         2.07262
           11472         2.13327
           11473         2.43399
           11474         2.39096
           11475         2.42528
           11476         2.43536
           11477         2.43747
           11478         2.15814
           11479         2.11353
           11480         2.09768
           11481         2.08259
           11482         2.14981
           11483         2.36996
           11484         2.34422
           11485         2.37782
           11486         1.80938
           11487         1.69219
           11488         1.70678
           11489         1.57518
           11490         1.69309
           11491         1.67813
           11492         1.91304
           11493         1.81791
           11494         1.71445
           11495         1.92835
           11496         1.88773
           11497         1.93113
           11498         1.97834
           11499         1.98797
           11500         2.00673
           11501         2.29750
           11502         2.34375
           11503         2.07865
           11504         2.25151
           11505         2.30350
           11506         2.18303
           11507         2.30849
           11508         2.03986
           11509         2.17047
           11510         2.10003
           11511         2.14996
           11512         2.21298
           11513         2.14361
           11514         2.23231
           11515         2.18094
           11516         2.06407
           11517         2.06624
           11518         2.01581
           11519         1.21140
           11520         1.16276
           11521         1.14590
           11522         1.27008
           11523     815.881E-03
           11524     876.055E-03
           11525     990.967E-03
           11526         1.05225
           11527         1.18419
           11528         1.07833
           11529     913.952E-03
           11530         1.16508
           11531         1.27835
           11532         1.26179
           11533         1.35285
           11534         1.31687
           11535         1.46373
           11536         1.36969
           11537         1.51701
           11538         1.63989
           11539         1.59425
           11540         1.52373
           11541         1.50921
           11542         1.59798
           11543         1.64073
           11544         1.63846
           11545         1.57966
           11546         1.58766
           11547         1.71779
           11548         1.44573
           11549         1.48101
           11550         1.43956
           11551         2.18688
           11552         1.39713
           11553         1.33687
           11554         1.41735
           11555         1.42352
           11556         1.41805
           11557         1.50071
           11558         1.50467
           11559         2.12310
           11560         2.22034
           11561         2.12353
           11562         1.05134
           11563         1.18058
           11564         1.27192
           11565         1.14786
           11566         1.24617
           11567         1.14375
           11568         1.14596
           11569         1.34422
           11570         1.42736
           11571         1.43502
           11572         1.54440
           11573         1.30869
           11574         1.38194
           11575         1.38500
           11576         1.55625
           11577         1.43652
           11578         1.44933
           11579         1.96686
           11580     954.494E-03
           11581         1.04944
           11582         1.97379
           11583         1.82409
           11584         1.73685
           11585         1.31966
           11586         1.92422
           11587         1.58080
           11588         1.44883
           11589         1.58052
           11590         2.02249
           11591         2.02091
           11592         1.70588
           11593         1.61454
           11594         1.62907
           11595         1.75678
           11596         1.86301
           11597         1.84205
           11598         2.05354
           11599         2.06902
           11600         1.90863
           11601         2.50918
           11602         2.55448
           11603         2.51706
           11604         2.55951
           11605         2.52094
           11606         2.55473
           11607         2.43331
           11608         2.43701
           11609         2.60236
           11610         2.60111
           11611         2.58187
           11612         2.29951
           11613         2.20082
           11614         2.19895
           11615         2.44090
           11616         2.45417
           11617         2.20518
           11618         2.12305
           11619         1.98422
           11620         1.87166
           11621         1.85520
           11622         2.46938
           11623         2.19266
           11624         2.67899
           11625         2.65255
           11626         2.67898
           11627         2.71000
           11628         2.83119
           11629         4.02409
           11630         5.94760
           11631         2.36710
           11632         2.42878
           11633         2.13779
           11634         2.05128
           11635         2.73067
           11636         2.52818
           11637         2.61060
           11638         2.79434
           11639         2.80176
           11640         2.77433
           11641         2.84864
           11642         2.85443
           11643         2.99717
           11644         2.63879
           11645         2.64773
           11646         2.43684
           11647         2.43871
           11648         2.43765
           11649         2.57398
           11650         2.66819
           11651         2.64886
           11652         2.73036
           11653         2.70903
           11654         2.70445
           11655         2.73110
           11656         2.69340
           11657         2.66658
           11658         2.64541
           11659         2.67252
           11660         2.28368
           11661         2.66349
           11662         2.08665
           11663         2.49357
           11664         2.46600
           11665         2.38200
           11666         2.38607
           11667         2.26192
           11668         2.40403
           11669         2.10598
           11670         2.09829
           11671         1.48464
           11672         3.46212
           11673         2.34961
           11674         2.61021
           11675         1.89027
           11676         1.63161
           11677         1.57005
           11678         2.60058
           11679         2.61233
           11680         2.62243
           11681         2.65755
           11682         2.64806
           11683         2.62582
           11684         2.62203
           11685         2.65179
           11686         2.66374
           11687         2.65726
           11688         2.65946
           11689         2.65871
           11690         2.66974
           11691         2.67373
           11692         2.65505
           11693         2.67972
           11694         2.66812
           11695         2.65488
           11696         2.64487
           11697         2.64882
           11698         2.66247
           11699         2.66397
           11700         2.66419
           11701         2.66495
           11702         2.34150
           11703         2.40487
           11704         2.32895
           11705         2.38608
           11706         2.37498
           11707         2.38809
           11708         2.66278
           11709         2.66350
           11710         2.30548
           11711         2.49548
           11712         2.35152
           11713         2.47901
           11714         2.22381
           11715         2.23186
           11716         2.20739
           11717         2.33822
           11718         2.59464
           11719         2.92305
           11720         2.81381
           11721         2.62643
           11722         2.68899
           11723         2.47600
           11724         2.53198
           11725         2.66345
           11726         2.56029
           11727         2.63898
           11728         2.69267
           11729         2.69653
           11730         2.70033
           11731         2.71124
           11732         2.65087
           11733         2.51904
           11734         7.22938
           11735         7.22382
           11736         7.15046
           11737         2.72608
           11738         2.70469
           11739         1.65190
           11740         2.09324
           11741         2.40434
           11742         2.33786
           11743         2.13227
           11744         2.56959
           11745         2.57212
           11746         1.68288
           11747         1.61495
           11748         1.95872
           11749         1.68439
           11750         2.09203
           11751         1.96531
           11752         2.01843
           11753         2.10206
           11754         1.96946
           11755         1.84796
           11756         2.60724
           11757         2.90551
           11758         2.74018
           11759         2.88895
           11760         2.79558
           11761         2.63314
           11762         2.79003
           11763         2.68014
           11764         2.36724
           11765         2.52329
           11766         5.73896
           11767         5.83747
           11768         3.02354
           11769         2.72609
           11770         2.22947
           11771         2.72488
           11772         2.37440
           11773         2.21310
           11774         2.34313
           11775         2.21143
           11776         2.37297
           11777         3.87540
           11778         3.65986
           11779         3.79547
           11780         3.32365
           11781         3.25100
           11782         3.30364
           11783         4.02824
           11784         3.94758
           11785         3.95099
           11786         5.00079
           11787         5.09181
           11788     36.9799E-03
           11789         3.41595
           11790         3.82896
           11791         3.95075
           11792         3.89762
           11793         3.95261
           11794         4.08473
           11795         4.09185
           11796         4.33624
           11797         4.24510
           11798         4.33626
           11799         3.73403
           11800         3.78646
           11801         3.72316
           11802         3.50967
           11803         3.57142
           11804         3.51008
           11805         3.72311
           11806         3.75477
           11807         3.87228
           11808         4.08955
           11809         3.95225
           11810         4.18146
           11811         4.08863
           11812         4.22148
           11813         4.18998
           11814         4.04279
           11815         4.23604
           11816         4.42781
           11817         4.44771
           11818         4.47286
           11819         4.24007
           11820         3.84481
           11821         3.86069
           11822         3.90076
           11823         3.88569
           11824         3.82506
           11825         5.51368
           11826         5.41726
           11827         5.52965
           11828         5.63829
           11829         5.51308
           11830         4.24029
           11831         4.07325
           11832         4.39714
           11833         3.86261
           11834         3.89195
           11835         3.88674
           11836         4.04154
           11837         3.24459
           11838         3.73262
           11839         3.87119
           11840         3.84970
           11841         5.01552
           11842         5.31163
           11843         5.16898
           11844         5.47380
           11845         5.16712
           11846         5.30973
           11847         4.96717
           11848         4.96819
           11849         4.93420
           11850         4.71763
           11851         4.86273
           11852         4.73041
           11853         5.00052
           11854         4.85512
           11855         4.98784
           11856         5.13504
           11857         4.98658
           11858         5.02693
           11859         4.69225
           11860         4.65491
           11861         4.68092
           11862         4.62772
           11863         3.06784
           11864         4.15932
           11865         5.72089
           11866         5.69192
           11867         3.35667
           11868         3.35890
           11869         2.98107
           11870         4.12946
           11871         4.12921
           11872         4.25195
           11873         3.99444
           11874         4.25138
           11875         3.61489
           11876         2.67084
           11877         4.22723
           11878         4.05698
           11879         4.05269
           11880         4.64607
           11881         4.49255
           11882         4.49335
           11883         4.75918
           11884         4.35407
           11885         4.81314
           11886         4.65577
           11887         4.96292
           11888         4.65777
           11889         4.81596
           11890         4.34550
           11891         4.31002
           11892         4.33233
           11893         4.08873
           11894         4.07012
           11895         4.54409
           11896         4.84297
           11897         4.83889
           11898         4.12847
           11899         3.91198
           11900         4.13365
           11901         4.13030
           11902         4.30192
           11903         2.59391
           11904         3.12296
           11905         3.32384
           11906         3.93224
           11907         3.91684
           11908         3.15083
           11909         4.29623
           11910         3.70880
           11911         3.54510
           11912         3.49289
           11913         2.62051
           11914         6.01204
           11915         5.93349
           11916         5.98889
           11917         6.07808
           11918         2.96424
           11919         4.11332
           11920         4.25029
           11921         3.25318
           11922         3.23070
           11923         3.25447
           11924         3.13061
           11925         3.04252
           11926         3.05879
           11927         3.47113
           11928         3.23254
           11929         3.16389
           11930         3.13301
           11931         3.05483
           11932         2.95832
           11933         2.82149
           11934         2.92584
           11935         2.88872
           11936         2.88945
           11937         2.82160
           11938         2.74663
           11939         2.77579
           11940         2.48830
           11941         2.51837
           11942         2.50580
           11943         2.49771
           11944         2.50674
           11945         2.53936
           11946         2.46492
           11947         2.43953
           11948         2.45822
           11949         2.45956
           11950         2.48328
           11951         2.46834
           11952         2.44843
           11953         2.42308
           11954         2.47850
           11955         2.49434
           11956         2.58807
           11957         2.55431
           11958         2.55833
           11959         2.53854
           11960         2.57524
           11961         2.62783
           11962         2.65795
           11963         2.61173
           11964         2.60563
           11965         2.59467
           11966         2.61941
           11967         2.54942
           11968         2.54730
           11969         2.54537
           11970         2.58808
           11971         2.59538
           11972         2.48346
           11973         2.51262
           11974         2.51044
           11975         2.78400
           11976         2.76940
           11977         2.69326
           11978         2.74066
           11979         2.62064
           11980         2.61974
           11981         2.64817
           11982         2.62638
           11983         2.58809
           11984         2.59490
           11985         2.84265
           11986         2.83065
           11987         2.85023
           11988         2.77100
           11989         2.86336
           11990         2.87593
           11991         2.83817
           11992         2.80394
           11993         2.88917
           11994         2.68394
           11995         2.62276
           11996         2.69362
           11997         2.70563
           11998         2.69468
           11999         2.92217
           12000         2.88287
           12001         2.66907
           12002         2.60958
           12003         2.60306
           12004         2.70280
           12005         2.96031
           12006         2.99347
           12007         2.96324
           12008         2.91870
           12009         2.96428
           12010         3.05073
           12011         2.93832
           12012         3.03856
           12013         3.07195
           12014         2.72688
           12015         2.79231
           12016         2.81127
           12017         3.60664
           12018         3.56615
           12019         3.73297
           12020         3.64735
           12021         3.46813
           12022         3.59290
           12023         2.79893
           12024         3.63034
           12025         3.74796
           12026         3.83051
           12027         3.53854
           12028         3.72168
           12029         3.74193
           12030         3.63050
           12031         4.02571
           12032         5.33408
           12033         5.19679
           12034         5.28622
           12035         5.30391
           12036         5.34795
           12037         3.46477
           12038         3.49823
           12039         3.90745
           12040         3.92756
           12041         3.60227
           12042         3.14477
           12043         4.52569
           12044         4.81960
           12045         4.82652
           12046         5.00285
           12047         4.12754
           12048         4.15398
           12049         3.96168
           12050         4.25083
           12051         4.17182
           12052         3.07424
           12053         2.69811
           12054         2.69838
           12055         3.72181
           12056         3.80375
           12057         3.40633
           12058         4.78453
           12059         4.76051
           12060         4.54764
           12061         4.80164
           12062         5.05541
           12063         5.29989
           12064         5.25241
           12065         4.99276
           12066         5.03609
           12067         5.23471
           12068         4.54215
           12069         5.01599
           12070         6.11489
           12071         5.90194
           12072         5.66212
           12073         5.82941
           12074         5.66339
           12075         6.01316
           12076         5.84633
           12077         6.01152
           12078         5.49715
           12079         5.34088
           12080         5.49691
           12081         4.97327
           12082         5.23795
           12083         5.50313
           12084         5.49572
           12085         5.65725
           12086         5.66419
           12087         6.01004
           12088         6.00253
           12089         5.64598
           12090         5.44851
           12091         6.20022
           12092         6.20176
           12093         5.62003
           12094         5.61808
           12095         5.74214
           12096         5.74906
           12097         5.45400
           12098         5.66567
           12099         5.51423
           12100         4.89815
           12101         5.00097
           12102         4.93036
           12103         5.28231
           12104         5.17603
           12105         5.24799
           12106         4.96168
           12107         4.90478
           12108         4.70790
           12109         4.78210
           12110         4.71073
           12111         4.81289
           12112         4.73962
           12113         4.92979
           12114         4.66255
           12115         4.97404
           12116         4.78369
           12117         4.89522
           12118         4.70506
           12119         4.64185
           12120         4.46291
           12121         4.51360
           12122         4.37787
           12123         4.25812
           12124         4.34215
           12125         5.01544
           12126         4.88067
           12127         4.59039
           12128         4.58079
           12129         4.52300
           12130         5.25780
           12131         5.20011
           12132         5.27786
           12133         5.35336
           12134         5.45600
           12135         5.88531
           12136         6.14549
           12137         5.27447
           12138         5.21955
           12139         5.15232
           12140         5.21284
           12141         5.30671
           12142         4.22036
           12143         3.58718
           12144         3.86584
           12145         4.12653
           12146         4.97607
           12147         4.12151
           12148         4.01045
           12149         6.85695
           12150         4.36908
           12151         4.32418
           12152         4.31240
           12153         6.64679
           12154         4.38136
           12155         3.66746
           12156         3.86307
           12157         3.79601
           12158         3.59770
           12159         3.87099
           12160         3.87084
           12161         3.19677
           12162         4.18016
           12163         4.47137
           12164         3.60316
           12165         4.57606
           12166         4.70303
           12167         4.18180
           12168         4.79613
           12169         4.06309
           12170         4.41171
           12171         3.78574
           12172         3.83581
           12173         3.30981
           12174         3.45657
           12175         3.38654
           12176         3.40232
           12177         4.14563
           12178         4.52387
           12179         4.72424
           12180         3.08011
           12181         3.09371
           12182         3.05004
           12183         2.53626
           12184         2.36241
           12185         2.15178
           12186         2.53896
           12187         2.51299
           12188         2.56005
           12189         2.68969
           12190         2.16258
           12191         1.88196
           12192         1.94761
           12193         2.68447
           12194         2.56974
           12195         2.07740
           12196         2.09954
           12197         2.61490
           12198         2.43534
           12199         2.47071
           12200         3.39262
           12201         3.34769
           12202         5.50034
           12203         2.37098
           12204         2.68288
           12205         2.63606
           12206         2.55981
           12207         2.55602
           12208         2.48909
           12209         2.55663
           12210         2.27795
           12211         2.24640
           12212         2.26457
           12213         2.30630
           12214         2.31098
           12215         2.25263
           12216         2.25957
           12217         2.28834
           12218         2.25690
           12219         2.25438
           12220         2.33129
           12221         2.62687
           12222         2.36066
           12223         2.36611
           12224         2.44599
           12225         2.35186
           12226         2.34728
           12227         2.27521
           12228         2.33188
           12229         2.42146
           12230         2.41698
           12231         2.39046
           12232         2.49834
           12233         2.55597
           12234         2.62580
           12235         2.51901
           12236         2.56643
           12237         2.60138
           12238         2.55010
           12239         2.51318
           12240         2.47652
           12241         2.50453
           12242         2.47600
           12243         2.38811
           12244         2.58547
           12245         2.58486
           12246         2.49671
           12247         2.42874
           12248         2.30672
           12249         2.36860
           12250         2.20224
           12251         2.20424
           12252         2.35598
           12253         2.02847
           12254         1.96885
           12255         5.32276
           12256         5.29682
           12257         5.24689
           12258         5.23003
           12259         2.03216
           12260         2.20341
           12261         1.93656
           12262         2.84343
           12263         2.68791
           12264         2.82085
           12265         2.76267
           12266         2.78243
           12267         3.80327
           12268         3.00892
           12269         6.21384
           12270         6.49588
           12271         6.14083
           12272         6.26193
           12273         2.17055
           12274         2.25391
           12275         2.83291
           12276         2.66996
           12277         2.67020
           12278         2.39357
           12279         5.21313
           12280         5.15542
           12281         5.13986
           12282         3.03977
           12283         3.98514
           12284         4.03425
           12285         3.91890
           12286         3.87115
           12287         3.71193
           12288         3.70615
           12289         3.48452
           12290         3.59406
           12291         3.60191
           12292         3.49360
           12293         3.96820
           12294         3.86238
           12295         3.69247
           12296         4.04298
           12297         4.05663
           12298         4.22848
           12299         3.33120
           12300         3.46360
           12301         3.45730
           12302         2.79945
           12303         2.90667
           12304         3.45990
           12305         3.21324
           12306         3.28143
           12307         2.74166
           12308         2.69561
           12309         2.71413
           12310         3.15452
           12311         3.07287
           12312         2.98958
           12313         4.43943
           12314         4.41231
           12315         4.83478
           12316         5.36097
           12317         4.01606
           12318         4.26518
           12319         4.22289
           12320         4.51172
           12321         4.03724
           12322         4.81800
           12323         4.59947
           12324         4.83450
           12325         4.78414
           12326         4.74849
           12327         4.76525
           12328         4.98734
           12329         5.02109
           12330         5.00898
           12331         5.13209
           12332         4.88429
           12333         4.50702
           12334         4.52599
           12335         5.64512
           12336         5.46335
           12337         4.51986
           12338         4.63322
           12339         5.08948
           12340         4.85180
           12341         5.10769
           12342         5.10956
           12343     29.7519E-03
           12344     26.8591E-03
           12345     3.88427E-03
           12346         5.42333
           12347         4.04538
           12348         4.11524
           12349         3.74151
           12350         5.43605
           12351         5.43740
           12352         5.58560
           12353         5.26890
           12354         5.26918
           12355         5.12878
           12356         7.49142
           12357         7.43768
           12358         7.48823
           12359         5.76661
           12360         5.78599
           12361         5.60794
           12362         5.45842
           12363         5.44052
           12364         5.61811
           12365         3.37453
           12366         2.62666
           12367         3.82182
           12368         3.80291
           12369         4.00170
           12370         5.30953
           12371         5.26641
           12372         5.24693
           12373         5.30901
           12374         5.38386
           12375         2.58481
           12376         2.57598
           12377         4.91517
           12378         5.14753
           12379         4.15002
           12380         5.48051
           12381         5.78943
           12382         3.65037
           12383         3.59051
           12384         3.86216
           12385         4.21425
           12386         5.86315
           12387         5.75808
           12388         5.77694
           12389         5.70303
           12390         5.79218
           12391         5.77546
           12392         3.08471
           12393         3.08971
           12394         3.24290
           12395         3.16099
           12396         4.12901
           12397         4.57158
           12398         4.65156
           12399         3.68713
           12400         3.70976
           12401         3.24925
           12402         4.16232
           12403         4.35881
           12404         2.87004
           12405         2.85243
           12406         2.79485
           12407         2.80782
           12408         4.38976
           12409         4.26688
           12410         4.21219
           12411         2.77337
           12412         5.26784
           12413         3.40839
           12414         3.54827
           12415         2.86625
           12416         2.87470
           12417         2.85329
           12418         2.77947
           12419         2.77117
           12420         2.89577
           12421         3.42017
           12422         2.66342
           12423         2.65582
           12424         2.75079
           12425         5.38728
           12426         5.29880
           12427         5.35219
           12428         3.11696
           12429         3.27483
           12430         3.73093
           12431         3.39633
           12432         3.54108
           12433         3.28789
           12434         3.37306
           12435         3.25118
           12436         2.86378
           12437         2.60461
           12438         2.65108
           12439         2.01238
           12440         2.41956
           12441         2.48754
           12442         2.54060
           12443         2.54007
           12444         3.37786
           12445         3.78554
           12446         3.57581
           12447         2.72611
           12448         2.81067
           12449         2.84109
           12450         2.79022
           12451         2.62293
           12452         2.58177
           12453         2.54687
           12454         2.61947
           12455         2.88095
           12456         3.10113
           12457         3.05608
           12458         5.64809
           12459         2.64471
           12460         2.66746
           12461         2.78372
           12462         2.75469
           12463         2.24318
           12464         2.48140
           12465         2.49115
           12466         2.45769
           12467         2.44801
           12468         2.46069
           12469         5.83536
           12470         5.78496
           12471         5.86315
           12472         5.78748
           12473         5.83713
           12474         5.75948
           12475         2.37623
           12476         2.36318
           12477         2.35598
           12478         2.43123
           12479         2.45579
           12480         2.41596
           12481         2.39801
           12482         2.47360
           12483         2.43717
           12484         2.45736
           12485         2.84801
           12486         2.26734
           12487         5.04004
           12488         5.11851
           12489         5.11761
           12490         5.17248
           12491         5.13811
           12492         5.11576
           12493         2.41874
           12494         2.48290
           12495         2.44765
           12496         2.48344
           12497         2.47994
           12498         2.67015
           12499         2.65634
           12500         2.66240
           12501         2.76805
           12502         2.73611
           12503         2.71353
           12504         2.03993
           12505         2.53766
           12506         2.40008
           12507         2.39617
           12508         2.39074
           12509         2.42939
           12510         2.43573
           12511         2.55305
           12512         2.56839
           12513         2.52427
           12514         2.54419
           12515         2.12304
           12516         3.54772
           12517         2.54094
           12518         2.53437
           12519         2.55313
           12520         2.49533
           12521         2.55997
           12522         2.77889
           12523         2.74514
           12524         2.49108
           12525         2.25778
           12526         2.45971
           12527         2.38765
           12528         2.25809
           12529         2.29129
           12530         2.22343
           12531         2.28730
           12532         2.54658
           12533         2.82592
           12534         2.84803
           12535         3.15626
           12536         3.21750
           12537         3.21617
           12538         3.40547
           12539         2.32815
           12540         5.42760
           12541         2.78716
           12542         2.81345
           12543         2.54964
           12544         2.08140
           12545         2.01352
           12546         2.27337
           12547         2.00799
           12548         1.97869
           12549         2.06793
           12550         2.10286
           12551         3.43498
           12552         3.24198
           12553         3.45351
           12554         3.11789
           12555         2.67966
           12556         3.68082
           12557         3.63047
           12558         3.59242
           12559         3.74345
           12560         3.79307
           12561         3.83314
           12562         4.33673
           12563         4.45160
           12564         4.24002
           12565         4.34794
           12566         3.98700
           12567         4.00260
           12568         4.21537
           12569         4.18522
           12570         5.65232
           12571         5.64407
           12572         5.56309
           12573         5.63025
           12574         5.74524
           12575         5.80265
           12576         3.10401
           12577         2.30812
           12578         2.23566
           12579         2.21052
           12580         3.91730
           12581         2.41899
           12582         3.86322
           12583         2.62620
           12584         3.80822
           12585         3.47218
           12586         5.02494
           12587         5.26520
           12588         5.82265
           12589         3.65464
           12590         4.72921
           12591         4.74030
           12592         4.74805
           12593         5.52985
           12594         5.59734
           12595         5.58296
           12596         5.33392
           12597         5.83915
           12598         5.89363
           12599         3.45788
           12600         2.80523
           12601         2.75343
           12602         4.66341
           12603         5.13212
           12604         5.18387
           12605         6.31385
           12606         6.28454
           12607         6.44128
           12608         8.07220
           12609         8.07363
           12610         5.16280
           12611         5.16819
           12612         5.28829
           12613         5.23768
           12614         5.28271
           12615         5.69433
           12616         5.98726
           12617         3.84433
           12618         5.76991
           12619         7.20523
           12620         7.65276
           12621         7.76385
           12622         6.86328
           12623         7.40287
           12624         7.39798
           12625         7.05206
           12626         6.60094
           12627         8.47111
           12628         8.47665
           12629         3.32095
           12630         3.29027
           12631         3.27274
           12632         4.33111
           12633         7.39630
           12634         4.72534
           12635         4.56526
           12636         6.35068
           12637         6.31510
           12638         6.31145
           12639         7.85594
           12640         7.48240
           12641         7.86146
           12642         8.44182
           12643         8.35013
           12644         8.96677
           12645         8.34747
           12646         8.43798
           12647         7.97413
           12648         8.00828
           12649         7.98097
           12650         7.44954
           12651         7.44571
           12652         8.57231
           12653         7.97947
           12654         8.53184
           12655         7.93065
           12656         8.52863
           12657         8.53933
           12658         9.16292
           12659         8.57509
           12660         8.56924
           12661         9.20914
           12662         8.59408
           12663         9.21695
           12664         8.59764
           12665         9.20933
           12666         9.07365
           12667         8.43722
           12668         7.86317
           12669         7.28474
           12670         7.39958
           12671         7.31042
           12672         7.88869
           12673         7.75609
           12674         2.99057
           12675         7.56871
           12676         8.00046
           12677         7.95587
           12678         7.99510
           12679         7.55651
           12680         8.42035
           12681         8.51683
           12682         8.38980
           12683         6.99200
           12684         4.30158
           12685         4.32915
           12686         8.42491
           12687         8.51446
           12688         9.09892
           12689         7.03036
           12690         7.38529
           12691         7.36897
           12692         8.57580
           12693         8.58133
           12694         6.56103
           12695         5.36955
           12696         5.22033
           12697         7.84308
           12698         7.32874
           12699         6.67493
           12700         6.74097
           12701         6.49044
           12702         6.21181
           12703         6.34091
           12704         6.04053
           12705         6.02601
           12706         6.38441
           12707         6.31747
           12708         6.42271
           12709         6.66202
           12710         6.57839
           12711         6.42327
           12712         6.35500
           12713         6.75383
           12714         6.97159
           12715         7.05799
           12716         6.76194
           12717         6.29082
           12718         6.23377
           12719         6.26284
           12720         6.31516
           12721         6.14638
           12722         6.32164
           12723         6.48979
           12724         6.30889
           12725         6.29598
           12726         6.15040
           12727         6.41986
           12728         6.41055
           12729         6.67582
           12730         6.59078
           12731         6.46436
           12732         6.08582
           12733         6.19650
           12734         6.20813
           12735         6.23649
           12736         6.09733
           12737         6.23269
           12738         6.75549
           12739         6.68789
           12740         6.11239
           12741         6.06543
           12742         6.43655
           12743         5.89711
           12744         5.83072
           12745         5.90255
           12746         5.81522
           12747         5.88358
           12748         5.91677
           12749         5.94557
           12750         5.82110
           12751         5.90709
           12752         6.00242
           12753         5.73070
           12754         5.76037
           12755         5.65768
           12756         5.74442
           12757         5.72223
           12758         5.60813
           12759         5.70452
           12760         5.63164
           12761         5.62685
           12762         5.74744
           12763         6.07117
           12764         5.94863
           12765         6.01429
           12766         5.60977
           12767         5.61674
           12768         5.57076
           12769         5.44597
           12770         5.64294
           12771         5.60656
           12772         5.64395
           12773         5.61264
           12774         5.64941
           12775         4.84168
           12776         4.87529
           12777         5.68150
           12778         5.69896
           12779         5.53991
           12780         5.63596
           12781         5.41722
           12782         5.41895
           12783         5.64917
           12784         5.50771
           12785         7.31876
           12786         7.15930
           12787         7.72223
           12788         7.87605
           12789         7.70659
           12790         2.41644
           12791         2.44529
           12792         5.20047
           12793         5.24096
           12794         5.23479
           12795         5.86316
           12796         5.87171
           12797         5.93434
           12798         5.72305
           12799         5.69508
           12800         5.64303
           12801         5.90015
           12802         6.14229
           12803         5.84566
           12804         5.52275
           12805         5.56260
           12806         5.65901
           12807         5.47371
           12808         5.50795
           12809         5.32865
           12810         5.33343
           12811         6.40337
           12812         6.94402
           12813         6.41081
           12814         6.72689
           12815         6.25584
           12816         6.72450
           12817         7.88201
           12818         8.58765
           12819         8.12141
           12820         8.79760
           12821         8.11149
           12822         8.57129
           12823         6.46706
           12824         6.62403
           12825         7.32203
           12826         6.98214
           12827         7.09053
           12828         5.16315
           12829         5.11353
           12830         5.29390
           12831         5.23858
           12832         5.35431
           12833         8.24482
           12834         7.53113
           12835         7.58131
           12836         6.85967
           12837         5.92270
           12838         6.77191
           12839         6.82241
           12840         6.40649
           12841         6.47931
           12842         6.42447
           12843         6.85273
           12844         6.88963
           12845         7.80763
           12846         8.31444
           12847         7.07593
           12848         7.49302
           12849         7.48949
           12850         7.10482
           12851         6.71878
           12852         6.71993
           12853         6.45549
           12854         7.12544
           12855         7.09860
           12856         6.82808
           12857         5.93638
           12858         5.72172
           12859         6.15750
           12860         5.88380
           12861         6.13434
           12862         5.70300
           12863         5.83198
           12864         6.03149
           12865         6.11689
           12866         6.03168
           12867         5.82818
           12868         6.10613
           12869         6.22985
           12870         6.25445
           12871         5.71483
           12872         5.91533
           12873         6.11385
           12874         6.39914
           12875         6.19294
           12876         6.22669
           12877         5.95318
           12878         6.06804
           12879         6.07345
           12880         6.16504
           12881         5.50523
           12882         5.49655
           12883         5.52704
           12884         5.65684
           12885         5.66256
           12886         5.40848
           12887         5.42103
           12888         5.54701
           12889         5.49778
           12890         5.28795
           12891         5.38265
           12892         5.31535
           12893         5.41034
           12894         5.36875
           12895         5.61700
           12896         5.69783
           12897         5.91101
           12898         6.06269
           12899         5.52284
           12900         5.52218
           12901         6.10834
           12902         6.13099
           12903         6.16414
           12904         4.45465
           12905         4.20523
           12906         4.35295
           12907         4.35282
           12908         5.70950
           12909         5.80015
           12910         5.71508
           12911         5.73243
           12912         5.62466
           12913         5.72475
           12914         5.60319
           12915         5.59088
           12916         5.74904
           12917         5.74973
           12918         5.75804
           12919         7.14710
           12920         7.39133
           12921         5.74803
           12922         5.79708
           12923         5.60722
           12924         5.61906
           12925         5.71030
           12926         5.67383
           12927         5.77716
           12928         5.88813
           12929         3.72405
           12930         5.79065
           12931         5.78405
           12932         5.78976
           12933         5.99667
           12934         5.99364
           12935         6.04318
           12936         5.91764
           12937         5.68249
           12938         6.38182
           12939         6.34677
           12940         6.81745
           12941         6.64387
           12942         6.95952
           12943         6.63719
           12944         5.67732
           12945         5.71310
           12946         5.79205
           12947         5.87623
           12948         6.50881
           12949         5.87483
           12950         6.15578
           12951         6.08681
           12952         6.00651
           12953         5.70974
           12954         5.83693
           12955         6.69077
           12956         5.89161
           12957         5.60185
           12958         5.80885
           12959         5.88320
           12960         5.09448
           12961         5.03823
           12962         6.27978
           12963         6.18464
           12964         5.02914
           12965         5.10097
           12966         5.03647
           12967         5.30354
           12968         5.39590
           12969         5.54444
           12970         5.39398
           12971         5.54393
           12972         5.44319
           12973         5.02353
           12974         5.01500
           12975         5.23994
           12976         5.49718
           12977         5.34938
           12978         5.40768
           12979         5.20523
           12980         5.33689
           12981         5.02010
           12982         5.10883
           12983         5.16224
           12984         5.01965
           12985         5.05622
           12986         5.01079
           12987         5.66866
           12988         5.05885
           12989         5.09640
           12990         5.96530
           12991         6.30229
           12992         5.72109
           12993         6.16326
           12994         5.85035
           12995         6.42751
           12996         6.67889
           12997         7.47444
           12998         7.04983
           12999         7.33457
           13000         6.54490
           13001         6.93806
           13002         6.70819
           13003         6.09017
           13004         5.86339
           13005         6.13144
           13006         5.65127
           13007         6.33671
           13008         6.40108
           13009         5.95636
           13010         6.90052
           13011         7.21259
           13012         6.66708
           13013         7.06071
           13014         6.73834
           13015         6.95126
           13016         6.06938
           13017         5.96574
           13018         5.84325
           13019         5.81032
           13020         5.85257
           13021         5.79564
           13022         5.72218
           13023         5.69461
           13024         5.73339
           13025         5.85961
           13026         5.88962
           13027         5.58430
           13028         5.57694
           13029         5.53277
           13030         6.12720
           13031         6.02059
           13032         6.97860
           13033         7.47723
           13034         7.72684
           13035         7.77530
           13036         7.24961
           13037         7.08120
           13038         5.91104
           13039         5.90578
           13040         5.94502
           13041         5.95518
           13042         5.70077
           13043         5.70598
           13044         5.67584
           13045         5.58063
           13046         5.91569
           13047         5.88120
           13048         5.32488
           13049         6.66338
           13050         6.17232
           13051         5.57454
           13052         5.50589
           13053         5.46787
           13054         5.48929
           13055         5.57032
           13056         5.59247
           13057         5.65349
           13058         5.65292
           13059         5.67359
           13060         5.82141
           13061         6.04046
           13062         5.40637
           13063         5.70426
           13064         5.60057
           13065         5.63117
           13066         5.57389
           13067         7.64703
           13068         8.27494
           13069         8.24235
           13070         7.62411
           13071         5.63857
           13072         5.60566
           13073         5.46688
           13074         5.50087
           13075         5.52675
           13076         5.62180
           13077         5.26533
           13078         5.23207
           13079         5.36235
           13080         5.17928
           13081         5.21289
           13082         5.06731
           13083         4.37848
           13084         4.60580
           13085         4.58981
           13086         4.37242
           13087         4.45769
           13088         4.73302
           13089         4.40747
           13090         4.58066
           13091         5.32994
           13092         4.45583
           13093         4.43041
           13094         4.58079
           13095         4.60504
           13096         4.51655
           13097         4.29854
           13098         4.22583
           13099         4.35584
           13100         6.86479
           13101         7.41357
           13102         7.40030
           13103         6.84704
           13104         5.54006
           13105         5.13486
           13106         5.12348
           13107         5.91258
           13108         5.99641
           13109         6.52803
           13110         6.30911
           13111         5.11834
           13112         5.66343
           13113         5.53864
           13114         5.57407
           13115         5.15121
           13116         4.20585
           13117         4.15590
           13118         3.90684
           13119         4.08812
           13120         4.20101
           13121         4.19806
           13122         4.80881
           13123         5.22309
           13124         4.81546
           13125         4.82708
           13126         5.14611
           13127         7.17120
           13128         7.56191
           13129         6.77956
           13130         6.93860
           13131         4.80963
           13132     656.862E-03
           13133     896.318E-03
           13134     806.271E-03
           13135     831.978E-03
           13136     785.300E-03
           13137     572.829E-03
           13138     768.060E-03
           13139     746.626E-03
           13140     192.397E-03
           13141     51.0523E-03
           13142     268.627E-03
           13143     142.283E-03
           13144     264.177E-03
           13145     43.0925E-03
           13146     421.001E-03
           13147     531.623E-03
           13148     516.415E-03
           13149     379.407E-03
           13150     284.263E-03
           13151     901.224E-03
           13152     706.204E-03
           13153     687.910E-03
           13154     555.370E-03
           13155     404.412E-03
           13156     497.719E-03
           13157     511.115E-03
           13158     267.141E-03
           13159     448.860E-03
           13160     272.435E-03
           13161     62.2265E-03
           13162     30.0627E-03
           13163     99.1565E-03
           13164     102.366E-03
           13165     64.1535E-03
           13166     772.940E-03
           13167     173.887E-03
           13168     393.121E-03
           13169     311.176E-03
           13170     238.935E-03
           13171     131.877E-03
           13172     144.604E-03
           13173     29.2418E-03
           13174     86.4339E-03
           13175     72.9585E-03
           13176     296.152E-03
           13177     337.501E-03
           13178     301.443E-03
           13179     188.591E-03
           13180     182.331E-03
           13181         6.14827
           13182         1.04748
           13183         1.58567
           13184         1.55967
           13185         1.70611
           13186         1.72975
           13187         1.40055
           13188     986.810E-03
           13189     666.074E-03
           13190     872.949E-03
           13191     843.387E-03
           13192         1.17773
           13193     964.415E-03
           13194     431.362E-03
           13195     474.363E-03
           13196     467.872E-03
           13197     879.039E-03
           13198     585.104E-03
           13199     698.711E-03
           13200     391.916E-03
           13201     507.903E-03
           13202         6.61917
           13203         6.49624
           13204     690.726E-03
           13205     709.759E-03
           13206     551.713E-03
           13207     647.993E-03
           13208     638.499E-03
           13209     369.760E-03
           13210     561.540E-03
           13211     117.889E-03
           13212     132.900E-03
           13213     247.741E-03
           13214     355.646E-03
           13215     463.350E-03
           13216     167.032E-03
           13217     164.253E-03
           13218     101.534E-03
           13219     260.742E-03
           13220     280.705E-03
           13221     787.513E-03
           13222     76.2652E-03
           13223     22.0964E-03
           13224     39.6541E-03
           13225         1.48657
           13226         1.21179
           13227         1.60668
           13228         1.20614
           13229         1.49013
           13230         1.17142
           13231         1.61814
           13232         1.89850
           13233         2.02695
           13234         2.00963
           13235         1.74322
           13236         2.20993
           13237         2.18608
           13238         2.50571
           13239         2.12192
           13240         2.14175
           13241         1.81463
           13242         1.49507
           13243     952.056E-03
           13244     951.876E-03
           13245         1.10359
           13246     956.666E-03
           13247     878.770E-03
           13248     875.624E-03
           13249         2.17758
           13250         1.80541
           13251         1.84659
           13252         2.18655
           13253         1.84730
           13254         2.06695
           13255         1.73514
           13256         2.07125
           13257         1.74885
           13258         1.26852
           13259     452.021E-03
           13260     500.875E-03
           13261     254.933E-03
           13262         1.37267
           13263         1.06025
           13264         1.53518
           13265         1.26023
           13266         1.53196
           13267     554.964E-03
           13268     695.923E-03
           13269     694.260E-03
           13270     610.219E-03
           13271     476.214E-03
           13272     467.849E-03
           13273     679.631E-03
           13274     872.061E-03
           13275     783.684E-03
           13276         3.83205
           13277         3.84691
           13278         4.11417
           13279         4.11788
           13280         4.09955
           13281         3.59593
           13282         3.63771
           13283         3.61535
           13284         3.52351
           13285         3.27584
           13286         3.18878
           13287         3.55742
           13288         3.31204
           13289         3.47572
           13290         3.24347
           13291         3.74296
           13292         4.11356
           13293         4.25275
           13294         4.36668
           13295         3.80909
           13296         2.22216
           13297         2.37366
           13298         2.23740
           13299         2.99696
           13300         2.93636
           13301         2.65728
           13302         2.85935
           13303         2.93276
           13304         4.22552
           13305         4.15192
           13306         4.21876
           13307         4.93507
           13308         4.86665
           13309         4.67457
           13310         4.77101
           13311         4.61113
           13312         6.67982
           13313         2.62234
           13314         2.88186
           13315         5.25477
           13316         3.18339
           13317         3.59883
           13318         3.91281
           13319         3.68085
           13320         5.44050
           13321         5.89493
           13322         5.64332
           13323         5.86249
           13324         5.52822
           13325         6.64739
           13326         6.04428
           13327         6.20279
           13328         6.07438
           13329         2.98968
           13330         5.55246
           13331         5.69312
           13332         6.26602
           13333         5.94378
           13334         6.06850
           13335         5.98467
           13336         5.94213
           13337         6.02120
           13338         5.91113
           13339         5.86362
           13340         5.81928
           13341         5.80346
           13342         5.81255
           13343         5.74678
           13344         7.64067
           13345         7.60761
           13346         7.31370
           13347         7.71896
           13348         8.07602
           13349         6.14226
           13350         6.07280
           13351         5.66914
           13352         5.69202
           13353         5.68920
           13354         5.61108
           13355         6.28156
           13356         6.36924
           13357         6.42011
           13358         5.67672
           13359         5.38839
           13360         5.78304
           13361         5.78713
           13362         5.75150
           13363         5.45733
           13364         5.14895
           13365         5.38398
           13366         5.30719
           13367         5.33777
           13368         5.24402
           13369         5.26866
           13370         5.26753
           13371         5.30252
           13372         5.16638
           13373         5.21171
           13374         5.19250
           13375         5.15111
           13376         5.44332
           13377         5.44852
           13378         5.42104
           13379         5.48411
           13380         5.79105
           13381         5.90466
           13382         6.65365
           13383         6.49162
           13384         5.58185
           13385         5.80685
           13386         5.97892
           13387         6.44431
           13388         6.75559
           13389         6.61486
           13390         6.62074
           13391         6.34578
           13392         6.41990
           13393         5.57577
           13394         3.28755
           13395         3.42288
           13396         2.26822
           13397         5.24300
           13398         5.33688
           13399         5.35309
           13400         11.8317
           13401         11.7238
           13402         12.7316
           13403         13.0984
           13404         14.3821
           13405         12.8791
           13406         5.57406
           13407         6.32875
           13408         4.09672
           13409         5.71828
           13410         4.05596
           13411         6.59283
           13412         4.01512
           13413         6.23957
           13414         7.09327
           13415         6.71420
           13416         6.75403
           13417         6.31343
           13418         5.48561
           13419         5.42482
           13420         5.32608
           13421         5.30760
           13422         5.26470
           13423         5.43255
           13424         5.43795
           13425         5.40323
           13426         5.43770
           13427         5.43083
           13428         5.46631
           13429         5.30689
           13430         5.17669
           13431         5.47279
           13432         5.47232
           13433         5.46434
           13434         5.47076
           13435         5.41113
           13436         2.61585
           13437         2.62152
           13438         4.76308
           13439         4.01794
           13440         5.42778
           13441         5.45702
           13442         5.46956
           13443         5.46716
           13444         5.44255
           13445         4.97380
           13446         4.78959
           13447         4.06786
           13448         4.30566
           13449         4.20442
           13450     995.892E-03
           13451     342.438E-03
           13452     863.267E-03
           13453     323.344E-03
           13454         1.05361
           13455     747.584E-03
           13456         1.01749
           13457     827.777E-03
           13458         1.40807
           13459         1.33380
           13460         1.74860
           13461         2.30621
           13462         5.46493
           13463         5.55075
           13464         5.31545
           13465         5.57140
           13466         1.99687
           13467         2.50791
           13468         1.96477
           13469         1.99125
           13470         1.31445
           13471         2.63980
           13472         2.88665
           13473         3.09695
           13474         2.72523
           13475         5.16289
           13476         6.11957
           13477         4.81088
           13478         3.29980
           13479         3.02074
           13480         3.85109
           13481         4.21501
           13482         4.05660
           13483         4.09210
           13484         4.24142
           13485         4.06036
           13486         3.47727
           13487         3.35488
           13488         2.57197
           13489         2.28118
           13490         2.26585
           13491         3.12941
           13492         3.42712
           13493         4.17735
           13494         4.69679
           13495         4.57257
           13496         4.88339
           13497         4.92478
           13498         5.02062
           13499         4.69644
           13500         9.33907
           13501         9.46952
           13502         9.74197
           13503         12.3563
           13504         12.5115
           13505         11.5535
           13506         1.57252
           13507         4.48230
           13508         4.22186
           13509         4.21700
           13510         4.38407
           13511         4.38989
           13512         4.04403
           13513         3.48381
           13514         4.75830
           13515         4.64631
           13516         4.91475
           13517         3.84981
           13518         3.72571
           13519         4.48322
           13520         4.31991
           13521         5.02999
           13522         5.08749
           13523         4.93709
           13524         4.48906
           13525         4.22571
           13526         3.90800
           13527         4.12372
           13528         4.12646
           13529         3.99430
           13530         4.34315
           13531         3.99865
           13532         4.38974
           13533         4.38429
           13534         5.88452
           13535         6.07651
           13536         6.06450
           13537         5.38143
           13538         5.52665
           13539         5.72171
           13540         5.38172
           13541         2.40345
           13542         3.02372
           13543         3.23781
           13544         2.83525
           13545         2.83085
           13546         2.60823
           13547         3.01411
           13548         1.35813
           13549         2.99777
           13550         3.33451
           13551         3.08664
           13552         3.03660
           13553         1.99410
           13554         2.46626
           13555         2.43724
           13556         5.90789
           13557         6.18349
           13558         5.92997
           13559         3.12230
           13560         3.18733
           13561         6.23680
           13562         5.72856
           13563     13.1732E-03
           13564         5.36562
           13565         4.80343
           13566         4.85374
           13567         4.79312
           13568         5.33500
           13569         5.30155
           13570         5.25921
           13571         5.29447
           13572         5.19074
           13573         5.16132
           13574         5.25017
           13575         6.75590
           13576         8.11726
           13577         7.50047
           13578         7.39714
           13579         5.43422
           13580         5.27546
           13581         5.73789
           13582         5.59040
           13583         4.12125
           13584         3.79904
           13585         3.86535
           13586         5.30912
           13587         5.17013
           13588         5.03464
           13589         4.83256
           13590         4.84064
           13591         14.9584
           13592         15.0917
           13593         5.11773
           13594         4.78152
           13595         5.13612
           13596         5.30397
           13597         8.30320
           13598         10.3993
           13599         8.81088
           13600         9.33447
           13601         8.67285
           13602         4.34658
           13603         4.81056
           13604         9.72688
           13605         8.72697
           13606         9.85548
           13607         11.1404
           13608         5.12463
           13609         5.30751
           13610         5.25240
           13611         1.22160
           13612         5.44229
           13613         5.53173
           13614         5.50507
           13615         5.51675
           13616         5.54184
           13617         5.37080
           13618         5.33938
           13619     938.238E-03
           13620         5.68805
           13621         5.40356
           13622     25.0512E-03
           13623     39.6621E-03
           13624     139.578E-03
           13625     30.1898E-03
           13626     29.2744E-03
           13627         5.71449
           13628         5.50221
           13629         4.97460
           13630         5.78834
           13631         5.75913
           13632         6.99962
           13633         6.99763
           13634         6.76880
           13635         5.70869
           13636         5.32049
           13637         9.14902
           13638         9.86148
           13639         9.33591
           13640         8.82843
           13641         8.13260
           13642         8.50953
           13643         4.17648
           13644         4.04502
           13645         4.19835
           13646         4.29376
           13647         5.90409
           13648         4.60332
           13649         4.90348
           13650         5.41229
           13651         5.82614
           13652         3.11037
           13653         3.04107
           13654         2.47284
           13655         2.40400
           13656         2.46451
           13657         2.45506
           13658         2.45034
           13659         2.90214
           13660         2.63109
           13661         5.44296
           13662         5.29916
           13663         5.38571
           13664         5.30441
           13665         5.35951
           13666         5.30682
           13667         5.18783
           13668         5.36956
           13669         5.28780
           13670         12.6164
           13671         14.0062
           13672         11.1146
           13673         11.5106
           13674         10.7053
           13675         13.6405
           13676         8.50031
           13677         5.88583
           13678         5.37655
           13679         5.45210
           13680         5.45460
           13681         5.45542
           13682         5.22908
           13683         5.18441
           13684         4.64105
           13685         2.73271
           13686         2.69301
           13687         2.39927
           13688     715.700E-03
           13689         1.18996
           13690     532.610E-03
           13691         4.60482
           13692         4.49288
           13693         4.75815
           13694         2.91749
           13695         2.83053
           13696         2.68912
           13697         3.28233
           13698         3.34053
           13699         3.41029
           13700         5.44914
           13701         5.23005
           13702         5.22685
           13703         5.37674
           13704         5.51988
           13705         5.52804
           13706         5.45524
           13707         5.46723
           13708         5.48169
           13709         5.48924
           13710         5.46048
           13711         5.28332
           13712         5.48490
           13713         5.44389
           13714         5.46206
           13715         5.29260
           13716         5.73755
           13717         5.84963
           13718         4.86458
           13719         2.58007
           13720         2.56850
           13721         2.55840
           13722         6.55936
           13723         6.35952
           13724         5.48959
           13725         10.7978
           13726         11.3218
           13727         11.7375
           13728         13.2392
           13729         12.3696
           13730         11.9408
           13731         9.71782
           13732         9.37058
           13733         10.8346
           13734         11.4530
           13735         11.6865
           13736         10.3337
           13737         5.94562
           13738     62.4493E-03
           13739         5.57668
           13740         5.53719
           13741         5.09474
           13742         5.45668
           13743         5.71900
           13744         5.22426
           13745         5.16972
           13746         5.06357
           13747     16.5422E-03
           13748         5.04965
           13749         3.97729
           13750         3.91430
           13751         5.78367
           13752         5.89286
           13753         8.06517
           13754         7.88218
           13755         6.68780
           13756         5.85453
           13757         5.39460
           13758         5.33108
           13759         5.32392
           13760         5.40624
           13761         6.03280
           13762         5.30432
           13763         1.41905
           13764         5.11840
           13765         5.07265
           13766         5.15532
           13767         5.10709
           13768         8.26929
           13769         5.22875
           13770         5.29012
           13771         5.59031
           13772         5.27095
           13773         5.07930
           13774         5.05433
           13775         5.13337
           13776         5.03940
           13777         5.18466
           13778         5.20022
           13779         5.24520
           13780         5.39916
           13781         7.70651
           13782         5.90746
           13783         6.04740
           13784         8.34945
           13785         8.81955
           13786         8.82150
           13787         5.07076
           13788         6.75209
           13789         6.75179
           13790         7.00371
           13791         6.57955
           13792         6.57905
           13793         6.33967
           13794         5.25877
           13795         5.41556
           13796         5.53088
           13797         2.55724
           13798     212.866E-03
           13799     22.7131E-03
           13800         5.62099
           13801         5.58679
           13802         5.29132
           13803         5.32396
           13804         5.32480
           13805         5.24715
           13806         5.22838
           13807         5.22521
           13808         5.17470
           13809         5.62972
           13810         5.66451
           13811         5.69633
           13812         5.62871
           13813         10.1611
           13814         10.0173
           13815         7.23545
           13816         9.77546
           13817         10.0620
           13818         14.4465
           13819     620.410E-03
           13820     864.316E-03
           13821     516.932E-03
           13822         5.54904
           13823         5.43850
           13824         5.36562
           13825         5.79118
           13826         5.72174
           13827         5.72041
           13828         5.75373
           13829         5.20292
           13830         4.47362
           13831         4.86845
           13832         4.15656
           13833         4.50225
           13834         4.19424
           13835         4.95627
           13836         5.71373
           13837         5.54210
           13838         5.63383
           13839         5.20321
           13840         5.26482
           13841         12.2019
           13842         11.6813
           13843         14.1859
           13844         10.4939
           13845         8.44447
           13846         5.19574
           13847         5.01055
           13848         5.34694
           13849         5.17318
           13850         5.38009
           13851         4.64464
           13852         5.59812
           13853         3.50091
           13854         3.65199
           13855         5.74323
           13856         5.75149
           13857         6.01511
           13858         5.36787
           13859         5.34056
           13860         5.99769
           13861         5.42572
           13862         5.44708
           13863         5.55085
           13864         4.92408
           13865         4.87392
           13866         4.66435
           13867         4.75813
           13868         3.48399
           13869         3.47351
           13870         5.70046
           13871         5.61527
           13872         8.10264
           13873         8.44094
           13874         4.67659
           13875         4.76914
           13876         4.49358
           13877         4.49145
           13878         4.51076
           13879         3.87156
           13880         5.26040
           13881         3.35787
           13882         5.90479
           13883     466.514E-03
           13884         3.43623
           13885         3.39308
           13886         4.24925
           13887         3.97830
           13888         4.23890
           13889         4.26733
           13890     99.8973E-03
           13891     96.5512E-03
           13892     77.3525E-03
           13893         3.66163
           13894         3.30489
           13895         3.68830
           13896         3.62578
           13897         3.85741
           13898         3.50311
           13899         3.47245
           13900         5.89079
           13901         4.75790
           13902         4.91864
           13903         13.0345
           13904         13.1845
           13905         14.4953
           13906         21.1062
           13907         21.7856
           13908         19.4030
           13909         5.35367
           13910         5.47360
           13911         5.64459
           13912         5.43030
           13913         5.16121
           13914         5.98743
           13915         3.74091
           13916         3.66231
           13917         3.70724
           13918         3.82478
           13919         3.86114
           13920         5.70084
           13921         4.05289
           13922         4.70631
           13923         4.36904
           13924         3.99260
           13925         4.02942
           13926         3.52266
           13927         3.89271
           13928         4.44671
           13929         2.67465
           13930         4.91888
           13931         10.2709
           13932         9.93318
           13933         10.5149
           13934         10.8441
           13935         9.98453
           13936         4.43907
           13937         4.01506
           13938         3.87221
           13939         5.11038
           13940         5.03772
           13941         5.28218
           13942         5.23625
           13943         4.10671
           13944         3.15793
           13945         3.18622
           13946         3.19488
           13947         3.14485
           13948         3.16996
           13949         3.41019
           13950         3.37742
           13951         3.46009
           13952         3.23824
           13953         3.56877
           13954         3.44455
           13955         3.44515
           13956         2.81394
           13957         2.80635
           13958         2.85338
           13959         3.39207
           13960         5.49035
           13961         4.17760
           13962         2.49007
           13963         2.83511
           13964         5.13239
           13965         5.08415
           13966         3.93776
           13967         4.93264
           13968         5.10569
           13969         5.53971
           13970         5.48293
           13971         5.45112
           13972         5.42782
           13973         2.51181
           13974         2.53254
           13975         2.87759
           13976         5.39709
           13977         2.49001
           13978         5.34676
           13979         5.19590
           13980         4.84149
           13981         4.80687
           13982         4.80639
           13983         1.84185
           13984         5.01398
           13985         5.37020
           13986         5.00822
           13987         5.02028
           13988         5.19071
           13989         3.70130
           13990         1.80220
           13991         2.12036
           13992         1.84019
           13993         5.65886
           13994         5.45211
           13995         4.77509
           13996         4.37409
           13997         4.78018
           13998         8.96757
           13999         12.8103
           14000         12.8253
           14001         17.0643
           14002         12.6190
           14003         12.6649
           14004         4.86050
           14005         5.31862
           14006         5.23793
           14007         4.98113
           14008         5.05278
           14009         2.47859
           14010         5.42969
           14011         5.43640
           14012         2.66007
           14013         2.38367
           14014         2.33837
           14015         6.87032
           14016         7.00794
           14017         2.31791
           14018         1.49406
           14019         1.48623
           14020     820.796E-03
           14021         2.52651
           14022         2.49562
           14023         2.49935
           14024         2.34452
           14025         2.59798
           14026         2.46816
           14027         3.56513
           14028         2.85434
           14029         2.52940
           14030         1.88470
           14031         2.82390
           14032     885.166E-03
           14033         7.37980
           14034         7.18385
           14035         7.18466
           14036         2.66741
           14037         2.96900
           14038         1.36796
           14039         1.28090
           14040         2.57945
           14041         1.28372
           14042         4.43988
           14043         2.30172
           14044         2.36615
           14045     963.325E-03
           14046         3.72293
           14047         2.54931
           14048         2.60453
           14049         4.87922
           14050         1.90327
           14051         1.58277
           14052         1.99552
           14053         1.06288
           14054         1.51527
           14055         1.49274
           14056         1.56381
           14057         1.13701
           14058         1.14757
           14059         5.01029
           14060         1.22960
           14061     867.535E-03
           14062     841.071E-03
           14063     801.068E-03
           14064         1.17185
           14065         2.31655
           14066         2.48684
           14067         2.69776
           14068         3.56598
           14069         3.32708
           14070         3.25171
           14071     792.522E-03
           14072     785.075E-03
           14073         4.11271
           14074         6.42222
           14075         1.53667
           14076         5.55828
           14077         5.46067
           14078         3.01616
           14079         2.83643
           14080         3.13424
           14081         2.99720
           14082         1.88303
           14083         1.25518
           14084         1.82307
           14085         1.22758
           14086         1.83850
           14087         1.28885
           14088         6.01093
           14089         6.28409
           14090         6.06997
           14091         6.06699
           14092         5.85881
           14093         1.92339
           14094     814.001E-03
           14095     803.726E-03
           14096     592.636E-03
           14097         5.58991
           14098         5.44158
           14099         4.93988
           14100         5.49225
           14101         5.12611
           14102         4.04888
           14103         4.24190
           14104         6.56991
           14105         6.79861
           14106         5.27381
           14107         4.78608
           14108         4.73393
           14109         6.23175
           14110         5.72439
           14111         5.65798
           14112         6.18374
           14113         6.53701
           14114         6.15007
           14115         5.70038
           14116         6.44604
           14117         2.62275
           14118         2.61631
           14119         8.55615
           14120         8.07657
           14121         7.91073
           14122         3.39787
           14123         3.38899
           14124         2.39474
           14125         5.38840
           14126         4.69387
           14127         5.49379
           14128         4.51233
           14129         3.73053
           14130         2.99839
           14131         3.82296
           14132         3.79254
           14133         2.96932
           14134         2.37673
           14135         1.74903
           14136         2.59258
           14137         3.30789
           14138         4.07556
           14139         3.26448
           14140         2.63879
           14141         2.62785
           14142         2.62812
           14143         1.68826
           14144     253.443E-03
           14145     182.034E-03
           14146     314.592E-03
           14147     181.193E-03
           14148     390.459E-03
           14149         2.64887
           14150     226.543E-03
           14151     396.398E-03
           14152     399.601E-03
           14153     592.167E-03
           14154     675.503E-03
           14155     589.783E-03
           14156         1.17542
           14157         2.62941
           14158         2.66375
           14159         2.64902
           14160         2.68665
           14161         2.65221
           14162         2.50634
           14163         3.78293
           14164         3.86811
           14165     731.953E-03
           14166     400.041E-03
           14167     479.487E-03
           14168     62.4424E-03
           14169     62.8678E-03
           14170     135.386E-03
           14171     159.473E-03
           14172     145.527E-03
           14173         4.27703
           14174         2.57899
           14175         2.47296
           14176         2.48719
           14177         3.28046
           14178         5.12318
           14179         2.70512
           14180     40.3275E-03
           14181     88.8779E-03
           14182     28.8726E-03
           14183     36.9944E-03
           14184         2.68212
           14185         2.51445
           14186         2.65993
           14187         2.45208
           14188         2.43807
           14189         2.30661
           14190         2.43815
           14191         2.45157
           14192         2.58468
           14193     41.1034E-03
           14194         5.59501
           14195         4.90021
           14196         3.32809
           14197         3.22916
           14198         5.00187
           14199         2.46242
           14200         2.45681
           14201         2.09411
           14202         2.18121
           14203     384.527E-03
           14204     355.668E-03
           14205     135.610E-03
           14206     108.352E-03
           14207     892.927E-03
           14208     877.828E-03
           14209         1.15018
           14210     101.988E-03
           14211     691.815E-03
           14212     607.173E-03
           14213     448.312E-03
           14214         3.94083
           14215         4.14007
           14216         5.60868
           14217         5.55466
           14218         4.30026
           14219         6.49552
           14220         6.50046
           14221         2.97708
           14222         3.52320
           14223         3.98167
           14224         3.71206
           14225         3.72702
           14226         3.98379
           14227         4.72874
           14228         4.62817
           14229         3.02838
           14230         3.68513
           14231         3.31212
           14232         3.29696
           14233         8.07744
           14234         8.53367
           14235         8.30996
           14236         9.04842
           14237         8.48823
           14238         4.94835
           14239         6.07461
           14240         5.66305
           14241         4.84385
           14242         6.13725
           14243         6.08850
           14244         6.19198
           14245         5.92385
           14246         6.28607
           14247         5.77669
           14248         5.67547
           14249         5.77991
           14250         6.90701
           14251         4.97536
           14252         3.47670
           14253         3.76370
           14254         4.32920
           14255         4.12958
           14256         4.35267
           14257         5.06470
           14258         4.52979
           14259         4.92249
           14260         5.31998
           14261         3.88914
           14262         4.10862
           14263         4.24232
           14264         6.75355
           14265         7.00224
           14266         6.53035
           14267         6.76799
           14268         3.41265
           14269         5.54430
           14270         4.83471
           14271         7.65574
           14272         5.30526
           14273         5.67845
           14274         5.71223
           14275         5.68703
           14276         4.18234
           14277         5.67233
           14278         2.51820
           14279         2.52338
           14280         2.52625
           14281         2.51715
           14282         5.39900
           14283         2.74130
           14284         2.58071
           14285         2.58074
           14286         2.72890
           14287         5.26406
           14288         5.70426
           14289         5.68734
           14290         3.74038
           14291         3.49092
           14292         5.70971
           14293         2.79667
           14294         2.71563
           14295         5.74722
           14296         6.10817
           14297     590.332E-03
           14298         1.04229
           14299         1.78179
           14300         1.71022
           14301     527.563E-03
           14302         1.85115
           14303         2.08928
           14304         2.68930
           14305         2.73822
           14306         2.78172
           14307         2.34484
           14308         2.42121
           14309         2.98411
           14310         3.21151
           14311         4.01496
           14312         4.26047
           14313         3.96650
           14314         3.16214
           14315         1.56340
           14316         1.15690
           14317         1.16106
           14318         1.12056
           14319         1.43518
           14320     769.870E-03
           14321     705.417E-03
           14322     746.427E-03
           14323         5.15758
           14324         2.05035
           14325         1.57275
           14326     491.625E-03
           14327     778.928E-03
           14328     752.511E-03
           14329         3.62016
           14330         3.49922
           14331     53.6061E-03
           14332     96.0489E-03
           14333     33.8446E-03
           14334         7.71982
           14335         7.56194
           14336         7.79889
           14337         8.45139
           14338         8.57636
           14339         8.44216
           14340         7.12433
           14341         7.30142
           14342         5.93780
           14343         2.00725
           14344         1.99713
           14345         1.65181
           14346         11.8876
           14347     176.986E-03
           14348     49.3076E-03
           14349         9.18420
           14350         9.18897
           14351         5.88534
           14352         5.16854
           14353         6.61507
           14354         6.33606
           14355         2.43287
           14356     95.6504E-03
           14357     127.362E-03
           14358     93.5443E-03
           14359     108.072E-03
           14360     32.8249E-03
           14361     415.183E-03
           14362         2.30596
           14363         2.05560
           14364         1.90743
           14365         2.05705
           14366         2.02863
           14367     26.5696E-03
           14368         2.79229
           14369     75.3956E-03
           14370     84.6174E-03
           14371     82.4939E-03
           14372     29.8970E-03
           14373     119.991E-03
           14374         1.32425
           14375         2.23680
           14376         4.32800
           14377         3.84451
           14378         1.41124
           14379         1.33151
           14380     722.867E-03
           14381         6.90926
           14382         7.14213
           14383         7.23592
           14384         8.39148
           14385         8.21173
           14386         8.06307
           14387         2.53335
           14388         15.1765
           14389         21.3093
           14390         17.6561
           14391         21.6822
           14392         15.2529
           14393         18.1744
           14394         1.63350
           14395         12.7840
           14396         15.4973
           14397         10.3439
           14398         11.2529
           14399         1.96373
           14400         2.72354
           14401         2.72964
           14402         1.80299
           14403         3.30010
           14404     818.007E-03
           14405         1.01434
           14406         5.93689
           14407         5.03185
           14408         4.44835
           14409         5.29241
           14410         5.48521
           14411         4.60816
           14412         2.22995
           14413         2.16395
           14414         2.16395
           14415         3.83777
           14416         4.02554
           14417         4.20552
           14418         2.90837
           14419         3.88543
           14420         1.31789
           14421         2.21064
           14422         2.21116
           14423         2.21769
           14424         2.39232
           14425         2.45768
           14426         5.92635
           14427         6.32396
           14428         6.57779
           14429         3.74131
           14430         3.68866
           14431         3.85896
           14432         4.23295
           14433         4.02035
           14434         2.52334
           14435         2.47938
           14436         2.54649
           14437         6.20126
           14438         6.27786
           14439         7.49013
           14440         7.02455
           14441         7.11990
           14442     389.112E-03
           14443     259.170E-03
           14444         2.60256
           14445         4.13835
           14446         1.41281
           14447         2.57264
           14448         4.18980
           14449         1.62682
           14450         2.02879
           14451         1.75038
           14452         9.27116
           14453         8.49809
           14454         7.96573
           14455         8.90097
           14456         1.96688
           14457         4.96677
           14458         4.88241
           14459         4.70831
           14460         4.77789
           14461         4.32555
           14462         5.45206
           14463         7.90734
           14464         10.2306
           14465         9.78930
           14466         14.0899
           14467         20.5890
           14468         18.4126
           14469         24.7898
           14470         17.0301
           14471         20.2178
           14472         3.48795
           14473         3.60816
           14474         16.0326
           14475         12.7097
           14476         12.2450
           14477         9.26213
           14478         14.5053
           14479         16.1627
           14480         14.6270
           14481         10.7381
           14482         5.57967
           14483         5.98710
           14484         6.10724
           14485         17.9366
           14486         21.8130
           14487         5.47490
           14488         5.35994
           14489         20.5911
           14490         11.6735
           14491         11.6471
           14492         6.98451
           14493         14.4580
           14494         14.3342
           14495         12.4019
           14496         11.9599
           14497         9.43631
           14498         12.2725
           14499         11.7212
           14500         8.15821
           14501         9.06993
           14502         9.84094
           14503         10.4510
           14504         9.13104
           14505         6.17320
           14506         6.22979
           14507         5.59871
           14508         5.61470
           14509         5.50447
           14510         5.43074
           14511         6.11155
           14512         5.83228
           14513         5.75146
           14514         5.62947
           14515         4.94160
           14516         4.04899
           14517         4.89818
           14518         5.88920
           14519         6.81463
           14520         5.94375
           14521         5.72922
           14522         5.59549
           14523         6.65534
           14524         13.5288
           14525         5.97847
           14526         6.76830
           14527         7.22279
           14528         5.44296
           14529         5.73191
           14530         5.08265
           14531         8.33053
           14532         7.70726
           14533         18.4013
           14534         18.3204
           14535         5.79228
           14536         11.2663
           14537         10.1767
           14538         10.6707
           14539         8.16381
           14540         7.98692
           14541         8.16959
           14542         11.0340
           14543         7.09210
           14544         7.70026
           14545         7.40206
           14546         6.38802
           14547         18.9064
           14548         13.6454
           14549         13.4878
           14550         7.21652
           14551         13.1194
           14552         7.30384
           14553         7.32443
           14554         6.10528
           14555         6.37491
           14556         8.97516
           14557         8.98148
           14558         6.04251
           14559         13.8617
           14560         14.2829
           14561         13.8426
           14562         13.0891
           14563         12.2054
           14564         10.5042
           14565         14.7194
           14566         11.8367
           14567         9.17693
           14568         7.76741
           14569         9.84687
           14570         9.42901
           14571         8.97086
           14572         8.93899
           14573         9.83341
           14574         6.10947
           14575         5.88292
           14576         7.51195
           14577         5.25722
           14578         17.3145
           14579         10.5895
           14580         9.67118
           14581         11.9104
           14582         10.7627
           14583         9.59251
           14584         6.29762
           14585         6.55038
           14586         7.17429
           14587         6.49421
           14588         6.30654
           14589         8.59346
           14590         8.30028
           14591         9.15911
           14592         8.84423
           14593         9.29212
           14594         8.40369
           14595         6.85814
           14596         7.06186
           14597         17.0388
           14598         14.9272
           14599         16.6519
           14600         13.4160
           14601         14.5858
           14602         14.6617
           14603     996.536E-03
           14604         1.86415
           14605         1.22268
           14606         1.82015
           14607     964.195E-03
           14608         1.52055
           14609         1.29604
           14610         1.01410
           14611         6.11010
           14612         8.59572
           14613         3.08673
           14614         4.01560
           14615         3.75749
           14616         8.07764
           14617         22.2315
           14618         21.6234
           14619         4.50798
           14620         13.1655
           14621         9.84116
           14622         10.7342
           14623         7.98964
           14624         21.9338
           14625         22.3113
           14626         12.0948
           14627         11.7713
           14628         16.9188
           14629         7.55391
           14630         6.62655
           14631     167.844E-03
           14632     172.483E-03
           14633         10.4861
           14634         18.6666
           14635         14.4302
           14636         13.4204
           14637         8.48200
           14638         7.90044
           14639         7.44284
           14640         8.13817
           14641         8.49318
           14642         9.13842
           14643         12.7626
           14644         14.4811
           14645         21.6092
           14646         6.85849
           14647         6.82582
           14648         7.18525
           14649         6.54760
           14650         7.18763
           14651         6.92105
           14652         7.26296
           14653         7.28390
           14654         4.25750
           14655         8.20142
           14656         8.82472
           14657         5.84002
           14658         2.35470
           14659         3.03658
           14660         7.99760
           14661         7.58551
           14662         12.3665
           14663         12.3592
           14664         14.9743
           14665         10.6330
           14666         9.91702
           14667         7.27844
           14668         6.69173
           14669         10.5251
           14670         8.07359
           14671         1.58008
           14672         1.41562
           14673         1.23690
           14674         1.88559
           14675         1.56455
           14676         5.80975
           14677         3.89989
           14678         4.05919
           14679         6.64132
           14680         6.43014
           14681         6.45688
           14682         5.68151
           14683         5.81056
           14684         5.44970
           14685         4.37226
           14686         7.40953
           14687         5.05252
           14688         7.64604
           14689         7.15504
           14690         7.64554
           14691         3.63406
           14692         3.90406
           14693         1.55369
           14694         1.51383
           14695         1.57539
           14696         1.09040
           14697         1.08155
           14698     856.130E-03
           14699     593.111E-03
           14700         6.71371
           14701         7.48516
           14702         6.10782
           14703         5.87524
           14704         5.75118
           14705         21.3428
           14706         29.4230
           14707         20.2296
           14708         7.78453
           14709         6.09176
           14710         4.63671
           14711         6.40340
           14712         6.85873
           14713         7.48964
           14714         7.86231
           14715         4.94203
           14716         3.81471
           14717         4.45833
           14718         5.40004
           14719         6.73841
           14720         5.98883
           14721         3.49899
           14722         3.24069
           14723         4.20192
           14724         4.58592
           14725         18.9253
           14726         4.29241
           14727         10.1828
           14728         12.2930
           14729         12.1238
           14730         5.80023
           14731         5.90885
           14732         6.96035
           14733         16.9847
           14734         23.4453
           14735         22.9803
           14736         31.3634
           14737         23.0646
           14738         23.4697
           14739         6.79710
           14740         7.63429
           14741         4.26550
           14742         13.6522
           14743         21.6118
           14744         6.00864
           14745         6.20230
           14746         6.39540
           14747         6.39410
           14748         7.50441
           14749         5.83417
           14750         5.64954
           14751         5.30333
           14752         5.30289
           14753         5.15473
           14754         5.32223
           14755         11.4735
           14756         11.8522
           14757         12.0524
           14758         11.3219
           14759         12.6112
           14760         2.90789
           14761         5.64971
           14762         5.64960
           14763         5.30319
           14764         4.24266
           14765         4.01082
           14766         3.02399
           14767         2.95427
           14768     841.300E-03
           14769         1.48492
           14770     999.396E-03
           14771         1.11224
           14772         1.16706
           14773         1.60438
           14774         1.51606
           14775         3.73340
           14776         3.78553
           14777         4.14636
           14778     857.536E-03
           14779         1.28292
           14780         1.35796
           14781         1.24373
           14782         3.94716
           14783         2.15515
           14784         3.72353
           14785         4.02810
           14786         2.37517
           14787         3.10586
           14788         2.41629
           14789         2.46466
           14790         3.36923
           14791         3.36926
           14792         3.45645
           14793         4.05316
           14794         3.38207
           14795         4.52759
           14796         3.26166
           14797         3.93244
           14798         3.41911
           14799         3.41919
           14800         3.11445
           14801         3.11458
           14802         2.92789
           14803         4.49719
           14804         2.35842
           14805         2.08949
           14806         3.03472
           14807         2.81453
           14808         2.81267
           14809         2.80791
           14810         2.65995
           14811         2.66318
           14812         3.52743
           14813         4.00111
           14814         3.48775
           14815         3.69560
           14816         3.70672
           14817         5.56321
           14818         6.07546
           14819         7.02826
           14820         6.60663
           14821         5.61468
           14822         5.23269
           14823         2.92335
           14824         3.22913
           14825         3.65952
           14826         3.18321
           14827         3.61286
           14828         3.21033
           14829         2.61114
           14830         2.52687
           14831         2.65427
           14832         2.49893
           14833         2.97324
           14834         3.52197
           14835         3.03626
           14836         2.24173
           14837         2.92305
           14838         2.96134
           14839         2.81495
           14840         1.24762
           14841         1.34073
           14842         1.24772
           14843         1.41618
           14844         1.34927
           14845         1.67329
           14846         1.21896
           14847         1.61633
           14848         1.00739
           14849         2.66305
           14850         1.71369
           14851         1.55773
           14852         14.3951
           14853         11.9865
           14854         16.1977
           14855         7.23599
           14856         6.18858
           14857         5.98304
           14858         9.88052
           14859         11.3039
           14860         12.7287
           14861     635.557E-03
           14862     689.790E-03
           14863     492.305E-03
           14864         1.79981
           14865         4.86886
           14866         3.26263
           14867         4.00471
           14868         2.12297
           14869         2.20718
           14870         2.49761
           14871         1.60917
           14872         1.75183
           14873         2.05509
           14874         2.96022
           14875         2.91204
           14876         1.71650
           14877     672.962E-03
           14878     948.084E-03
           14879     916.894E-03
           14880         11.1910
           14881         15.5363
           14882         17.9503
           14883         12.7183
           14884         15.6494
           14885         2.80451
           14886         2.35358
           14887         2.06828
           14888         2.15476
           14889         2.56818
           14890         2.74788
           14891     675.381E-03
           14892     799.487E-03
           14893     425.556E-03
           14894     357.442E-03
           14895     221.322E-03
           14896     220.495E-03
           14897     355.604E-03
           14898     828.040E-03
           14899     361.808E-03
           14900     195.987E-03
           14901     728.262E-03
           14902         4.93839
           14903         3.87065
           14904         5.51122
           14905         5.83276
           14906         4.87151
           14907     38.5846E-03
           14908     641.596E-03
           14909     33.8538E-03
           14910     121.215E-03
           14911     182.193E-03
           14912         11.6357
           14913         5.82066
           14914         4.82694
           14915         4.76355
           14916         4.84678
           14917         6.00755
           14918     97.1632E-03
           14919         11.9022
           14920         15.2679
           14921         3.88594
           14922         3.88812
           14923         3.55837
           14924         3.43608
           14925         5.85062
           14926         7.75805
           14927         5.95638
           14928         7.02899
           14929         6.67213
           14930         6.75302
           14931         9.72725
           14932         9.76323
           14933         6.70295
           14934         10.9645
           14935         9.07181
           14936         7.75118
           14937         6.88439
           14938         2.65731
           14939         4.31734
           14940         4.20851
           14941         5.06488
           14942         4.46351
           14943         2.65172
           14944         2.16982
           14945         2.14986
           14946         5.99200
           14947         3.76334
           14948         4.01278
           14949         3.52937
           14950         3.18326
           14951         3.27846
           14952         2.24894
           14953         5.04415
           14954         4.92475
           14955         5.12903
           14956         4.13930
           14957         4.25175
           14958         11.9334
           14959         7.04128
           14960         8.49402
           14961         9.39127
           14962         7.69721
           14963         6.86563
           14964         2.69552
           14965         2.11887
           14966         10.2223
           14967         2.07514
           14968         4.14474
           14969         3.90007
           14970         3.85152
           14971         3.38890
           14972         2.82183
           14973         3.12650
           14974         3.28754
           14975         7.79890
           14976         8.72653
           14977         8.35150
           14978         8.69174
           14979         8.09057
           14980         8.59114
           14981         8.26222
           14982         8.80312
           14983         10.6610
           14984         9.99470
           14985         11.4841
           14986         2.46262
           14987         14.5282
           14988         2.47379
           14989         9.77869
           14990         8.41364
           14991         8.80556
           14992         7.97718
           14993         7.63658
           14994         2.52077
           14995         11.9486
           14996         8.97123
           14997         7.63262
           14998         5.46285
           14999         2.59750
           15000         2.59813
           15001         2.60079
           15002         8.99816
           15003         8.24210
           15004         6.79072
           15005         2.59033
           15006         2.59019
           15007         2.57280
           15008         8.53434
           15009         8.25185
           15010         9.20752
           15011         9.10298
           15012         8.35163
           15013         7.84320
           15014         8.12818
           15015         14.5018
           15016         12.9505
           15017         14.5191
           15018         2.65681
           15019         4.46172
           15020         11.0385
           15021         13.3972
           15022         12.3337
           15023         10.4554
           15024         8.55259
           15025         9.19422
           15026         11.4864
           15027         13.8059
           15028         4.92503
           15029         2.61074
           15030         2.62916
           15031         2.64049
           15032         12.5093
           15033         14.1997
           15034         12.5974
           15035         13.0550
           15036         11.8576
           15037         2.63824
           15038         5.98833
           15039         2.64775
           15040         2.65674
           15041         6.18256
           15042         5.25394
           15043         5.12904
           15044         9.80684
           15045         12.1801
           15046         12.2781
           15047         10.3243
           15048         8.75369
           15049         7.88233
           15050         7.91599
           15051         6.69500
           15052         6.73681
           15053         6.21165
           15054         7.30667
           15055         2.37749
           15056         2.37718
           15057         2.59559
           15058         2.50188
           15059         12.1084
           15060         4.25613
           15061         4.16432
           15062         3.65195
           15063         11.3281
           15064         4.33532
           15065         3.86178
           15066         2.50872
           15067         2.53812
           15068         4.97552
           15069         6.82648
           15070         7.27189
           15071         5.86224
           15072         12.8361
           15073         7.81049
           15074         7.67916
           15075         14.7425
           15076         7.01065
           15077         5.65518
           15078         7.11055
           15079         5.17316
           15080         5.27717
           15081         3.93903
           15082         5.89399
           15083         2.55444
           15084         2.56765
           15085         2.36096
           15086         2.56687
           15087         8.38903
           15088         20.5064
           15089         10.3583
           15090         12.4753
           15091         15.2959
           15092         6.92818
           15093         6.55663
           15094         6.69507
           15095         2.69227
           15096         2.50995
           15097         2.50549
           15098         6.73287
           15099         6.50414
           15100         7.06720
           15101         6.97086
           15102         7.21719
           15103         5.09848
           15104         5.12726
           15105         9.02560
           15106         8.86518
           15107         9.92125
           15108         9.05350
           15109         2.81917
           15110         8.58237
           15111         7.24067
           15112         7.06051
           15113         6.90940
           15114         7.44505
           15115         8.72288
           15116         8.79562
           15117         8.20956
           15118         7.10440
           15119         7.15813
           15120         7.76476
           15121         8.11447
           15122         7.96402
           15123         5.70047
           15124         5.77388
           15125         6.16119
           15126         6.82936
           15127         6.40469
           15128         2.53152
           15129         2.54663
           15130         9.46397
           15131         10.4523
           15132         9.57677
           15133         9.60904
           15134         5.69601
           15135         2.50659
           15136         9.33327
           15137         2.53624
           15138         7.71499
           15139         7.21923
           15140         8.95088
           15141         15.3448
           15142         9.63932
           15143         5.40327
           15144         5.41549
           15145         5.41297
           15146         2.50286
           15147         2.48636
           15148         2.50583
           15149         9.68011
           15150         9.53163
           15151         9.88264
           15152         10.3239
           15153         2.67793
           15154         10.6466
           15155         5.48638
           15156         5.48743
           15157         5.37228
           15158         4.98049
           15159         3.62381
           15160         3.95230
           15161         4.65967
           15162         2.62064
           15163         2.72664
           15164         5.43694
           15165         5.46593
           15166         5.42620
           15167         2.79973
           15168         2.80334
           15169         2.57862
           15170         3.00319
           15171         2.99787
           15172         2.57986
           15173         5.77758
           15174         5.95831
           15175         6.10005
           15176         6.33963
           15177         6.65701
           15178         5.38970
           15179         7.25247
           15180         6.78772
           15181         5.27097
           15182         5.08195
           15183         5.10511
           15184         6.35845
           15185         5.90349
           15186         4.65117
           15187         4.98298
           15188         5.92693
           15189         7.71930
           15190         8.02271
           15191         7.40324
           15192         8.65564
           15193         7.32358
           15194         7.11777
           15195         3.17331
           15196         3.18181
           15197         5.38725
           15198         5.23846
           15199         3.12191
           15200         3.73563
           15201         3.55168
           15202         3.31128
           15203         2.71520
           15204         2.88479
           15205         5.58365
           15206         5.64721
           15207         3.78133
           15208         3.13961
           15209         3.08832
           15210         3.87845
           15211         5.61683
           15212         7.36548
           15213         7.40303
           15214         8.83893
           15215         2.65316
           15216         3.45218
           15217         3.64210
           15218         3.06625
           15219         9.35542
           15220         9.07692
           15221         9.91398
           15222         9.26975
           15223         9.09415
           15224         2.73896
           15225         6.79697
           15226         5.11622
           15227         5.10458
           15228         5.22157
           15229         3.47614
           15230         4.31368
           15231         5.43273
           15232         2.52898
           15233         4.80976
           15234         4.53417
           15235         2.64879
           15236         2.69616
           15237         2.68619
           15238         2.65133
           15239         2.66837
           15240         5.46854
           15241     816.310E-03
           15242     790.002E-03
           15243     767.850E-03
           15244     874.382E-03
           15245     932.626E-03
           15246     384.743E-03
           15247     564.781E-03
           15248     75.8355E-03
           15249     94.6159E-03
           15250         5.51353
           15251     471.172E-03
           15252     495.851E-03
           15253     318.398E-03
           15254     187.558E-03
           15255     510.989E-03
           15256         5.48796
           15257         10.3544
           15258         1.63096
           15259         1.52477
           15260         1.46315
           15261         1.60922
           15262         5.46501
           15263         5.41940
           15264         2.23253
           15265         2.98837
           15266         2.52418
           15267         2.13275
           15268         1.53893
           15269         1.40109
           15270         1.58644
           15271         2.19007
           15272         2.10564
           15273     398.417E-03
           15274         1.14547
           15275     376.349E-03
           15276     847.745E-03
           15277     381.592E-03
           15278         1.00829
           15279         1.74189
           15280         1.67224
           15281         1.00680
           15282         1.33567
           15283         1.12695
           15284         1.14578
           15285         1.15909
           15286         1.01896
           15287         1.43313
           15288         1.25859
           15289         5.61339
           15290         5.60685
           15291         5.45816
           15292         1.62524
           15293         2.40801
           15294         1.07575
           15295         1.57954
           15296     921.982E-03
           15297         5.40044
           15298         4.63015
           15299         4.72468
           15300         5.20096
           15301         6.86967
           15302         6.01698
           15303         4.43395
           15304         4.31191
           15305         1.98346
           15306         1.72461
           15307         1.66616
           15308         3.45012
           15309         2.12558
           15310         2.18076
           15311         1.59149
           15312         1.75676
           15313         2.56113
           15314         5.36103
           15315         8.33383
           15316         9.08360
           15317         2.20817
           15318         3.03008
           15319         2.47211
           15320         2.04956
           15321         5.15698
           15322         4.95456
           15323         5.31047
           15324         5.21395
           15325         5.07305
           15326         4.50350
           15327         5.74609
           15328         3.35853
           15329         3.41405
           15330         3.66270
           15331         7.19348
           15332         7.78320
           15333         5.88847
           15334         7.85276
           15335         7.38073
           15336         8.50224
           15337         11.1566
           15338         6.93513
           15339         2.80776
           15340         11.4232
           15341         2.48208
           15342         5.76480
           15343         8.17935
           15344         7.90148
           15345         8.18194
           15346         6.73769
           15347         8.81854
           15348         5.63206
           15349         2.41212
           15350         11.7375
           15351         10.3591
           15352         2.64740
           15353         2.55074
           15354         7.73551
           15355         2.65244
           15356         5.72257
           15357         6.46313
           15358         6.24819
           15359         3.05317
           15360         8.75441
           15361         8.38776
           15362         9.04473
           15363         9.25062
           15364         9.65376
           15365         8.98800
           15366         29.8523
           15367         23.0381
           15368         30.2911
           15369         5.69043
           15370         10.1479
           15371         11.4805
           15372         8.96905
           15373         8.44034
           15374         9.50529
           15375         9.03546
           15376         6.12068
           15377         5.70420
           15378         5.54799
           15379         5.60433
           15380         5.48343
           15381         7.21271
           15382         6.74572
           15383         7.11328
           15384         7.58715
           15385         7.16805
           15386         10.9532
           15387         11.9496
           15388         11.5178
           15389         23.5678
           15390         5.71688
           15391         9.92751
           15392         6.76921
           15393         5.92963
           15394         5.71191
           15395         5.60864
           15396         6.76137
           15397         10.3395
           15398         10.4600
           15399         11.6183
           15400         11.3531
           15401         7.72766
           15402         7.69962
           15403         8.36470
           15404         7.15509
           15405         7.18852
           15406         3.79653
           15407         4.00337
           15408         19.5676
           15409         29.9589
           15410         6.32678
           15411         10.4507
           15412         11.3775
           15413         9.08515
           15414         9.86391
           15415         6.13324
           15416         6.51702
           15417         6.22060
           15418         10.5822
           15419         9.24903
           15420         10.8362
           15421         2.02740
           15422         1.84812
           15423         1.99487
           15424         2.67075
           15425         4.88514
           15426         6.49839
           15427         5.45801
           15428         3.19849
           15429         3.67833
           15430         8.48897
           15431         6.31807
           15432         5.02658
           15433         4.63899
           15434         4.38156
           15435         9.90675
           15436         4.85988
           15437         5.35884
           15438         5.28285
           15439         4.27827
           15440         6.47848
           15441         5.98120
           15442         5.15039
           15443         5.07452
           15444         4.98214
           15445         5.94835
           15446         5.54593
           15447         5.46012
           15448         6.05083
           15449         2.50453
           15450         4.19248
           15451         4.05298
           15452         3.94111
           15453         5.38420
           15454         5.40325
           15455         8.19330
           15456         7.71631
           15457         8.64900
           15458         5.44395
           15459     956.026E-03
           15460         3.97252
           15461         4.04878
           15462         4.51872
           15463         4.64921
           15464         7.14889
           15465         7.11440
           15466         7.37941
           15467         6.98860
           15468         4.45754
           15469         5.84954
           15470         3.39335
           15471         3.84540
           15472         1.47193
           15473         1.83275
           15474         3.12020
           15475         2.55593
           15476         3.28309
           15477         3.51634
           15478     805.702E-03
           15479     558.237E-03
           15480     485.840E-03
           15481     783.100E-03
           15482     479.138E-03
           15483     788.315E-03
           15484     518.319E-03
           15485     355.434E-03
           15486     867.185E-03
           15487         4.87934
           15488         1.67120
           15489     535.986E-03
           15490     411.970E-03
           15491         1.35176
           15492     946.487E-03
           15493     906.061E-03
           15494         5.77638
           15495         1.59242
           15496         4.76251
           15497         5.82030
           15498         8.09904
           15499         10.9469
           15500         9.86926
           15501         2.25421
           15502         1.55199
           15503         2.22639
           15504         8.74588
           15505         3.83732
           15506         1.90995
           15507         1.08958
           15508         1.43153
           15509         2.39006
           15510         2.34867
           15511         1.93102
           15512         2.09969
           15513         3.02193
           15514         3.07237
           15515         2.87227
           15516         3.36774
           15517         3.13189
           15518         2.31389
           15519         2.63931
           15520         2.04553
           15521         2.34758
           15522         5.12475
           15523         5.07333
           15524         6.61296
           15525         8.54670
           15526         8.77606
           15527         5.01969
           15528         6.25345
           15529         4.61701
           15530         4.54428
           15531         5.19122
           15532         5.08538
           15533         4.98642
           15534         5.31618
           15535     580.688E-03
           15536     454.814E-03
           15537         1.16867
           15538         5.49098
           15539         4.68465
           15540         7.83762
           15541         7.29774
           15542         11.1879
           15543         9.34113
           15544         9.78971
           15545         1.67256
           15546     903.870E-03
           15547     979.732E-03
           15548         5.56707
           15549         2.70590
           15550         1.18418
           15551         2.61452
           15552         2.59190
           15553         4.73916
           15554         1.39197
           15555         1.36484
           15556         1.90097
           15557         1.35395
           15558         2.12529
           15559         1.90038
           15560         3.30736
           15561         5.01001
           15562         5.26690
           15563         5.07241
           15564         3.38808
           15565         5.07404
           15566         3.08062
           15567         3.42040
           15568         2.44151
           15569         5.74074
           15570         10.0480
           15571         6.22363
           15572         6.31089
           15573         6.96876
           15574         4.69185
           15575         3.73402
           15576         4.05332
           15577         3.61685
           15578         4.96231
           15579         5.13299
           15580         6.91939
           15581         7.27519
           15582         4.06629
           15583         3.79236
           15584         3.59844
           15585         3.59138
           15586         3.76123
           15587         3.31899
           15588         3.48139
           15589         3.03533
           15590         3.35600
           15591         2.68503
           15592         3.26181
           15593         3.48260
           15594         5.86231
           15595         5.57854
           15596         2.86060
           15597         2.96627
           15598         3.30171
           15599         2.68136
           15600         10.7182
           15601         15.2684
           15602         3.44908
           15603         2.76841
           15604         2.79737
           15605         2.83097
           15606         2.11351
           15607         2.03026
           15608         2.37152
           15609         4.80312
           15610         3.90531
           15611         4.26435
           15612         4.79579
           15613         4.39296
           15614         3.99469
           15615         3.59216
           15616         5.38437
           15617         3.09257
           15618         4.83454
           15619         5.37645
           15620         6.06056
           15621         5.70177
           15622         5.96849
           15623         5.32896
           15624         4.85624
           15625         5.09168
           15626         4.21048
           15627         5.04889
           15628         4.53918
           15629         5.65789
           15630         5.81507
           15631         5.68595
           15632         3.84900
           15633         4.47481
           15634         4.36994
           15635         12.6045
           15636         4.95145
           15637         3.38504
           15638         1.79846
           15639         5.74168
           15640         8.92242
           15641         5.80215
           15642         6.25531
           15643         6.37440
           15644         3.75347
           15645         3.81776
           15646         4.17935
           15647         4.09202
           15648         1.82777
           15649         2.32257
           15650         2.19740
           15651         2.10761
           15652     501.765E-03
           15653         4.87904
           15654         7.75613
           15655         7.40229
           15656         7.55728
           15657         7.88663
           15658         5.08199
           15659         5.08699
           15660         4.01909
           15661         5.30093
           15662         5.42982
           15663         6.62098
           15664         4.45128
           15665         6.88219
           15666         1.37476
           15667         4.46025
           15668         3.61125
           15669         4.15595
           15670         4.95206
           15671         2.28863
           15672         2.25634
           15673         1.74252
           15674         1.86876
           15675         5.45551
           15676         5.70815
           15677         4.85891
           15678         4.68724
           15679         5.32146
           15680         2.11194
           15681         3.12755
           15682         3.36992
           15683         4.49166
           15684         4.62643
           15685         4.61010
           15686         3.94781
           15687         4.82776
           15688         4.75258
           15689     421.907E-03
           15690     489.561E-03
           15691         6.91246
           15692         1.82050
           15693         1.86346
           15694         1.46447
           15695         1.42935
           15696         5.65800
           15697         2.83613
           15698         2.74970
           15699         3.45791
           15700         4.93250
           15701     920.965E-03
           15702     713.715E-03
           15703         1.69593
           15704         3.02451
           15705         2.91241
           15706         2.76042
           15707         5.47888
           15708     973.749E-03
           15709     619.333E-03
           15710     294.172E-03
           15711         5.72866
           15712         3.49073
           15713         3.28576
           15714         1.90886
           15715     915.241E-03
           15716     480.065E-03
           15717     835.144E-03
           15718     863.656E-03
           15719         1.12658
           15720         3.14677
           15721         5.14307
           15722         2.58683
           15723         3.14516
           15724         1.89816
           15725         2.00034
           15726         2.07662
           15727         5.36972
           15728         2.75394
           15729     480.160E-03
           15730     437.148E-03
           15731         1.89013
           15732         2.21854
           15733         2.07792
           15734         1.91931
           15735         6.28449
           15736     844.800E-03
           15737     932.800E-03
           15738     927.395E-03
           15739         1.17360
           15740         2.56041
           15741         1.22945
           15742         4.83035
           15743         4.60093
           15744         4.96591
           15745         2.04050
           15746     504.472E-03
           15747     547.479E-03
           15748     360.542E-03
           15749     605.809E-03
           15750         5.50717
           15751         1.10437
           15752     897.052E-03
           15753     693.726E-03
           15754     799.597E-03
           15755     862.927E-03
           15756         5.08505
           15757         5.16036
           15758         5.23443
           15759         5.14465
           15760         2.41837
           15761         2.61425
           15762         3.00607
           15763         2.78790
           15764         2.49214
           15765         5.47542
           15766         3.93319
           15767         3.79577
           15768         3.89010
           15769         4.45904
           15770         2.12642
           15771         2.25292
           15772         2.60346
           15773         2.39097
           15774         4.23995
           15775         1.43197
           15776         2.33176
           15777         3.82216
           15778         4.31114
           15779         4.47547
           15780         2.33512
           15781         2.39190
           15782         4.20106
           15783         3.67429
           15784         3.21130
           15785         3.72500
           15786         3.54875
           15787         2.32053
           15788         2.21941
           15789         3.78697
           15790         7.64725
           15791         7.42972
           15792         7.23629
           15793         3.41991
           15794         4.22835
           15795     989.006E-03
           15796         3.32939
           15797         3.30412
           15798         3.33816
           15799         3.76925
           15800         3.67472
           15801         3.83666
           15802         3.63846
           15803         5.10642
           15804         2.70417
           15805         4.35935
           15806         2.19493
           15807         2.10054
           15808         3.58606
           15809         2.68053
           15810         4.82327
           15811         1.23221
           15812         5.84781
           15813         5.92081
           15814     404.709E-03
           15815         6.64949
           15816         6.50441
           15817         6.65397
           15818         6.20025
           15819         5.74247
           15820         4.39113
           15821         4.57633
           15822         3.71372
           15823         3.81445
           15824     550.123E-03
           15825         1.79984
           15826         1.68722
           15827         4.84109
           15828         4.97228
           15829         1.36485
           15830         1.76925
           15831     34.4685E-03
           15832     28.8505E-03
           15833     3.71856E-03
           15834         3.36444
           15835         5.50193
           15836         6.38241
           15837         3.30734
           15838     93.8435E-03
           15839     35.5305E-03
           15840     91.1133E-03
           15841     27.3359E-03
           15842         6.26265
           15843         6.59946
           15844         1.48945
           15845         6.39457
           15846     92.8639E-03
           15847     80.0855E-03
           15848     64.0444E-03
           15849     99.0952E-03
           15850     83.6786E-03
           15851         6.21099
           15852         6.04628
           15853         5.78129
           15854         6.46687
           15855         4.84357
           15856         5.15721
           15857         5.34722
           15858         4.82152
           15859         5.48510
           15860         5.49537
           15861     269.019E-03
           15862         4.22162
           15863         7.39869
           15864         7.87274
           15865         5.49501
           15866         6.21073
           15867     29.6992E-03
           15868         5.14417
           15869         5.71858
           15870     730.466E-03
           15871         5.07628
           15872         4.78805
           15873         3.83510
           15874     44.1815E-03
           15875     192.243E-03
           15876     29.8161E-03
           15877     190.376E-03
           15878         1.90972
           15879         3.02469
           15880         4.09565
           15881         4.27531
           15882         5.59716
           15883         7.03377
           15884         6.65424
           15885         5.59912
           15886         5.72644
           15887     209.520E-03
           15888         3.97925
           15889         2.61090
           15890         2.63436
           15891         2.60386
           15892         2.75042
           15893         6.11927
           15894         2.67689
           15895     376.670E-03
           15896     250.893E-03
           15897         5.12475
           15898         2.16329
           15899         1.21861
           15900         1.82398
           15901         4.73487
           15902     596.816E-03
           15903     786.291E-03
           15904         4.08780
           15905         6.43407
           15906         3.03426
           15907         2.45838
           15908         2.56761
           15909         2.64083
           15910         2.68806
           15911         2.69988
           15912     775.860E-03
           15913         2.40043
           15914         2.75263
           15915         2.54202
           15916         2.44760
           15917         3.48785
           15918         4.72583
           15919         4.92159
           15920     600.716E-03
           15921         8.30623
           15922         8.36184
           15923         8.12181
           15924         2.79657
           15925         2.89205
           15926         1.24477
           15927         1.21456
           15928     996.000E-03
           15929     980.328E-03
           15930     637.940E-03
           15931     657.656E-03
           15932         1.81494
           15933         1.85238
           15934         3.15292
           15935         5.55352
           15936         1.26864
           15937         3.15177
           15938         2.95749
           15939         3.06750
           15940         2.88025
           15941         1.39871
           15942     368.921E-03
           15943         1.05139
           15944         2.69573
           15945         2.49732
           15946         2.28347
           15947         2.12332
           15948         2.33921
           15949         2.27606
           15950         3.08928
           15951         3.69724
           15952         7.36384
           15953         7.32522
           15954         1.55642
           15955         1.55257
           15956         1.95198
           15957         1.88143
           15958         1.04294
           15959         1.10801
           15960         5.29196
           15961         5.39782
           15962         3.55152
           15963     240.784E-03
           15964         3.43126
           15965         3.25842
           15966         3.24163
           15967         2.62342
           15968         2.54830
           15969         2.10404
           15970         2.01983
           15971         2.42268
           15972         7.04863
           15973         1.50129
           15974         7.69345
           15975         7.77076
           15976         7.25827
           15977         7.23303
           15978         5.33218
           15979         5.44272
           15980         5.28865
           15981         5.19871
           15982         1.32175
           15983         1.36879
           15984     889.850E-03
           15985         1.46127
           15986         1.36620
           15987         5.36766
           15988         5.19915
           15989         5.65248
           15990         5.39714
           15991         4.78519
           15992         5.30797
           15993         5.53885
           15994         1.42146
           15995         1.10947
           15996         1.97547
           15997         1.33782
           15998     359.020E-03
           15999     923.758E-03
           16000     961.020E-03
           16001         1.45929
           16002         2.64957
           16003     92.5116E-03
           16004         7.33390
           16005         7.47714
           16006         7.88975
           16007         6.90068
           16008     678.523E-03
           16009     859.896E-03
           16010         3.30282
           16011         3.09079
           16012         6.18020
           16013         3.02901
           16014         3.15293
           16015         2.60983
           16016         2.33002
           16017         2.48914
           16018         2.64212
           16019         2.11407
           16020         6.40624
           16021         6.61975
           16022     679.333E-03
           16023     916.882E-03
           16024         1.45980
           16025     958.453E-03
           16026         1.43392
           16027         3.12592
           16028         3.40131
           16029         2.48103
           16030         2.88608
           16031         2.67379
           16032         2.97778
           16033     506.861E-03
           16034         3.13071
           16035         4.06002
           16036         4.04791
           16037         3.64454
           16038         3.62496
           16039         3.71424
           16040         7.73361
           16041         7.96796
           16042         8.38421
           16043         8.52571
           16044         8.47695
           16045         7.81768
           16046         8.06440
           16047         8.09564
           16048         7.77088
           16049         6.72853
           16050         6.96561
           16051         6.25895
           16052         6.41945
           16053         6.88205
           16054         4.72402
           16055         3.94389
           16056         3.82867
           16057         3.67059
           16058         3.37635
           16059         1.57701
           16060         1.52011
           16061         1.32694
           16062         13.0973
           16063         2.51733
           16064         1.02721
           16065         4.24786
           16066         4.41995
           16067         4.80065
           16068     387.014E-03
           16069     147.464E-03
           16070     300.724E-03
           16071     47.6632E-03
           16072     23.8262E-03
           16073         3.02799
           16074         2.91336
           16075         3.34193
           16076         4.33329
           16077         4.75922
           16078     44.4474E-03
           16079     304.169E-03
           16080         5.49014
           16081         8.03412
           16082         8.04042
           16083         7.33014
           16084         7.33233
           16085         5.28967
           16086         2.38457
           16087         3.17945
           16088         3.17944
           16089     563.080E-03
           16090         7.05977
           16091         6.95816
           16092         6.79578
           16093     659.821E-03
           16094         5.74692
           16095         7.21703
           16096         7.21698
           16097         6.58314
           16098         5.48548
           16099         5.64910
           16100     88.7895E-03
           16101     41.0519E-03
           16102     109.176E-03
           16103         7.05086
           16104         5.97936
           16105         5.06357
           16106         1.23164
           16107         3.96799
           16108         3.60319
           16109         1.82374
           16110     76.7452E-03
           16111     395.138E-03
           16112         1.24683
           16113         1.87184
           16114         1.87098
           16115     707.366E-03
           16116     70.9461E-03
           16117     362.572E-03
           16118     256.552E-03
           16119     97.7548E-03
           16120     42.5848E-03
           16121     98.4902E-03
           16122     60.6308E-03
           16123     64.5423E-03
           16124         8.71449
           16125         8.77001
           16126         8.30233
           16127         2.82393
           16128         2.49726
           16129     208.462E-03
           16130     319.243E-03
           16131         1.21259
           16132         7.06920
           16133         1.43955
           16134         6.32900
           16135         5.84654
           16136         6.01226
           16137         7.57657
           16138         5.45221
           16139     225.623E-03
           16140         3.18210
           16141         2.89323
           16142     568.179E-03
           16143     824.635E-03
           16144     863.751E-03
           16145     249.054E-03
           16146         1.63422
           16147         1.49220
           16148         1.37483
           16149         1.33116
           16150     26.4992E-03
           16151     101.412E-03
           16152     91.7698E-03
           16153     192.555E-03
           16154     227.844E-03
           16155         1.63443
           16156     61.6785E-03
           16157     90.8926E-03
           16158         7.73688
           16159     834.057E-03
           16160         1.44234
           16161         1.73391
           16162     418.110E-03
           16163     97.8248E-03
           16164     818.085E-03
           16165     638.011E-03
           16166     581.787E-03
           16167     614.745E-03
           16168     747.245E-03
           16169         1.20340
           16170         1.06331
           16171     909.572E-03
           16172     449.447E-03
           16173     96.5241E-03
           16174     844.754E-03
           16175         6.70487
           16176     87.4078E-03
           16177     92.4425E-03
           16178     96.0517E-03
           16179         7.42136
           16180         7.78780
           16181         7.82994
           16182         8.27112
           16183         8.22427
           16184         8.42885
           16185     725.276E-03
           16186     638.219E-03
           16187     201.580E-03
           16188     265.062E-03
           16189         4.83585
           16190         4.15038
           16191         5.12762
           16192         2.88529
           16193     902.593E-03
           16194     918.851E-03
           16195     835.529E-03
           16196         2.21231
           16197         3.54757
           16198         4.75161
           16199         4.54926
           16200         3.25998
           16201         3.04210
           16202         3.47976
           16203         3.58956
           16204     679.180E-03
           16205     352.190E-03
           16206     350.970E-03
           16207         7.00230
           16208         7.38560
           16209         6.87615
           16210         8.24612
           16211         6.89298
           16212         7.07635
           16213         6.63128
           16214         8.30554
           16215         7.58512
           16216         7.84503
           16217         4.99552
           16218         5.05317
           16219         7.40717
           16220         7.89947
           16221         6.98476
           16222         7.92236
           16223         7.66772
           16224         8.57643
           16225         8.37806
           16226         7.93992
           16227         8.18671
           16228         7.67652
           16229         8.57984
           16230     819.724E-03
           16231     574.981E-03
           16232         8.83881
           16233         8.91619
           16234         3.18222
           16235         1.43720
           16236         6.72944
           16237         7.57947
           16238         4.86470
           16239         8.68772
           16240         9.84223
           16241         9.60062
           16242         8.56031
           16243         7.62909
           16244         8.49166
           16245         7.36136
           16246         10.1138
           16247         9.65610
           16248         6.96274
           16249         7.16219
           16250         8.21935
           16251         8.92252
           16252         7.67227
           16253         5.97782
           16254         6.15682
           16255         9.17728
           16256         8.34128
           16257         9.00090
           16258         9.49723
           16259         2.17305
           16260         2.07876
           16261         1.79918
           16262         5.41139
           16263         1.96705
           16264         1.35130
           16265         1.80491
           16266         1.43483
           16267         3.17777
           16268         3.51624
           16269         3.58656
           16270         4.51281
           16271         4.14867
           16272         4.48155
           16273         3.79168
           16274         3.88858
           16275         2.46134
           16276         2.78128
           16277         3.51260
           16278         3.61566
           16279         3.59338
           16280         3.69841
           16281         3.71206
           16282         3.43812
           16283         2.51804
           16284         3.48643
           16285         2.17474
           16286         3.26281
           16287         1.38426
           16288         10.2635
           16289         10.4028
           16290         10.6430
           16291         9.44650
           16292         8.94886
           16293         2.52413
           16294         7.34724
           16295         7.86254
           16296         7.38551
           16297         7.45866
           16298         7.18609
           16299         2.09565
           16300         2.17332
           16301         1.64383
           16302         1.89577
           16303         1.52818
           16304         1.07472
           16305         11.0957
           16306         10.7568
           16307         2.80959
           16308         2.79023
           16309         3.22539
           16310         3.00257
           16311         4.03709
           16312         3.88880
           16313         3.60123
           16314         6.17631
           16315         8.08603
           16316         8.48831
           16317         9.01654
           16318         5.49685
           16319         3.44385
           16320         3.47241
           16321         4.80239
           16322         3.51155
           16323         4.21655
           16324         3.29363
           16325     9.22746E-03
           16326     35.8185E-03
           16327     423.772E-03
           16328         1.46275
           16329         1.47399
           16330         5.73977
           16331         6.82008
           16332     979.061E-03
           16333     682.604E-03
           16334         1.47345
           16335         1.18966
           16336         1.61434
           16337         1.12311
           16338     867.997E-03
           16339         2.29857
           16340         3.15717
           16341         6.74105
           16342         7.48366
           16343         1.13572
           16344         1.51593
           16345     651.021E-03
           16346     590.263E-03
           16347         8.84596
           16348         8.84576
           16349     978.529E-03
           16350         1.08530
           16351         1.05092
           16352         6.65144
           16353     858.172E-03
           16354         1.28589
           16355     802.624E-03
           16356         5.33274
           16357         1.08747
           16358         7.52826
           16359         7.87862
           16360         8.24699
           16361         1.65461
           16362         1.60166
           16363         1.53531
           16364         1.49436
           16365         2.15612
           16366         2.29249
           16367         1.71318
           16368         1.71944
           16369         8.78597
           16370         6.86195
           16371     68.4272E-03
           16372         6.38512
           16373         2.04648
           16374     914.862E-03
           16375         1.62912
           16376         1.20725
           16377         1.70294
           16378     735.295E-03
           16379     338.514E-03
           16380     89.3799E-03
           16381         3.44732
           16382         3.88079
           16383         3.88167
           16384         3.56529
           16385         3.01417
           16386         3.24083
           16387         2.50639
           16388         4.69545
           16389         4.80401
           16390         8.83255
           16391         8.82810
           16392         5.61319
           16393         3.41938
           16394         2.80821
           16395         8.03972
           16396         9.22883
           16397         4.02831
           16398         2.18588
           16399         7.23399
           16400     301.592E-03
           16401         8.81803
           16402         5.39692
           16403         3.98493
           16404         9.19162
           16405         9.31015
           16406         8.65432
           16407         9.18897
           16408         2.44676
           16409         2.48835
           16410         2.52408
           16411         4.60633
           16412         5.53577
           16413         6.10235
           16414         5.27603
           16415         9.41879
           16416         8.79409
           16417         9.42728
           16418     39.4996E-03
           16419     90.5649E-03
           16420     111.894E-03
           16421     131.739E-03
           16422     914.415E-03
           16423     695.021E-03
           16424     893.081E-03
           16425         6.03167
           16426         5.65488
           16427         5.92141
           16428         6.07086
           16429         5.56454
           16430         7.46748
           16431         6.95399
           16432         7.46713
           16433         7.18552
           16434         7.70489
           16435         9.18264
           16436         5.35544
           16437         6.12564
           16438         8.78110
           16439         9.39218
           16440         8.73275
           16441         9.39763
           16442         7.03803
           16443         5.98637
           16444         5.92264
           16445         5.99317
           16446         2.89668
           16447         8.02439
           16448         8.41713
           16449         8.42177
           16450         8.02853
           16451         8.63966
           16452         2.44790
           16453         2.44566
           16454         2.42974
           16455         2.40069
           16456         2.38223
           16457         2.40777
           16458         2.40682
           16459         2.37678
           16460         2.25410
           16461         1.25599
           16462     91.9024E-03
           16463     154.280E-03
           16464         6.53059
           16465         1.13436
           16466         5.24645
           16467         1.06606
           16468     910.553E-03
           16469         1.81933
           16470         1.63487
           16471         2.02041
           16472         7.38135
           16473         7.94791
           16474         2.14862
           16475         2.00483
           16476         2.01029
           16477         2.14379
           16478         5.31090
           16479         6.14593
           16480         5.78479
           16481         5.95379
           16482         6.14789
           16483         2.58332
           16484         6.95117
           16485         2.68671
           16486         7.94864
           16487         7.94733
           16488         7.37862
           16489         4.55349
           16490         4.55870
           16491         7.22907
           16492         5.98009
           16493         6.14679
           16494         6.34907
           16495         3.58656
           16496         6.50726
           16497         6.87440
           16498         18.2842
           16499         7.79913
           16500         5.58564
           16501         6.40352
           16502         9.96891
           16503         11.9861
           16504         5.58034
           16505         6.95415
           16506         7.46665
           16507         3.43476
           16508         5.76405
           16509         5.76610
           16510         6.12631
           16511         3.70917
           16512         2.61958
           16513         6.38401
           16514         5.35152
           16515         5.74650
           16516         3.97302
           16517         5.43149
           16518         6.22645
           16519         2.67891
           16520         2.81866
           16521         5.27770
           16522         5.10606
           16523         5.07511
           16524         2.88877
           16525         2.69962
           16526         2.70274
           16527         2.60297
           16528         2.66414
           16529         2.72240
           16530         2.68564
           16531         2.65779
           16532         1.31444
           16533         2.63712
           16534         2.61267
           16535         2.79977
           16536         4.54112
           16537         5.09904
           16538         5.26620
           16539         5.40988
           16540         5.40983
           16541         6.30567
           16542         7.39051
           16543         2.92236
           16544         5.59268
           16545         6.21212
           16546         5.70563
           16547         5.71893
           16548         5.76776
           16549         5.49150
           16550         5.91617
           16551         3.99561
           16552         4.68906
           16553         4.27483
           16554         4.38762
           16555         6.59506
           16556         6.78005
           16557         4.65006
           16558         4.86878
           16559         4.79289
           16560         1.41157
           16561     763.971E-03
           16562     232.095E-03
           16563     350.264E-03
           16564         1.29937
           16565         2.77335
           16566         2.75206
           16567         2.70476
           16568         4.89621
           16569         3.83707
           16570         4.15918
           16571         4.15946
           16572         3.78575
           16573         6.65272
           16574         3.01581
           16575         3.01611
           16576         4.60616
           16577         3.87026
           16578         3.87035
           16579         3.87056
           16580         7.41859
           16581         2.04894
           16582         3.58489
           16583         6.35270
           16584         3.30028
           16585         3.30067
           16586         3.65222
           16587         7.88765
           16588         8.84223
           16589         6.00630
           16590         6.16559
           16591         3.23820
           16592         2.61009
           16593         7.17372
           16594         3.30074
           16595         3.68061
           16596         3.43569
           16597         3.32364
           16598         2.44405
           16599         2.38079
           16600         5.06683
           16601         5.18077
           16602         4.59664
           16603         6.53961
           16604         6.54048
           16605         5.62547
           16606         2.14495
           16607         7.77574
           16608         8.40334
           16609         6.18289
           16610         5.98283
           16611         6.07686
           16612         5.85273
           16613         5.80347
           16614         5.36043
           16615         5.44762
           16616         1.72246
           16617         4.56207
           16618         2.13817
           16619         5.62769
           16620         4.81061
           16621         4.27057
           16622         2.43914
           16623         5.16429
           16624         4.97457
           16625         2.52314
           16626         4.78727
           16627         4.72102
           16628         1.84521
           16629         1.86512
           16630         1.99541
           16631         1.86606
           16632         1.84569
           16633         5.84301
           16634         2.22115
           16635         5.75998
           16636         1.69536
           16637         1.24493
           16638         2.49055
           16639         5.66695
           16640         4.48885
           16641         5.36684
           16642         5.46214
           16643         1.57233
           16644         5.91867
           16645         5.65225
           16646         1.91986
           16647         2.47500
           16648         2.48428
           16649         2.36773
           16650         2.35205
           16651         1.04956
           16652     950.314E-03
           16653     950.935E-03
           16654         2.53170
           16655         2.57087
           16656     692.845E-03
           16657     611.524E-03
           16658         1.28235
           16659     190.861E-03
           16660         1.21368
           16661     845.600E-03
           16662     843.577E-03
           16663         1.32345
           16664         1.30022
           16665         1.00738
           16666     675.839E-03
           16667         1.81005
           16668         3.27597
           16669     775.870E-03
           16670         2.96927
           16671         3.06757
           16672         2.61018
           16673         2.52805
           16674         2.59001
           16675         2.49971
           16676         2.61745
           16677         2.73700
           16678         2.60515
           16679         2.60177
           16680         2.60448
           16681     72.3392E-03
           16682         2.56188
           16683     555.653E-03
           16684     667.729E-03
           16685     549.918E-03
           16686         2.49290
           16687     73.6755E-03
           16688     75.7080E-03
           16689         2.43235
           16690         2.58041
           16691         7.51145
           16692         7.20165
           16693         6.69834
           16694     77.5249E-03
           16695     223.760E-03
           16696     225.991E-03
           16697     353.113E-03
           16698     790.110E-03
           16699         2.59692
           16700     579.152E-03
           16701         2.80232
           16702         4.72040
           16703         2.80470
           16704         2.71130
           16705         2.43931
           16706         2.28755
           16707         2.53512
           16708         2.67146
           16709         2.43877
           16710     672.043E-03
           16711         3.01022
           16712     646.461E-03
           16713         3.43027
           16714     8.95134E-03
           16715     3.81122E-03
           16716         7.02015
           16717         7.04940
           16718     431.475E-03
           16719         8.39508
           16720         7.30595
           16721         4.22020
           16722         4.49974
           16723         4.12308
           16724         4.01983
           16725         8.24735
           16726         6.85177
           16727     48.9529E-03
           16728     46.3497E-03
           16729         4.78260
           16730         5.87736
           16731         5.40958
           16732         6.65949
           16733     34.9363E-03
           16734     35.4758E-03
           16735         5.42207
           16736         5.43358
           16737         5.60045
           16738     47.5899E-03
           16739         4.97513
           16740         5.11096
           16741         6.94981
           16742     35.4761E-03
           16743         5.36194
           16744         8.55733
           16745         8.12017
           16746         4.97515
           16747         5.68229
           16748         6.87750
           16749         2.44470
           16750     964.775E-03
           16751     52.9850E-03
           16752         2.62526
           16753         1.07515
           16754         1.11140
           16755         2.58989
           16756         5.07529
           16757         4.79051
           16758         2.68961
           16759         3.32578
           16760         2.48710
           16761         2.75725
           16762     288.312E-03
           16763     866.250E-03
           16764         2.77111
           16765         8.61945
           16766         5.35001
           16767         4.48504
           16768         5.40224
           16769         4.09150
           16770         3.53582
           16771         2.08653
           16772         2.49943
           16773         3.36930
           16774         2.87213
           16775         1.18199
           16776         1.33382
           16777         2.49106
           16778         2.79817
           16779     467.790E-03
           16780     845.415E-03
           16781         5.56364
           16782         4.52315
           16783         3.32648
           16784     627.505E-03
           16785         9.79243
           16786         9.56776
           16787         7.96422
           16788         7.82580
           16789     49.7536E-03
           16790         6.19707
           16791         6.08192
           16792         6.27460
           16793         6.43191
           16794     13.1478E-03
           16795         5.68581
           16796     391.105E-03
           16797     869.152E-03
           16798     322.483E-03
           16799     22.2062E-03
           16800         5.93136
           16801         5.93005
           16802     80.8417E-03
           16803     244.671E-03
           16804     187.879E-03
           16805         2.12224
           16806         4.93292
           16807     14.7220E-03
           16808         5.78347
           16809     10.5264E-03
           16810         5.47656
           16811         5.78194
           16812     35.8932E-03
           16813         1.32587
           16814         9.08899
           16815         1.85141
           16816         8.56725
           16817         7.94070
           16818         6.30478
           16819         3.98465
           16820         4.39367
           16821         6.89722
           16822         3.45579
           16823         6.46771
           16824         6.11125
           16825         3.95188
           16826         6.53263
           16827         5.41761
           16828         5.51337
           16829         4.00787
           16830         3.74416
           16831         3.62127
           16832         3.49334
           16833         3.56916
           16834         4.39834
           16835         4.52096
           16836         5.03014
           16837         2.67885
           16838         2.45190
           16839         2.78932
           16840         2.30667
           16841         2.36655
           16842         2.41856
           16843         8.97281
           16844         2.05507
           16845         2.15058
           16846         2.31146
           16847         8.55097
           16848         7.49122
           16849         2.05724
           16850         2.29733
           16851         2.37022
           16852         2.33950
           16853         2.44642
           16854         3.38354
           16855         2.64101
           16856         2.56493
           16857         2.80825
           16858         1.39142
           16859         1.94972
           16860         2.35312
           16861         2.18615
           16862         2.18539
           16863         3.36133
           16864         3.11463
           16865         3.07382
           16866         2.22690
           16867         2.31367
           16868         2.33074
           16869         2.52412
           16870         2.40733
           16871         2.54789
           16872         2.40791
           16873         2.57045
           16874         2.68540
           16875         2.70273
           16876         2.69541
           16877         2.68665
           16878         2.27066
           16879         2.42054
           16880         2.33127
           16881         2.34141
           16882         2.61373
           16883         2.41534
           16884         2.45438
           16885         2.58259
           16886         2.38244
           16887         2.58257
           16888         2.58293
           16889         2.60488
           16890         9.74939
           16891         2.21658
           16892         2.49046
           16893         2.48839
           16894         2.46451
           16895         3.58503
           16896         3.40023
           16897         2.00892
           16898         1.85812
           16899         3.78737
           16900         4.45468
           16901         4.45413
           16902         1.95478
           16903         1.84573
           16904         2.18841
           16905         2.46188
           16906         2.14473
           16907         2.11073
           16908         2.61183
           16909         2.61027
           16910         2.75939
           16911         2.58941
           16912         2.85260
           16913         2.31044
           16914         2.66735
           16915     674.950E-03
           16916         2.84118
           16917         1.94814
           16918         2.27406
           16919         2.17510
           16920         2.65844
           16921         2.63313
           16922         2.64054
           16923         2.33436
           16924         2.56827
           16925         2.43953
           16926         2.68771
           16927         2.61004
           16928         2.60927
           16929         3.87565
           16930         2.66631
           16931         8.58785
           16932         5.03511
           16933         2.90215
           16934         4.13535
           16935         3.61210
           16936         3.55057
           16937         1.87263
           16938     249.142E-03
           16939         1.00497
           16940         3.18059
           16941     865.135E-03
           16942         2.69977
           16943         1.51486
           16944         2.76069
           16945         1.25432
           16946         1.03917
           16947     40.0475E-03
           16948     32.9327E-03
           16949     248.371E-03
           16950     626.663E-03
           16951         1.23897
           16952         1.70564
           16953     886.378E-03
           16954     711.824E-03
           16955         1.92221
           16956     98.6359E-03
           16957     70.1534E-03
           16958         5.61865
           16959         5.76510
           16960     138.210E-03
           16961         4.78531
           16962     75.1753E-03
           16963         3.39286
           16964         4.42465
           16965         1.38422
           16966         3.18421
           16967         4.02604
           16968         3.74536
           16969     516.280E-03
           16970     815.148E-03
           16971     771.749E-03
           16972         1.85368
           16973         1.23881
           16974         1.29573
           16975         2.33773
           16976         1.31368
           16977     406.075E-03
           16978     488.487E-03
           16979         9.24076
           16980         5.71988
           16981         5.17751
           16982     450.439E-03
           16983         3.69867
           16984         2.74344
           16985     560.758E-03
           16986         6.42917
           16987         5.18234
           16988     676.894E-03
           16989         1.15002
           16990     428.889E-03
           16991     429.950E-03
           16992     640.569E-03
           16993         6.31423
           16994         4.33620
           16995     110.802E-03
           16996     49.0640E-03
           16997         2.57979
           16998         2.72921
           16999     12.7253E-03
           17000     9.92752E-03
           17001     131.462E-03
           17002     10.5396E-03
           17003     107.627E-03
           17004     95.7055E-03
           17005     92.9868E-03
           17006         2.11913
           17007         4.79371
           17008         3.66417
           17009     771.635E-03
           17010         1.06969
           17011     366.705E-03
           17012         3.70975
           17013         3.47908
           17014         3.54064
           17015         1.29678
           17016         3.33226
           17017         3.33524
           17018         3.84596
           17019         3.25473
           17020         2.60317
           17021         3.55623
           17022         3.09910
           17023         4.97087
           17024         5.76545
           17025         4.93824
           17026         5.90867
           17027         5.77543
           17028         4.65147
           17029         10.1986
           17030         4.03137
           17031         5.09474
           17032         10.8833
           17033         14.1681
           17034         4.60627
           17035         5.59924
           17036         5.88921
           17037         6.14745
           17038         6.55833
           17039         6.55724
           17040         5.44733
           17041         5.69798
           17042         6.73480
           17043         8.18557
           17044         4.13994
           17045         3.52117
           17046         5.84610
           17047         2.53152
           17048         6.95765
           17049         2.89271
           17050         1.92613
           17051         9.21296
           17052         6.75025
           17053         9.08561
           17054         9.08454
           17055         2.47147
           17056         2.53306
           17057         8.47859
           17058         4.36922
           17059         8.56414
           17060         1.94882
           17061         3.98716
           17062         4.17953
           17063         7.24937
           17064         3.75056
           17065         8.41981
           17066         8.72992
           17067         9.38743
           17068         4.16466
           17069         4.56822
           17070         4.38004
           17071         5.75950
           17072         4.73357
           17073         4.85564
           17074         5.64477
           17075         10.5898
           17076         5.86948
           17077         4.60748
           17078         9.12140
           17079         6.54159
           17080         12.3988
           17081         12.6247
           17082         9.67946
           17083         15.5998
           17084         6.45485
           17085         7.87970
           17086         5.02308
           17087         6.73158
           17088         8.08099
           17089         6.21538
           17090         1.08119
           17091         6.98786
           17092         9.74916
           17093         8.87371
           17094         9.25876
           17095         5.49549
           17096         6.18281
           17097         6.63405
           17098         5.87669
           17099         7.31413
           17100         6.62700
           17101         9.67263
           17102         5.56464
           17103         10.4796
           17104         12.5385
           17105         5.35067
           17106         5.09443
           17107         9.35195
           17108         9.42320
           17109         1.76273
           17110         7.12103
           17111         7.50549
           17112         8.84888
           17113         1.44014
           17114         3.17956
           17115         8.62152
           17116         10.9051
           17117         10.2293
           17118         9.23287
           17119         1.66753
           17120         4.62702
           17121         4.28243
           17122         3.33754
           17123         5.36926
           17124     820.882E-03
           17125         3.83450
           17126         5.24426
           17127         7.21666
           17128         2.75435
           17129         6.27827
           17130         3.33959
           17131         6.33016
           17132     130.180E-03
           17133     488.388E-03
           17134     513.267E-03
           17135         2.52125
           17136         3.88531
           17137         3.99750
           17138         4.37713
           17139         4.33652
           17140         4.39052
           17141         5.67352
           17142         8.02368
           17143         8.58698
           17144         7.30828
           17145         4.55359
           17146         4.75914
           17147         3.67163
           17148         7.35504
           17149         5.24831
           17150         4.21883
           17151         4.62034
           17152         5.41192
           17153         4.94095
           17154         3.04207
           17155         3.29157
           17156         4.04111
           17157         3.68413
           17158         3.34474
           17159         7.07060
           17160         2.56576
           17161         6.25081
           17162         4.05029
           17163         6.74876
           17164         7.12456
           17165         5.72331
           17166         6.39479
           17167         2.60215
           17168         3.36713
           17169         5.41662
           17170         5.02881
           17171     81.2892E-03
           17172         2.51362


  Minimum            798.515E-06
         At Node              14

  Maximum                32.9382
         At Node              47

           Total     64.8917E+03


